ITEM: TIMESTEP
0
ITEM: NUMBER OF ATOMS
216
ITEM: BOX BOUNDS pp pp pp
0.0000000000000000e+00 1.6427280000000000e+01
0.0000000000000000e+00 1.6427280000000000e+01
0.0000000000000000e+00 1.6427280000000000e+01
ITEM: ATOMS id type xs ys zs
1 1 0 0 0
2 1 0 0.166667 0.166667
3 1 0.166667 0 0.166667
4 1 0.166667 0.166667 0
5 1 0.0833333 0.0833333 0.0833333
9 1 0.333333 0 0
10 1 0.333333 0.166667 0.166667
13 1 0.416667 0.0833333 0.0833333
11 1 0.5 0 0.166667
12 1 0.5 0.166667 0
17 1 0.666667 0 0
18 1 0.666667 0.166667 0.166667
19 1 0.833333 0 0.166667
20 1 0.833333 0.166667 0
21 1 0.75 0.0833333 0.0833333
25 1 0 0.333333 0
27 1 0.166667 0.333333 0.166667
29 1 0.0833333 0.416667 0.0833333
8 1 0.25 0.25 0.0833333
33 1 0.333333 0.333333 0
37 1 0.416667 0.416667 0.0833333
16 1 0.583333 0.25 0.0833333
35 1 0.5 0.333333 0.166667
41 1 0.666667 0.333333 0
24 1 0.916667 0.25 0.0833333
43 1 0.833333 0.333333 0.166667
45 1 0.75 0.416667 0.0833333
26 1 0 0.5 0.166667
28 1 0.166667 0.5 0
49 1 0 0.666667 0
51 1 0.166667 0.666667 0.166667
32 1 0.25 0.583333 0.0833333
34 1 0.333333 0.5 0.166667
57 1 0.333333 0.666667 0
36 1 0.5 0.5 0
40 1 0.583333 0.583333 0.0833333
42 1 0.666667 0.5 0.166667
59 1 0.5 0.666667 0.166667
65 1 0.666667 0.666667 0
44 1 0.833333 0.5 0
48 1 0.916667 0.583333 0.0833333
67 1 0.833333 0.666667 0.166667
50 1 0 0.833333 0.166667
52 1 0.166667 0.833333 0
53 1 0.0833333 0.75 0.0833333
56 1 0.25 0.916667 0.0833333
58 1 0.333333 0.833333 0.166667
61 1 0.416667 0.75 0.0833333
60 1 0.5 0.833333 0
64 1 0.583333 0.916667 0.0833333
66 1 0.666667 0.833333 0.166667
68 1 0.833333 0.833333 0
69 1 0.75 0.75 0.0833333
72 1 0.916667 0.916667 0.0833333
73 1 0 0 0.333333
76 1 0.166667 0.166667 0.333333
77 1 0.0833333 0.0833333 0.416667
7 1 0.25 0.0833333 0.25
81 1 0.333333 0 0.333333
85 1 0.416667 0.0833333 0.416667
15 1 0.583333 0.0833333 0.25
84 1 0.5 0.166667 0.333333
89 1 0.666667 0 0.333333
23 1 0.916667 0.0833333 0.25
92 1 0.833333 0.166667 0.333333
93 1 0.75 0.0833333 0.416667
6 1 0.0833333 0.25 0.25
97 1 0 0.333333 0.333333
101 1 0.0833333 0.416667 0.416667
14 1 0.416667 0.25 0.25
31 1 0.25 0.416667 0.25
80 1 0.25 0.25 0.416667
105 1 0.333333 0.333333 0.333333
109 1 0.416667 0.416667 0.416667
39 1 0.583333 0.416667 0.25
88 1 0.583333 0.25 0.416667
113 1 0.666667 0.333333 0.333333
22 1 0.75 0.25 0.25
47 1 0.916667 0.416667 0.25
96 1 0.916667 0.25 0.416667
117 1 0.75 0.416667 0.416667
30 1 0.0833333 0.583333 0.25
100 1 0.166667 0.5 0.333333
121 1 0 0.666667 0.333333
38 1 0.416667 0.583333 0.25
104 1 0.25 0.583333 0.416667
129 1 0.333333 0.666667 0.333333
108 1 0.5 0.5 0.333333
112 1 0.583333 0.583333 0.416667
137 1 0.666667 0.666667 0.333333
46 1 0.75 0.583333 0.25
116 1 0.833333 0.5 0.333333
120 1 0.916667 0.583333 0.416667
54 1 0.0833333 0.916667 0.25
124 1 0.166667 0.833333 0.333333
125 1 0.0833333 0.75 0.416667
55 1 0.25 0.75 0.25
62 1 0.416667 0.916667 0.25
128 1 0.25 0.916667 0.416667
133 1 0.416667 0.75 0.416667
63 1 0.583333 0.75 0.25
132 1 0.5 0.833333 0.333333
136 1 0.583333 0.916667 0.416667
70 1 0.75 0.916667 0.25
71 1 0.916667 0.75 0.25
140 1 0.833333 0.833333 0.333333
141 1 0.75 0.75 0.416667
144 1 0.916667 0.916667 0.416667
74 1 0 0.166667 0.5
75 1 0.166667 0 0.5
145 1 0 0 0.666667
148 1 0.166667 0.166667 0.666667
79 1 0.25 0.0833333 0.583333
82 1 0.333333 0.166667 0.5
153 1 0.333333 0 0.666667
83 1 0.5 0 0.5
87 1 0.583333 0.0833333 0.583333
90 1 0.666667 0.166667 0.5
156 1 0.5 0.166667 0.666667
161 1 0.666667 0 0.666667
91 1 0.833333 0 0.5
95 1 0.916667 0.0833333 0.583333
164 1 0.833333 0.166667 0.666667
78 1 0.0833333 0.25 0.583333
99 1 0.166667 0.333333 0.5
169 1 0 0.333333 0.666667
86 1 0.416667 0.25 0.583333
103 1 0.25 0.416667 0.583333
177 1 0.333333 0.333333 0.666667
107 1 0.5 0.333333 0.5
111 1 0.583333 0.416667 0.583333
185 1 0.666667 0.333333 0.666667
94 1 0.75 0.25 0.583333
115 1 0.833333 0.333333 0.5
119 1 0.916667 0.416667 0.583333
98 1 0 0.5 0.5
102 1 0.0833333 0.583333 0.583333
123 1 0.166667 0.666667 0.5
172 1 0.166667 0.5 0.666667
193 1 0 0.666667 0.666667
106 1 0.333333 0.5 0.5
110 1 0.416667 0.583333 0.583333
201 1 0.333333 0.666667 0.666667
114 1 0.666667 0.5 0.5
131 1 0.5 0.666667 0.5
180 1 0.5 0.5 0.666667
209 1 0.666667 0.666667 0.666667
118 1 0.75 0.583333 0.583333
139 1 0.833333 0.666667 0.5
188 1 0.833333 0.5 0.666667
122 1 0 0.833333 0.5
126 1 0.0833333 0.916667 0.583333
196 1 0.166667 0.833333 0.666667
127 1 0.25 0.75 0.583333
130 1 0.333333 0.833333 0.5
134 1 0.416667 0.916667 0.583333
135 1 0.583333 0.75 0.583333
138 1 0.666667 0.833333 0.5
204 1 0.5 0.833333 0.666667
142 1 0.75 0.916667 0.583333
143 1 0.916667 0.75 0.583333
212 1 0.833333 0.833333 0.666667
146 1 0 0.166667 0.833333
147 1 0.166667 0 0.833333
149 1 0.0833333 0.0833333 0.75
151 1 0.25 0.0833333 0.916667
154 1 0.333333 0.166667 0.833333
157 1 0.416667 0.0833333 0.75
155 1 0.5 0 0.833333
159 1 0.583333 0.0833333 0.916667
162 1 0.666667 0.166667 0.833333
163 1 0.833333 0 0.833333
165 1 0.75 0.0833333 0.75
167 1 0.916667 0.0833333 0.916667
150 1 0.0833333 0.25 0.916667
171 1 0.166667 0.333333 0.833333
173 1 0.0833333 0.416667 0.75
152 1 0.25 0.25 0.75
158 1 0.416667 0.25 0.916667
175 1 0.25 0.416667 0.916667
181 1 0.416667 0.416667 0.75
160 1 0.583333 0.25 0.75
179 1 0.5 0.333333 0.833333
183 1 0.583333 0.416667 0.916667
166 1 0.75 0.25 0.916667
168 1 0.916667 0.25 0.75
187 1 0.833333 0.333333 0.833333
189 1 0.75 0.416667 0.75
191 1 0.916667 0.416667 0.916667
170 1 0 0.5 0.833333
174 1 0.0833333 0.583333 0.916667
195 1 0.166667 0.666667 0.833333
176 1 0.25 0.583333 0.75
178 1 0.333333 0.5 0.833333
182 1 0.416667 0.583333 0.916667
184 1 0.583333 0.583333 0.75
186 1 0.666667 0.5 0.833333
203 1 0.5 0.666667 0.833333
190 1 0.75 0.583333 0.916667
192 1 0.916667 0.583333 0.75
211 1 0.833333 0.666667 0.833333
194 1 0 0.833333 0.833333
197 1 0.0833333 0.75 0.75
198 1 0.0833333 0.916667 0.916667
199 1 0.25 0.75 0.916667
200 1 0.25 0.916667 0.75
202 1 0.333333 0.833333 0.833333
205 1 0.416667 0.75 0.75
206 1 0.416667 0.916667 0.916667
207 1 0.583333 0.75 0.916667
208 1 0.583333 0.916667 0.75
210 1 0.666667 0.833333 0.833333
213 1 0.75 0.75 0.75
214 1 0.75 0.916667 0.916667
215 1 0.916667 0.75 0.916667
216 1 0.916667 0.916667 0.75
ITEM: TIMESTEP
100
ITEM: NUMBER OF ATOMS
216
ITEM: BOX BOUNDS pp pp pp
0.0000000000000000e+00 1.6427280000000000e+01
0.0000000000000000e+00 1.6427280000000000e+01
0.0000000000000000e+00 1.6427280000000000e+01
ITEM: ATOMS id type xs ys zs
1 1 0.00161483 0.000673203 -0.00308095
2 1 -0.00302785 0.162391 0.166497
3 1 0.168936 0.000152093 0.167317
4 1 0.167582 0.163398 -0.0083279
5 1 0.0835553 0.0839236 0.0837667
9 1 0.337117 -0.00173736 0.00156086
10 1 0.336036 0.165306 0.166208
13 1 0.418787 0.0767256 0.0887943
11 1 0.502391 -0.00366621 0.167366
12 1 0.498615 0.160692 0.00262937
17 1 0.668748 -0.00428842 0.00372069
18 1 0.665396 0.164813 0.168317
19 1 0.834995 -0.00231757 0.169841
20 1 0.83339 0.165908 0.00050302
21 1 0.753006 0.0805007 0.0834397
25 1 0.001907 0.331801 -0.0050716
27 1 0.164598 0.333461 0.161215
29 1 0.0848914 0.416147 0.0790441
8 1 0.250847 0.24807 0.0809777
33 1 0.329215 0.331706 -0.00273583
37 1 0.419907 0.415761 0.0840146
16 1 0.579716 0.245912 0.0845709
35 1 0.503642 0.334183 0.168097
41 1 0.667774 0.33411 0.00266487
24 1 0.916394 0.251324 0.083461
43 1 0.834007 0.332738 0.163489
45 1 0.750316 0.41918 0.0830856
26 1 0.00396495 0.499665 0.159503
28 1 0.169116 0.504243 -0.00532412
49 1 0.00187757 0.671634 -0.00469489
51 1 0.170595 0.665409 0.160958
32 1 0.254444 0.583074 0.076649
34 1 0.334908 0.499216 0.161985
57 1 0.333071 0.66545 -0.000920137
36 1 0.500356 0.499838 0.00217826
40 1 0.582377 0.585793 0.0845919
42 1 0.665245 0.503395 0.170228
59 1 0.503127 0.666912 0.170215
65 1 0.669866 0.667649 0.00293025
44 1 0.837086 0.500821 -0.000618157
48 1 0.916087 0.585341 0.0817229
67 1 0.835807 0.670011 0.165853
50 1 0.00517066 0.834512 0.16635
52 1 0.170898 0.829233 -0.000287621
53 1 0.0866887 0.75077 0.0834053
56 1 0.252663 0.914545 0.0846561
58 1 0.336196 0.830234 0.173436
61 1 0.415944 0.750529 0.0843426
60 1 0.505252 0.834454 0.00243975
64 1 0.586221 0.914691 0.0862719
66 1 0.669729 0.831237 0.169892
68 1 0.837031 0.833261 0.000867598
69 1 0.751914 0.749111 0.0830541
72 1 0.918518 0.913911 0.0838351
73 1 -0.00392431 0.00270209 0.336832
76 1 0.168047 0.17281 0.329504
77 1 0.0826662 0.0889889 0.413184
7 1 0.253147 0.0819787 0.254541
81 1 0.339239 0.00236121 0.336473
85 1 0.421279 0.0923912 0.41866
15 1 0.588712 0.0838647 0.255805
84 1 0.504559 0.164716 0.330287
89 1 0.665818 -0.00315326 0.334452
23 1 0.915571 0.0819556 0.250222
92 1 0.829445 0.164091 0.334804
93 1 0.745807 0.0822999 0.417037
6 1 0.0811056 0.246945 0.246372
97 1 -0.00176639 0.331649 0.33448
101 1 0.0808114 0.416088 0.412164
14 1 0.420697 0.251254 0.251508
31 1 0.247129 0.418608 0.241705
80 1 0.249987 0.255271 0.414979
105 1 0.335178 0.338094 0.329373
109 1 0.414182 0.418351 0.415149
39 1 0.581923 0.418689 0.250359
88 1 0.581848 0.251624 0.419095
113 1 0.666262 0.335786 0.331905
22 1 0.749456 0.249257 0.249112
47 1 0.918025 0.418702 0.247363
96 1 0.91343 0.251839 0.41385
117 1 0.747689 0.416321 0.419638
30 1 0.0844264 0.586015 0.243047
100 1 0.166629 0.499928 0.328105
121 1 0.00408291 0.672539 0.328833
38 1 0.416072 0.580546 0.248625
104 1 0.245518 0.580473 0.417045
129 1 0.33304 0.661966 0.335664
108 1 0.501017 0.501698 0.335544
112 1 0.585653 0.582003 0.419886
137 1 0.672911 0.66763 0.336243
46 1 0.755641 0.586508 0.249396
116 1 0.830831 0.50234 0.334282
120 1 0.914457 0.588791 0.419947
54 1 0.0830852 0.9185 0.25504
124 1 0.1693 0.831344 0.333693
125 1 0.0822779 0.748866 0.417139
55 1 0.25556 0.747905 0.254967
62 1 0.418796 0.914864 0.250661
128 1 0.253081 0.911811 0.417729
133 1 0.416021 0.743304 0.419989
63 1 0.588034 0.74875 0.252827
132 1 0.502819 0.831358 0.33565
136 1 0.584761 0.91882 0.420388
70 1 0.753564 0.916088 0.252763
71 1 0.920464 0.757998 0.249961
140 1 0.835339 0.835206 0.337481
141 1 0.753195 0.754609 0.420265
144 1 0.915363 0.921568 0.416355
74 1 -0.00728156 0.168277 0.495069
75 1 0.169545 -0.00042235 0.496398
145 1 -0.00224576 -0.000527021 0.665155
148 1 0.161095 0.165906 0.661432
79 1 0.248555 0.085647 0.578022
82 1 0.331714 0.16694 0.497467
153 1 0.331227 -8.90039e-05 0.664526
83 1 0.500448 0.00227105 0.498559
87 1 0.580398 0.0863673 0.584113
90 1 0.662519 0.167656 0.498632
156 1 0.495613 0.165171 0.668378
161 1 0.665687 0.00216328 0.668248
91 1 0.827339 0.00330417 0.500493
95 1 0.908952 0.0870062 0.583914
164 1 0.830888 0.171779 0.669986
78 1 0.0802548 0.253301 0.579888
99 1 0.16476 0.337367 0.498854
169 1 -0.00111919 0.335853 0.666449
86 1 0.414811 0.251904 0.585502
103 1 0.247941 0.420394 0.582893
177 1 0.326422 0.331599 0.66443
107 1 0.494353 0.337218 0.501057
111 1 0.582216 0.414761 0.584156
185 1 0.663555 0.334904 0.670184
94 1 0.744565 0.254331 0.585793
115 1 0.832186 0.332169 0.502519
119 1 0.916423 0.418505 0.586504
98 1 -0.00261723 0.503387 0.498509
102 1 0.0829414 0.584883 0.583791
123 1 0.168323 0.669243 0.497359
172 1 0.166481 0.500014 0.670665
193 1 -0.00199595 0.668123 0.666636
106 1 0.331471 0.501292 0.495287
110 1 0.412681 0.581231 0.585188
201 1 0.330648 0.666639 0.664227
114 1 0.667451 0.499431 0.503405
131 1 0.497956 0.659703 0.505217
180 1 0.492415 0.495974 0.671958
209 1 0.666061 0.665785 0.670413
118 1 0.747002 0.583099 0.585745
139 1 0.830563 0.666614 0.501518
188 1 0.831118 0.501331 0.66811
122 1 -0.00245527 0.834522 0.50044
126 1 0.0833138 0.914361 0.583738
196 1 0.167357 0.832726 0.663939
127 1 0.246568 0.746492 0.583425
130 1 0.334615 0.828869 0.50144
134 1 0.416143 0.915071 0.583841
135 1 0.582508 0.750229 0.582136
138 1 0.668036 0.83723 0.504126
204 1 0.497922 0.8314 0.667418
142 1 0.748986 0.91737 0.585152
143 1 0.915281 0.7511 0.582216
212 1 0.828939 0.830899 0.664767
146 1 0.0022117 0.168951 0.827676
147 1 0.166967 -0.00439364 0.827992
149 1 0.0810178 0.0853936 0.746284
151 1 0.251153 0.0761513 0.914532
154 1 0.335427 0.162395 0.831768
157 1 0.418565 0.0809193 0.750348
155 1 0.499512 0.000790289 0.834961
159 1 0.585222 0.0818476 0.91889
162 1 0.664575 0.165046 0.835479
163 1 0.831785 0.00326185 0.83441
165 1 0.745092 0.0887522 0.75316
167 1 0.922348 0.0862282 0.913894
150 1 0.0836102 0.247526 0.915116
171 1 0.166738 0.329967 0.829274
173 1 0.0838065 0.415739 0.748137
152 1 0.249584 0.243589 0.7445
158 1 0.41438 0.24344 0.917204
175 1 0.246647 0.412685 0.90933
181 1 0.410942 0.412219 0.751954
160 1 0.58293 0.250223 0.752048
179 1 0.494649 0.333453 0.835722
183 1 0.580975 0.412345 0.918658
166 1 0.752282 0.251515 0.92108
168 1 0.916921 0.253497 0.75059
187 1 0.83332 0.333607 0.836626
189 1 0.746084 0.415274 0.751623
191 1 0.91442 0.416554 0.916963
170 1 0.00160991 0.500672 0.839194
174 1 0.0869407 0.587014 0.91587
195 1 0.168588 0.665478 0.831964
176 1 0.248163 0.58272 0.748842
178 1 0.3323 0.501567 0.834916
182 1 0.41607 0.582974 0.91682
184 1 0.583911 0.577397 0.751076
186 1 0.66337 0.498797 0.836129
203 1 0.50101 0.665373 0.831068
190 1 0.749689 0.583323 0.915956
192 1 0.916928 0.585334 0.747744
211 1 0.834912 0.663439 0.832869
194 1 -0.000139567 0.837421 0.831756
197 1 0.084702 0.749401 0.749033
198 1 0.0864041 0.91591 0.914431
199 1 0.253171 0.750742 0.915732
200 1 0.250838 0.913201 0.748576
202 1 0.334624 0.832385 0.832378
205 1 0.415974 0.749482 0.747342
206 1 0.416075 0.913559 0.915206
207 1 0.587388 0.748321 0.917821
208 1 0.581248 0.917472 0.752686
210 1 0.668317 0.83678 0.83596
213 1 0.750216 0.747305 0.752874
214 1 0.753989 0.917425 0.920527
215 1 0.919046 0.755449 0.915072
216 1 0.912191 0.916594 0.74539
ITEM: TIMESTEP
200
ITEM: NUMBER OF ATOMS
216
ITEM: BOX BOUNDS pp pp pp
0.0000000000000000e+00 1.6427280000000000e+01
0.0000000000000000e+00 1.6427280000000000e+01
0.0000000000000000e+00 1.6427280000000000e+01
ITEM: ATOMS id type xs ys zs
1 1 0.0020926 -0.00210441 0.00250629
2 1 0.00491896 0.173011 0.168083
3 1 0.167734 0.000312056 0.165288
4 1 0.163741 0.170177 0.0065561
5 1 0.0837885 0.0867944 0.082912
9 1 0.335697 0.00421959 -0.00201406
10 1 0.335091 0.1619 0.165298
13 1 0.417888 0.0842603 0.0763319
11 1 0.499949 0.00257295 0.165782
12 1 0.499113 0.167642 0.000606976
17 1 0.663612 0.000661919 -0.00384253
18 1 0.666839 0.169252 0.169746
19 1 0.838779 0.00601016 0.167361
20 1 0.834978 0.171617 -0.000965864
21 1 0.747024 0.0836161 0.0846348
25 1 -0.00348009 0.334878 0.0014094
27 1 0.170081 0.333316 0.172902
29 1 0.0821331 0.41591 0.0860593
8 1 0.245716 0.250146 0.0849626
33 1 0.340872 0.331399 0.00168572
37 1 0.415118 0.417089 0.088046
16 1 0.584784 0.255947 0.0840797
35 1 0.49902 0.334104 0.167457
41 1 0.667171 0.332815 -0.00262407
24 1 0.921717 0.247082 0.0821097
43 1 0.832573 0.331106 0.164829
45 1 0.75531 0.417658 0.0825009
26 1 -0.0012552 0.50106 0.170394
28 1 0.166668 0.497074 0.00814373
49 1 0.00437826 0.661536 0.00388008
51 1 0.166779 0.669563 0.1674
32 1 0.24688 0.581667 0.0886829
34 1 0.328955 0.502445 0.168754
57 1 0.328547 0.665073 0.000434719
36 1 0.503047 0.498864 -0.00141647
40 1 0.589881 0.579583 0.0796291
42 1 0.66999 0.496025 0.167078
59 1 0.502249 0.661444 0.164733
65 1 0.668591 0.665513 0.00416659
44 1 0.831855 0.498157 -0.00265526
48 1 0.917644 0.581487 0.0851046
67 1 0.83018 0.665178 0.169249
50 1 -0.00213152 0.830888 0.165887
52 1 0.164345 0.837848 -0.00222989
53 1 0.0810315 0.752161 0.080174
56 1 0.256295 0.915488 0.0788542
58 1 0.333379 0.835068 0.16127
61 1 0.418 0.743577 0.0843234
60 1 0.499192 0.834916 -0.000115812
64 1 0.585617 0.920984 0.0857889
66 1 0.667764 0.834023 0.163462
68 1 0.830228 0.833738 -0.000470651
69 1 0.751882 0.75224 0.0814924
72 1 0.915686 0.917451 0.0846805
73 1 -0.000368745 -0.00172429 0.32628
76 1 0.161171 0.161344 0.332175
77 1 0.0807026 0.0788717 0.414955
7 1 0.244196 0.0886957 0.246443
81 1 0.329596 -0.00260375 0.331331
85 1 0.412646 0.0749217 0.412444
15 1 0.575973 0.0826931 0.250865
84 1 0.490762 0.165202 0.337821
89 1 0.667506 0.00780905 0.337964
23 1 0.925351 0.088296 0.250736
92 1 0.844884 0.169621 0.334225
93 1 0.753191 0.0855209 0.417713
6 1 0.0860296 0.255044 0.253142
97 1 0.00142521 0.332065 0.329425
101 1 0.0830666 0.417172 0.414712
14 1 0.417563 0.248456 0.248086
31 1 0.254984 0.415698 0.255333
80 1 0.246401 0.238989 0.416194
105 1 0.329601 0.329744 0.338732
109 1 0.416754 0.418218 0.416407
39 1 0.581351 0.415072 0.246664
88 1 0.578486 0.24581 0.410779
113 1 0.664811 0.337492 0.332666
22 1 0.754167 0.252737 0.252615
47 1 0.917022 0.413815 0.248589
96 1 0.919471 0.255082 0.415931
117 1 0.748235 0.423076 0.416493
30 1 0.0836051 0.57911 0.255318
100 1 0.16917 0.500795 0.337811
121 1 -0.00135342 0.663051 0.338743
38 1 0.418004 0.582952 0.251956
104 1 0.255417 0.588216 0.415485
129 1 0.331137 0.669274 0.330138
108 1 0.498092 0.491097 0.331097
112 1 0.57993 0.581371 0.41797
137 1 0.663753 0.664482 0.332447
46 1 0.743691 0.583911 0.248484
116 1 0.832992 0.501149 0.333481
120 1 0.91401 0.583988 0.41327
54 1 0.0826364 0.915664 0.246442
124 1 0.165443 0.832178 0.332191
125 1 0.0904072 0.753412 0.417522
55 1 0.248164 0.75428 0.243983
62 1 0.414153 0.917843 0.245458
128 1 0.24572 0.920521 0.414029
133 1 0.413093 0.753501 0.415745
63 1 0.58251 0.748589 0.247284
132 1 0.500617 0.836389 0.333776
136 1 0.589811 0.91766 0.418371
70 1 0.747352 0.920394 0.253236
71 1 0.913372 0.745902 0.249806
140 1 0.834072 0.831724 0.332868
141 1 0.749417 0.746014 0.417834
144 1 0.915439 0.914379 0.41476
74 1 0.00424195 0.173204 0.499815
75 1 0.163472 0.00235372 0.504779
145 1 0.0058063 0.0046681 0.668108
148 1 0.170427 0.16675 0.670397
79 1 0.251487 0.0852629 0.588485
82 1 0.333715 0.164624 0.498059
153 1 0.332701 0.00213317 0.670047
83 1 0.498279 0.000219921 0.499476
87 1 0.583681 0.081783 0.584108
90 1 0.671986 0.165456 0.505047
156 1 0.49816 0.167357 0.668402
161 1 0.668951 -0.0022429 0.666668
91 1 0.83581 -0.00561919 0.497428
95 1 0.92233 0.0810365 0.579712
164 1 0.83114 0.165925 0.665507
78 1 0.0835279 0.248711 0.588373
99 1 0.162874 0.328738 0.496533
169 1 -0.00433296 0.327661 0.665049
86 1 0.412903 0.244996 0.578507
103 1 0.249834 0.411395 0.580618
177 1 0.338828 0.334388 0.667518
107 1 0.500947 0.33269 0.497795
111 1 0.589902 0.419135 0.584619
185 1 0.666914 0.331444 0.666679
94 1 0.751051 0.251289 0.584854
115 1 0.833936 0.334848 0.49473
119 1 0.912005 0.41323 0.581032
98 1 -0.000641661 0.491001 0.499498
102 1 0.0840671 0.5846 0.580154
123 1 0.169156 0.666457 0.49823
172 1 0.166696 0.498124 0.660229
193 1 -0.00404935 0.669646 0.665786
106 1 0.333429 0.497517 0.50168
110 1 0.414841 0.584148 0.579466
201 1 0.334032 0.669808 0.667488
114 1 0.666877 0.503138 0.500095
131 1 0.50001 0.671021 0.497417
180 1 0.508504 0.506081 0.662386
209 1 0.669677 0.662798 0.66531
118 1 0.754029 0.584374 0.57825
139 1 0.834543 0.668404 0.505131
188 1 0.829361 0.500093 0.663136
122 1 -2.05467e-05 0.830802 0.496673
126 1 0.083762 0.918848 0.582498
196 1 0.17124 0.835086 0.663068
127 1 0.253038 0.753625 0.580581
130 1 0.326089 0.836017 0.502464
134 1 0.420033 0.914028 0.582879
135 1 0.583746 0.748482 0.588593
138 1 0.669821 0.830723 0.500146
204 1 0.502913 0.833726 0.670443
142 1 0.752289 0.917161 0.582144
143 1 0.912668 0.751825 0.586908
212 1 0.835435 0.83852 0.66608
146 1 -0.00322314 0.164286 0.835872
147 1 0.166179 0.00529754 0.832439
149 1 0.0840145 0.0855797 0.754855
151 1 0.248908 0.08649 0.918652
154 1 0.329353 0.165807 0.831003
157 1 0.413825 0.081998 0.752387
155 1 0.496404 0.000954684 0.833757
159 1 0.579753 0.0812512 0.91595
162 1 0.667124 0.166409 0.833135
163 1 0.831404 -0.00329644 0.83269
165 1 0.754651 0.0800573 0.748086
167 1 0.912027 0.0838095 0.916784
150 1 0.0790939 0.246305 0.914076
171 1 0.160017 0.333949 0.836981
173 1 0.0801083 0.413896 0.745609
152 1 0.246949 0.255276 0.755426
158 1 0.419541 0.249654 0.914575
175 1 0.252944 0.421189 0.923481
181 1 0.418425 0.418703 0.749469
160 1 0.582738 0.246797 0.748932
179 1 0.505045 0.33325 0.833155
183 1 0.587557 0.42194 0.915541
166 1 0.745839 0.248322 0.90929
168 1 0.917605 0.245438 0.752078
187 1 0.833513 0.332228 0.83001
189 1 0.750736 0.417655 0.750172
191 1 0.916605 0.415091 0.917292
170 1 -0.0043934 0.499024 0.825883
174 1 0.0851209 0.57947 0.915796
195 1 0.166941 0.66872 0.834933
176 1 0.250657 0.582856 0.750321
178 1 0.332864 0.496666 0.82953
182 1 0.414168 0.580703 0.921213
184 1 0.585171 0.587616 0.75276
186 1 0.668419 0.499334 0.833736
203 1 0.497256 0.666715 0.83565
190 1 0.748171 0.583135 0.920987
192 1 0.910504 0.584854 0.75199
211 1 0.830162 0.673187 0.836713
194 1 0.00174584 0.827688 0.836926
197 1 0.0843257 0.752637 0.746523
198 1 0.085403 0.917379 0.914814
199 1 0.25193 0.749117 0.916947
200 1 0.248901 0.916949 0.7511
202 1 0.331211 0.834668 0.830857
205 1 0.413115 0.752777 0.753273
206 1 0.41695 0.918636 0.916577
207 1 0.584921 0.749255 0.921593
208 1 0.581426 0.917155 0.750247
210 1 0.668226 0.828277 0.83299
213 1 0.753338 0.754396 0.747289
214 1 0.745799 0.912008 0.918084
215 1 0.912957 0.745727 0.921268
216 1 0.921891 0.915823 0.754601
ITEM: TIMESTEP
300
ITEM: NUMBER OF ATOMS
216
ITEM: BOX BOUNDS pp pp pp
0.0000000000000000e+00 1.6427280000000000e+01
0.0000000000000000e+00 1.6427280000000000e+01
0.0000000000000000e+00 1.6427280000000000e+01
ITEM: ATOMS id type xs ys zs
1 1 -0.0038762 -0.000624865 -0.000683198
2 1 -0.00806927 0.162447 0.168363
3 1 0.160495 -0.00113352 0.163326
4 1 0.169313 0.167814 -0.00555722
5 1 0.0796451 0.087314 0.0820825
9 1 0.331914 -0.00173276 0.00450559
10 1 0.330128 0.169665 0.164191
13 1 0.415556 0.0872314 0.0840612
11 1 0.495879 0.00585039 0.16233
12 1 0.500729 0.16911 -0.0033288
17 1 0.664579 -0.00214332 -0.0018212
18 1 0.663612 0.16603 0.159934
19 1 0.829777 -0.00422157 0.166814
20 1 0.832128 0.16635 0.00072938
21 1 0.749998 0.0804994 0.0752105
25 1 0.0012285 0.332571 0.00445597
27 1 0.158433 0.332615 0.167968
29 1 0.0839506 0.421587 0.0831395
8 1 0.250629 0.252814 0.0836973
33 1 0.3266 0.343303 -0.00114599
37 1 0.418058 0.417147 0.0846087
16 1 0.576151 0.250385 0.0815246
35 1 0.501461 0.334322 0.16803
41 1 0.663969 0.334312 -0.00411677
24 1 0.912131 0.253674 0.0898612
43 1 0.836233 0.339147 0.169375
45 1 0.740426 0.41631 0.0870273
26 1 -0.00121413 0.498702 0.167361
28 1 0.166135 0.505506 0.000103449
49 1 -0.0101446 0.673411 -0.00212174
51 1 0.171393 0.660406 0.167758
32 1 0.252878 0.581253 0.0785974
34 1 0.334646 0.500819 0.166936
57 1 0.335136 0.66586 0.00235908
36 1 0.499268 0.500074 -0.000485994
40 1 0.57774 0.587415 0.0848266
42 1 0.657648 0.50196 0.166489
59 1 0.494073 0.674084 0.164872
65 1 0.663611 0.666177 -0.00339773
44 1 0.828978 0.50049 0.00307717
48 1 0.914836 0.58368 0.0797649
67 1 0.829878 0.666451 0.162437
50 1 -0.0040235 0.836727 0.166813
52 1 0.162232 0.823531 0.000761901
53 1 0.0797302 0.745213 0.0902201
56 1 0.242247 0.914844 0.0831541
58 1 0.325656 0.832935 0.169436
61 1 0.405487 0.760008 0.0829186
60 1 0.495547 0.835261 -0.00209489
64 1 0.578645 0.920353 0.080176
66 1 0.661245 0.830291 0.158844
68 1 0.82811 0.829476 -9.84792e-05
69 1 0.744943 0.745961 0.0816737
72 1 0.911885 0.910346 0.0796959
73 1 -0.00174885 0.000787862 0.333506
76 1 0.171833 0.171733 0.33344
77 1 0.0905043 0.0811886 0.415059
7 1 0.252373 0.0775071 0.25561
81 1 0.340438 0.00490934 0.334115
85 1 0.419087 0.0910392 0.421639
15 1 0.585537 0.079597 0.248466
84 1 0.505998 0.160916 0.332315
89 1 0.664816 -0.00670456 0.327711
23 1 0.90878 0.0806131 0.249879
92 1 0.825883 0.161949 0.331024
93 1 0.752515 0.0758045 0.413238
6 1 0.0776752 0.243784 0.250822
97 1 0.0051551 0.32978 0.34341
101 1 0.0876935 0.415521 0.421809
14 1 0.421393 0.249306 0.253639
31 1 0.244947 0.418794 0.249382
80 1 0.256236 0.252287 0.423004
105 1 0.339463 0.336159 0.33507
109 1 0.418772 0.420909 0.418948
39 1 0.581128 0.415155 0.251628
88 1 0.589241 0.247764 0.418849
113 1 0.665012 0.331669 0.331125
22 1 0.749102 0.248824 0.247853
47 1 0.920835 0.412573 0.260604
96 1 0.914995 0.243242 0.417909
117 1 0.753724 0.408275 0.42498
30 1 0.0826105 0.583704 0.253287
100 1 0.167736 0.49937 0.338602
121 1 -0.00360338 0.670694 0.330252
38 1 0.41515 0.58456 0.252253
104 1 0.248676 0.581841 0.423369
129 1 0.332953 0.667574 0.335836
108 1 0.504257 0.504354 0.332291
112 1 0.588229 0.583246 0.410356
137 1 0.666368 0.667136 0.328376
46 1 0.748652 0.577248 0.252096
116 1 0.830786 0.495415 0.332101
120 1 0.915393 0.579722 0.421675
54 1 0.0812652 0.9119 0.254565
124 1 0.16647 0.832711 0.332366
125 1 0.080599 0.745084 0.415785
55 1 0.248929 0.7495 0.254627
62 1 0.416909 0.921655 0.246649
128 1 0.253579 0.910241 0.417742
133 1 0.416941 0.749881 0.417205
63 1 0.582628 0.752628 0.247943
132 1 0.496729 0.834886 0.328755
136 1 0.577437 0.921225 0.409609
70 1 0.746835 0.91005 0.244602
71 1 0.915452 0.748837 0.245979
140 1 0.83592 0.834117 0.33368
141 1 0.750204 0.749953 0.412485
144 1 0.920858 0.920482 0.418657
74 1 0.00356201 0.163799 0.501186
75 1 0.171379 -0.00615222 0.498548
145 1 0.0029854 -0.00579329 0.675261
148 1 0.161739 0.161968 0.670231
79 1 0.249357 0.0838781 0.581087
82 1 0.337451 0.162918 0.505836
153 1 0.33194 0.00050561 0.673004
83 1 0.499606 -0.000628425 0.492482
87 1 0.586543 0.0770907 0.58169
90 1 0.668088 0.161782 0.496842
156 1 0.508236 0.165099 0.664757
161 1 0.669457 -0.00457543 0.661356
91 1 0.828201 -0.00501917 0.500363
95 1 0.913779 0.0791817 0.586387
164 1 0.834342 0.165982 0.669735
78 1 0.0874724 0.251392 0.586621
99 1 0.173788 0.336602 0.50758
169 1 0.00614689 0.338111 0.669176
86 1 0.418615 0.249408 0.591841
103 1 0.258013 0.422787 0.588067
177 1 0.334068 0.335182 0.66654
107 1 0.497497 0.331883 0.503289
111 1 0.582387 0.419281 0.580534
185 1 0.669325 0.333977 0.658697
94 1 0.754467 0.246183 0.578623
115 1 0.837615 0.329002 0.506024
119 1 0.92161 0.415405 0.587034
98 1 0.00483669 0.507443 0.502401
102 1 0.08947 0.582909 0.586654
123 1 0.168554 0.671517 0.504878
172 1 0.171161 0.500185 0.674711
193 1 0.00576757 0.665532 0.665805
106 1 0.335049 0.502051 0.500029
110 1 0.421421 0.584311 0.583037
201 1 0.330856 0.667381 0.66666
114 1 0.668649 0.500057 0.499647
131 1 0.504654 0.670073 0.499847
180 1 0.496338 0.497362 0.668855
209 1 0.664253 0.6714 0.661433
118 1 0.745461 0.582425 0.580191
139 1 0.830413 0.665257 0.497149
188 1 0.835765 0.503129 0.66442
122 1 -0.000568909 0.832876 0.503518
126 1 0.0852344 0.912573 0.589611
196 1 0.167039 0.829295 0.674694
127 1 0.246887 0.749313 0.587208
130 1 0.335881 0.828511 0.498747
134 1 0.411239 0.920426 0.583432
135 1 0.583218 0.759987 0.577345
138 1 0.664557 0.839176 0.495022
204 1 0.494651 0.831661 0.661768
142 1 0.752125 0.909908 0.582358
143 1 0.91567 0.742739 0.579054
212 1 0.832658 0.823826 0.663236
146 1 0.00546924 0.171185 0.832228
147 1 0.163916 -0.00156516 0.84003
149 1 0.0806167 0.0830626 0.754827
151 1 0.254127 0.0887417 0.91633
154 1 0.342784 0.174597 0.833981
157 1 0.423295 0.0874991 0.751342
155 1 0.504248 -0.000349696 0.830333
159 1 0.586427 0.087219 0.9135
162 1 0.669008 0.168561 0.827238
163 1 0.832735 -0.000269187 0.833534
165 1 0.745535 0.0818241 0.749496
167 1 0.920346 0.086643 0.911876
150 1 0.0855515 0.254083 0.92045
171 1 0.173874 0.332505 0.830693
173 1 0.0849446 0.416474 0.754913
152 1 0.255971 0.246746 0.741179
158 1 0.420785 0.257617 0.918173
175 1 0.247667 0.426803 0.911955
181 1 0.41745 0.418364 0.75241
160 1 0.589658 0.256773 0.74657
179 1 0.503072 0.335298 0.829215
183 1 0.582106 0.416233 0.912586
166 1 0.752955 0.249232 0.918084
168 1 0.920811 0.25309 0.748796
187 1 0.834236 0.333445 0.834618
189 1 0.749983 0.416937 0.745802
191 1 0.915081 0.418953 0.917775
170 1 0.00353102 0.496596 0.839649
174 1 0.0786267 0.584303 0.924448
195 1 0.166399 0.662509 0.833792
176 1 0.253422 0.582211 0.753244
178 1 0.336107 0.505125 0.836193
182 1 0.418854 0.584771 0.909038
184 1 0.584774 0.580854 0.745381
186 1 0.667338 0.502024 0.83134
203 1 0.500408 0.668464 0.828374
190 1 0.74966 0.584313 0.913363
192 1 0.925572 0.579457 0.746085
211 1 0.83874 0.663651 0.828959
194 1 -0.00117934 0.837081 0.83466
197 1 0.0817836 0.748444 0.756885
198 1 0.0810899 0.916479 0.920559
199 1 0.245212 0.747236 0.915542
200 1 0.248054 0.91508 0.757084
202 1 0.335162 0.827426 0.838137
205 1 0.41986 0.749096 0.745319
206 1 0.412446 0.924452 0.912522
207 1 0.5853 0.747929 0.908461
208 1 0.58432 0.916563 0.745019
210 1 0.668974 0.842727 0.834123
213 1 0.748037 0.750619 0.75014
214 1 0.75335 0.922006 0.919979
215 1 0.914918 0.754638 0.914139
216 1 0.910691 0.912402 0.744299
ITEM: TIMESTEP
400
ITEM: NUMBER OF ATOMS
216
ITEM: BOX BOUNDS pp pp pp
0.0000000000000000e+00 1.6427280000000000e+01
0.0000000000000000e+00 1.6427280000000000e+01
0.0000000000000000e+00 1.6427280000000000e+01
ITEM: ATOMS id type xs ys zs
1 1 0.00364019 0.000139862 0.000445361
2 1 0.00463008 0.169184 0.171114
3 1 0.169387 0.00073311 0.177173
4 1 0.163084 0.166785 0.00665316
5 1 0.0820876 0.0825757 0.0870258
9 1 0.331711 0.00325873 -5.97064e-05
10 1 0.337996 0.165618 0.168644
13 1 0.418597 0.0795778 0.0861827
11 1 0.500154 -0.00644039 0.169619
12 1 0.49692 0.16435 0.00551374
17 1 0.672097 0.000691459 -0.00472741
18 1 0.665429 0.16631 0.171028
19 1 0.838512 0.00487626 0.163047
20 1 0.830998 0.168485 -0.000750982
21 1 0.750025 0.0829969 0.0826208
25 1 0.00134135 0.333711 0.000286628
27 1 0.170879 0.333697 0.164368
29 1 0.0874311 0.411953 0.0829741
8 1 0.248218 0.248237 0.0815369
33 1 0.335792 0.322522 0.000134304
37 1 0.418732 0.414653 0.0825846
16 1 0.583767 0.252279 0.0813183
35 1 0.50487 0.338566 0.163668
41 1 0.668445 0.335178 0.00508944
24 1 0.918307 0.24342 0.0818478
43 1 0.832856 0.324135 0.164978
45 1 0.755862 0.41674 0.0842545
26 1 -0.00504181 0.491971 0.167043
28 1 0.169552 0.493381 -0.000114051
49 1 0.00069756 0.656077 -0.00110322
51 1 0.162179 0.672671 0.168381
32 1 0.240603 0.585424 0.0847682
34 1 0.331386 0.501583 0.158913
57 1 0.327237 0.669188 0.000821716
36 1 0.497321 0.501275 -0.00212076
40 1 0.590593 0.581215 0.0838613
42 1 0.67126 0.498801 0.172156
59 1 0.502327 0.660735 0.167625
65 1 0.670751 0.669941 0.00187294
44 1 0.837093 0.50547 -0.00193815
48 1 0.913671 0.585543 0.088079
67 1 0.833674 0.670734 0.166348
50 1 0.00216104 0.833942 0.17222
52 1 0.171311 0.853331 0.00304459
53 1 0.0809858 0.755021 0.0779683
56 1 0.25678 0.921481 0.0899323
58 1 0.336222 0.830116 0.167797
61 1 0.421403 0.744943 0.0871982
60 1 0.503163 0.834251 0.00217961
64 1 0.589136 0.917258 0.0870762
66 1 0.667989 0.832048 0.170427
68 1 0.836317 0.836096 -0.00552658
69 1 0.752451 0.757956 0.0805892
72 1 0.918835 0.915872 0.0829484
73 1 0.000214371 -0.00301011 0.337027
76 1 0.159269 0.166774 0.338884
77 1 0.0777904 0.0800242 0.418414
7 1 0.250048 0.092057 0.250289
81 1 0.328936 -0.00109469 0.339248
85 1 0.414619 0.0829664 0.411219
15 1 0.578648 0.0833038 0.249403
84 1 0.495773 0.166856 0.330642
89 1 0.663278 0.00358722 0.336435
23 1 0.923924 0.0854466 0.25108
92 1 0.838298 0.160411 0.335876
93 1 0.748037 0.0880237 0.416883
6 1 0.0844146 0.25225 0.250197
97 1 -0.00675922 0.338037 0.322551
101 1 0.0785235 0.414138 0.409885
14 1 0.415207 0.257401 0.239368
31 1 0.251431 0.420335 0.24955
80 1 0.24774 0.248558 0.419148
105 1 0.329967 0.332518 0.333226
109 1 0.416721 0.416723 0.416153
39 1 0.584665 0.422678 0.245583
88 1 0.583558 0.250082 0.413163
113 1 0.668783 0.336615 0.331032
22 1 0.756136 0.246885 0.255945
47 1 0.905355 0.413233 0.240349
96 1 0.913361 0.256791 0.410905
117 1 0.751085 0.418564 0.408356
30 1 0.0839759 0.583897 0.248199
100 1 0.161646 0.497341 0.330566
121 1 0.0065468 0.664183 0.335084
38 1 0.418581 0.579812 0.247726
104 1 0.247147 0.577383 0.414372
129 1 0.331 0.668895 0.330517
108 1 0.499927 0.498843 0.333351
112 1 0.582352 0.582035 0.419083
137 1 0.662224 0.664292 0.335862
46 1 0.748653 0.591276 0.24691
116 1 0.837175 0.503258 0.331836
120 1 0.924118 0.586083 0.417538
54 1 0.0828455 0.91854 0.250308
124 1 0.166647 0.835059 0.334624
125 1 0.0870173 0.750103 0.415828
55 1 0.251217 0.756467 0.248401
62 1 0.414831 0.909709 0.249816
128 1 0.24398 0.920803 0.417054
133 1 0.414545 0.75189 0.412927
63 1 0.583967 0.748569 0.25172
132 1 0.500818 0.830395 0.339176
136 1 0.583748 0.909321 0.418548
70 1 0.745182 0.922041 0.246194
71 1 0.924718 0.751497 0.251571
140 1 0.831101 0.831872 0.326995
141 1 0.7486 0.742801 0.41926
144 1 0.911566 0.913152 0.415597
74 1 -0.00158363 0.16783 0.498537
75 1 0.166672 0.00708514 0.50594
145 1 0.00146149 0.00123963 0.665571
148 1 0.170402 0.170855 0.668333
79 1 0.255106 0.0904661 0.578867
82 1 0.336463 0.16781 0.491194
153 1 0.337686 -0.000186086 0.653323
83 1 0.505448 0.00498068 0.498407
87 1 0.581402 0.0891346 0.584667
90 1 0.670173 0.171232 0.500681
156 1 0.493579 0.172204 0.66753
161 1 0.669653 0.00713895 0.671016
91 1 0.832489 0.00364527 0.493635
95 1 0.914359 0.0790081 0.582476
164 1 0.834905 0.172741 0.663917
78 1 0.0878351 0.25179 0.587802
99 1 0.163078 0.334577 0.498938
169 1 0.0030599 0.331012 0.668213
86 1 0.414716 0.252915 0.575014
103 1 0.247306 0.409154 0.582814
177 1 0.335893 0.33152 0.666321
107 1 0.505699 0.337374 0.498474
111 1 0.589545 0.413409 0.586755
185 1 0.667692 0.326213 0.674153
94 1 0.748808 0.255178 0.58369
115 1 0.830403 0.332068 0.497579
119 1 0.918401 0.409917 0.580879
98 1 -0.00139058 0.492088 0.499918
102 1 0.0755533 0.583745 0.583661
123 1 0.165024 0.65632 0.502494
172 1 0.164471 0.499837 0.665802
193 1 -0.00451524 0.665535 0.67068
106 1 0.328446 0.492854 0.498797
110 1 0.410725 0.578681 0.586765
201 1 0.33503 0.668918 0.670847
114 1 0.670403 0.499224 0.49513
131 1 0.496051 0.664219 0.496755
180 1 0.503943 0.494713 0.666685
209 1 0.668733 0.659878 0.66012
118 1 0.759878 0.581287 0.58167
139 1 0.839953 0.665058 0.500775
188 1 0.838623 0.495571 0.665688
122 1 -0.00290863 0.832427 0.499665
126 1 0.08147 0.916487 0.579974
196 1 0.161975 0.833962 0.656861
127 1 0.250328 0.751154 0.580041
130 1 0.334137 0.83651 0.498566
134 1 0.429744 0.909121 0.578574
135 1 0.582683 0.74147 0.585706
138 1 0.666465 0.832687 0.507399
204 1 0.510005 0.82918 0.669509
142 1 0.747571 0.924792 0.584507
143 1 0.917497 0.756914 0.591145
212 1 0.833586 0.846721 0.66436
146 1 0.00221698 0.157262 0.830287
147 1 0.158852 0.00121208 0.824246
149 1 0.0867073 0.0843408 0.741975
151 1 0.236369 0.0726585 0.920643
154 1 0.324493 0.157764 0.837121
157 1 0.414154 0.0830043 0.747114
155 1 0.497436 0.00126601 0.835197
159 1 0.58235 0.0849941 0.920187
162 1 0.665394 0.164693 0.836907
163 1 0.833036 -0.000458112 0.833267
165 1 0.751042 0.0878126 0.750163
167 1 0.914115 0.0786396 0.922525
150 1 0.0787537 0.239749 0.920542
171 1 0.162735 0.339001 0.841022
173 1 0.0784202 0.42265 0.746857
152 1 0.252687 0.250241 0.752647
158 1 0.415939 0.242293 0.912441
175 1 0.253748 0.413184 0.924031
181 1 0.41802 0.417874 0.750822
160 1 0.577473 0.246519 0.759531
179 1 0.494598 0.334309 0.836153
183 1 0.582321 0.411738 0.918777
166 1 0.748557 0.253339 0.922023
168 1 0.922277 0.249266 0.751426
187 1 0.83541 0.331395 0.834906
189 1 0.750106 0.415245 0.751987
191 1 0.922794 0.418436 0.910886
170 1 0.00317777 0.505196 0.829967
174 1 0.0882558 0.578033 0.915173
195 1 0.16643 0.670262 0.831419
176 1 0.251015 0.585114 0.754047
178 1 0.332009 0.497052 0.835251
182 1 0.411328 0.587364 0.916531
184 1 0.577277 0.587241 0.753983
186 1 0.662075 0.497267 0.833438
203 1 0.493938 0.665225 0.831513
190 1 0.743237 0.582147 0.919965
192 1 0.912628 0.583784 0.756268
211 1 0.828757 0.664634 0.840387
194 1 -0.00282405 0.830732 0.834902
197 1 0.0840367 0.752001 0.744506
198 1 0.0812795 0.915316 0.912942
199 1 0.251851 0.762205 0.92394
200 1 0.248426 0.918007 0.74106
202 1 0.333392 0.840545 0.829346
205 1 0.421532 0.755488 0.755195
206 1 0.414886 0.91219 0.919202
207 1 0.581041 0.747938 0.915748
208 1 0.58446 0.920651 0.748462
210 1 0.662146 0.832528 0.827243
213 1 0.7513 0.749868 0.743951
214 1 0.747179 0.914577 0.910661
215 1 0.920941 0.748403 0.925153
216 1 0.921112 0.917912 0.752357
ITEM: TIMESTEP
500
ITEM: NUMBER OF ATOMS
216
ITEM: BOX BOUNDS pp pp pp
0.0000000000000000e+00 1.6427280000000000e+01
0.0000000000000000e+00 1.6427280000000000e+01
0.0000000000000000e+00 1.6427280000000000e+01
ITEM: ATOMS id type xs ys zs
1 1 0.00260684 -0.00350739 -0.00399316
2 1 -0.00328065 0.164012 0.159478
3 1 0.16704 -0.0114661 0.153761
4 1 0.17831 0.161628 -0.00497821
5 1 0.0902275 0.0840287 0.0763415
9 1 0.335839 -0.00325419 -0.00133731
10 1 0.331537 0.166223 0.162728
13 1 0.414401 0.0834951 0.0847067
11 1 0.504247 0.00406842 0.166343
12 1 0.5004 0.163507 -0.000557782
17 1 0.661396 -0.00289821 0.00695885
18 1 0.671461 0.169195 0.160627
19 1 0.830452 -0.0034126 0.172654
20 1 0.833808 0.163735 0.00280091
21 1 0.751718 0.0781479 0.0847866
25 1 -0.00104001 0.332524 0.00178823
27 1 0.165322 0.328934 0.161203
29 1 0.086018 0.422183 0.0782318
8 1 0.246418 0.245643 0.0830659
33 1 0.329264 0.338071 0.000511984
37 1 0.40995 0.408557 0.0898669
16 1 0.582284 0.251343 0.0821696
35 1 0.497264 0.327339 0.168597
41 1 0.6638 0.323398 -0.00511281
24 1 0.914938 0.251668 0.083931
43 1 0.838007 0.344998 0.165861
45 1 0.746144 0.417728 0.0803725
26 1 0.00574978 0.510761 0.163974
28 1 0.163034 0.505634 -0.00366978
49 1 0.00293271 0.676122 -0.00646835
51 1 0.178038 0.663401 0.16794
32 1 0.258464 0.578748 0.07647
34 1 0.33582 0.499942 0.173113
57 1 0.346422 0.663512 -0.00229093
36 1 0.502269 0.498326 0.000376911
40 1 0.584042 0.587422 0.0849734
42 1 0.664693 0.499994 0.164606
59 1 0.504291 0.675025 0.170829
65 1 0.672987 0.664157 -0.000678756
44 1 0.834034 0.501639 -0.00305693
48 1 0.923732 0.587467 0.0753273
67 1 0.839038 0.663631 0.165898
50 1 0.00245989 0.838334 0.169204
52 1 0.16874 0.8263 -0.00547719
53 1 0.0864269 0.749767 0.0861
56 1 0.255248 0.905999 0.077698
58 1 0.32947 0.835152 0.165988
61 1 0.415352 0.75328 0.084033
60 1 0.498258 0.831071 -0.00250498
64 1 0.582093 0.912013 0.0889972
66 1 0.669113 0.829388 0.169803
68 1 0.83223 0.829018 0.00732439
69 1 0.753563 0.742421 0.0882849
72 1 0.918943 0.918422 0.085851
73 1 0.00311377 0.00766334 0.324416
76 1 0.171737 0.164703 0.326974
77 1 0.0889582 0.0824657 0.409264
7 1 0.249816 0.0771192 0.245363
81 1 0.342073 -0.00102197 0.33546
85 1 0.415858 0.08718 0.427041
15 1 0.590088 0.0806228 0.25324
84 1 0.501798 0.167355 0.338129
89 1 0.675098 0.00297881 0.340778
23 1 0.913688 0.0890069 0.254168
92 1 0.826043 0.176774 0.332423
93 1 0.753607 0.0898721 0.4227
6 1 0.0821502 0.251662 0.246235
97 1 0.00587426 0.336165 0.332528
101 1 0.0852501 0.42769 0.421226
14 1 0.417992 0.241526 0.255497
31 1 0.246716 0.41244 0.244688
80 1 0.251656 0.248545 0.416878
105 1 0.332488 0.33352 0.331093
109 1 0.417717 0.418583 0.414315
39 1 0.579599 0.413986 0.247915
88 1 0.581591 0.257328 0.423133
113 1 0.664751 0.340676 0.329166
22 1 0.751376 0.26216 0.243413
47 1 0.929508 0.419844 0.251808
96 1 0.90883 0.254862 0.413413
117 1 0.746942 0.416678 0.424653
30 1 0.0833763 0.585302 0.255894
100 1 0.168782 0.504406 0.330442
121 1 -0.00851414 0.668237 0.330244
38 1 0.421735 0.583948 0.251439
104 1 0.250152 0.585136 0.412257
129 1 0.339684 0.665352 0.335788
108 1 0.505362 0.494743 0.333953
112 1 0.5833 0.585378 0.413422
137 1 0.667863 0.66428 0.331564
46 1 0.747753 0.579877 0.247258
116 1 0.835853 0.495759 0.335051
120 1 0.910347 0.58515 0.41162
54 1 0.085011 0.918014 0.256241
124 1 0.169847 0.829929 0.32704
125 1 0.0767319 0.753601 0.414096
55 1 0.253606 0.745808 0.249318
62 1 0.423556 0.912767 0.255089
128 1 0.25532 0.913282 0.416085
133 1 0.426097 0.747514 0.421461
63 1 0.584333 0.750707 0.256322
132 1 0.504719 0.828034 0.333054
136 1 0.583909 0.919968 0.418435
70 1 0.753165 0.91189 0.258937
71 1 0.913904 0.747366 0.247324
140 1 0.845593 0.836401 0.342429
141 1 0.747708 0.751625 0.421227
144 1 0.924315 0.930897 0.424349
74 1 -0.0019756 0.168349 0.497004
75 1 0.164319 -0.00476642 0.49095
145 1 0.000977124 0.00256098 0.665842
148 1 0.156637 0.152318 0.658751
79 1 0.240383 0.0839168 0.582536
82 1 0.326571 0.170048 0.505283
153 1 0.3237 0.00488664 0.672859
83 1 0.488291 -0.00422075 0.500739
87 1 0.586262 0.0804444 0.585038
90 1 0.668935 0.167786 0.504078
156 1 0.499518 0.16762 0.668137
161 1 0.659114 -0.0129404 0.66834
91 1 0.828421 -0.000579293 0.508745
95 1 0.915133 0.0850442 0.586384
164 1 0.817818 0.167698 0.666856
78 1 0.0813284 0.255023 0.58099
99 1 0.168385 0.334594 0.491993
169 1 -0.0108248 0.337069 0.661639
86 1 0.409182 0.246149 0.586063
103 1 0.245409 0.419056 0.577274
177 1 0.331071 0.339542 0.662655
107 1 0.486043 0.330692 0.503331
111 1 0.572738 0.417441 0.582771
185 1 0.66207 0.33916 0.659639
94 1 0.743138 0.251828 0.585338
115 1 0.830451 0.340734 0.505874
119 1 0.912907 0.425608 0.584369
98 1 -0.00282593 0.506732 0.498511
102 1 0.0837872 0.583547 0.580039
123 1 0.162874 0.671818 0.490322
172 1 0.161484 0.497799 0.659765
193 1 0.00297188 0.669358 0.662354
106 1 0.332947 0.502907 0.499676
110 1 0.422508 0.583156 0.579713
201 1 0.335037 0.66725 0.668306
114 1 0.657179 0.503189 0.503982
131 1 0.510485 0.669038 0.501721
180 1 0.497445 0.50282 0.678945
209 1 0.654182 0.671204 0.67814
118 1 0.739105 0.587373 0.59136
139 1 0.827397 0.662421 0.506662
188 1 0.826521 0.504163 0.672026
122 1 0.00306267 0.837597 0.502281
126 1 0.0849512 0.923536 0.584654
196 1 0.16651 0.837053 0.66888
127 1 0.247664 0.751242 0.586089
130 1 0.3331 0.830617 0.498476
134 1 0.409043 0.916879 0.58709
135 1 0.58032 0.756979 0.591519
138 1 0.664125 0.832369 0.506058
204 1 0.491539 0.834553 0.670457
142 1 0.751282 0.915874 0.588486
143 1 0.914629 0.742844 0.578975
212 1 0.835999 0.825854 0.668509
146 1 -0.00315388 0.169063 0.828734
147 1 0.172259 0.00610064 0.838003
149 1 0.0821159 0.0806886 0.753087
151 1 0.263999 0.0865504 0.911334
154 1 0.342005 0.170765 0.830586
157 1 0.418382 0.0814985 0.752482
155 1 0.505502 -0.00720558 0.834561
159 1 0.58685 0.0803867 0.917229
162 1 0.666218 0.168268 0.834334
163 1 0.832298 -0.00285136 0.833748
165 1 0.746672 0.0748562 0.749734
167 1 0.916386 0.0889485 0.912535
150 1 0.0871835 0.248502 0.915771
171 1 0.166036 0.328027 0.826032
173 1 0.0723727 0.412483 0.750325
152 1 0.242764 0.239587 0.738796
158 1 0.420088 0.256799 0.924608
175 1 0.249035 0.420505 0.917372
181 1 0.410902 0.409638 0.752703
160 1 0.583697 0.251426 0.745541
179 1 0.500224 0.331854 0.831731
183 1 0.586799 0.413612 0.915726
166 1 0.745946 0.243537 0.914274
168 1 0.908538 0.253964 0.747076
187 1 0.826612 0.331442 0.833811
189 1 0.747698 0.416993 0.75083
191 1 0.915629 0.416656 0.916752
170 1 -0.00336299 0.501092 0.832847
174 1 0.0773505 0.582329 0.912015
195 1 0.162387 0.663466 0.833202
176 1 0.249173 0.573915 0.745022
178 1 0.334996 0.496047 0.833036
182 1 0.425075 0.583857 0.910568
184 1 0.584129 0.582835 0.755782
186 1 0.67027 0.503131 0.841984
203 1 0.503965 0.668118 0.833436
190 1 0.75844 0.584017 0.917826
192 1 0.924999 0.577936 0.745066
211 1 0.844121 0.66545 0.833235
194 1 0.00410275 0.840303 0.826316
197 1 0.0773522 0.754642 0.742353
198 1 0.0909877 0.920882 0.913024
199 1 0.259827 0.74133 0.906876
200 1 0.246506 0.912092 0.759238
202 1 0.342847 0.823063 0.829463
205 1 0.417975 0.740291 0.750297
206 1 0.416577 0.915108 0.914257
207 1 0.582666 0.746688 0.918639
208 1 0.577883 0.907959 0.746775
210 1 0.665687 0.837894 0.845413
213 1 0.747094 0.750784 0.758448
214 1 0.75468 0.913839 0.928212
215 1 0.913508 0.759644 0.906215
216 1 0.914588 0.919371 0.746562
ITEM: TIMESTEP
600
ITEM: NUMBER OF ATOMS
216
ITEM: BOX BOUNDS pp pp pp
0.0000000000000000e+00 1.6427280000000000e+01
0.0000000000000000e+00 1.6427280000000000e+01
0.0000000000000000e+00 1.6427280000000000e+01
ITEM: ATOMS id type xs ys zs
1 1 0.000578691 0.00256358 0.00345965
2 1 -0.000633045 0.172179 0.169179
3 1 0.164675 0.00467344 0.164735
4 1 0.164695 0.173849 -0.000221495
5 1 0.0818047 0.0882747 0.0827478
9 1 0.329582 0.00192319 0.00192833
10 1 0.335642 0.171592 0.158385
13 1 0.421029 0.0829783 0.0772324
11 1 0.500635 -8.29205e-05 0.165322
12 1 0.504952 0.173627 0.000309207
17 1 0.673553 0.00712204 0.00139408
18 1 0.666767 0.164694 0.174734
19 1 0.838409 0.00609804 0.165784
20 1 0.830551 0.175596 -0.00177621
21 1 0.751858 0.092842 0.0835913
25 1 -0.00283737 0.336909 -0.00258346
27 1 0.173521 0.33749 0.168955
29 1 0.0835041 0.413962 0.0875743
8 1 0.257482 0.253964 0.0811063
33 1 0.333186 0.329062 -0.00368424
37 1 0.416258 0.413397 0.0788409
16 1 0.586339 0.249022 0.08838
35 1 0.505661 0.334528 0.172514
41 1 0.672412 0.334182 0.00306851
24 1 0.914627 0.253864 0.0816651
43 1 0.831837 0.319719 0.168283
45 1 0.753188 0.414141 0.085075
26 1 -0.000683838 0.49263 0.169684
28 1 0.166836 0.499757 -0.00318879
49 1 0.00474983 0.651396 0.000924637
51 1 0.163516 0.665886 0.16747
32 1 0.245777 0.57739 0.08504
34 1 0.33161 0.494252 0.163034
57 1 0.324973 0.663766 0.00547918
36 1 0.498696 0.498743 -0.00157551
40 1 0.589802 0.578679 0.0875401
42 1 0.665956 0.493208 0.175265
59 1 0.504278 0.664438 0.17005
65 1 0.667389 0.666714 0.00476164
44 1 0.832677 0.49719 0.000911746
48 1 0.909328 0.580668 0.0923482
67 1 0.832975 0.676928 0.16898
50 1 -0.00241273 0.828953 0.163691
52 1 0.168996 0.836606 0.00549823
53 1 0.0850689 0.746502 0.0827028
56 1 0.251724 0.923129 0.0856917
58 1 0.337427 0.830656 0.162036
61 1 0.418343 0.745005 0.0804312
60 1 0.509042 0.833457 0.00722483
64 1 0.591904 0.924295 0.0803352
66 1 0.66622 0.832045 0.166516
68 1 0.835115 0.835385 -0.00159
69 1 0.753433 0.756179 0.0820746
72 1 0.911146 0.911962 0.0822146
73 1 -0.000322961 -0.0109954 0.333215
76 1 0.15932 0.175317 0.341359
77 1 0.0795037 0.0732553 0.413439
7 1 0.250705 0.0914233 0.248512
81 1 0.330394 -0.00152146 0.330521
85 1 0.412244 0.0800898 0.41056
15 1 0.581652 0.0850553 0.256004
84 1 0.492344 0.162319 0.332119
89 1 0.667652 -0.00110736 0.331191
23 1 0.920571 0.076754 0.251088
92 1 0.83415 0.154175 0.334881
93 1 0.752341 0.0796706 0.412321
6 1 0.0860674 0.253378 0.247225
97 1 -0.00158288 0.330897 0.333838
101 1 0.0845469 0.413309 0.409974
14 1 0.414661 0.254512 0.243878
31 1 0.249286 0.42344 0.253174
80 1 0.248572 0.247305 0.420156
105 1 0.334565 0.330353 0.337959
109 1 0.41961 0.41449 0.418399
39 1 0.582288 0.416384 0.258217
88 1 0.580213 0.240848 0.418855
113 1 0.662154 0.32293 0.336356
22 1 0.74849 0.237991 0.259856
47 1 0.907952 0.415843 0.250067
96 1 0.91655 0.248871 0.414419
117 1 0.748368 0.416359 0.416388
30 1 0.080927 0.58379 0.248409
100 1 0.17016 0.502147 0.336497
121 1 0.00827484 0.666605 0.334447
38 1 0.411727 0.582217 0.253602
104 1 0.254196 0.58443 0.418882
129 1 0.325755 0.671959 0.331493
108 1 0.499766 0.50548 0.334735
112 1 0.57607 0.583572 0.418268
137 1 0.654678 0.669326 0.333538
46 1 0.752756 0.590929 0.251576
116 1 0.830015 0.504984 0.33515
120 1 0.925214 0.587519 0.422041
54 1 0.0810301 0.91843 0.243925
124 1 0.164335 0.837221 0.331792
125 1 0.0878703 0.748646 0.413433
55 1 0.251344 0.757709 0.246825
62 1 0.42036 0.917243 0.243553
128 1 0.238285 0.919826 0.41968
133 1 0.412123 0.753046 0.412843
63 1 0.581835 0.751604 0.247748
132 1 0.502553 0.832771 0.328328
136 1 0.58073 0.919027 0.40996
70 1 0.750535 0.928909 0.242767
71 1 0.921248 0.747092 0.251181
140 1 0.827268 0.833285 0.319472
141 1 0.753362 0.752222 0.411261
144 1 0.914873 0.914101 0.407087
74 1 0.00472469 0.168772 0.499425
75 1 0.163776 0.00415695 0.512522
145 1 0.00307693 -0.00343973 0.67174
148 1 0.169653 0.171841 0.671581
79 1 0.252902 0.0908629 0.58225
82 1 0.334874 0.161365 0.498718
153 1 0.336134 -0.00355708 0.663041
83 1 0.504445 0.00247153 0.499082
87 1 0.584753 0.0827544 0.587109
90 1 0.670257 0.161462 0.498254
156 1 0.496578 0.169646 0.663246
161 1 0.673146 0.00349496 0.666161
91 1 0.829509 0.00211662 0.489451
95 1 0.912029 0.0777975 0.582093
164 1 0.84486 0.170203 0.664997
78 1 0.0899475 0.249227 0.590392
99 1 0.166105 0.332165 0.500788
169 1 -0.00171364 0.337142 0.668494
86 1 0.420713 0.249616 0.575281
103 1 0.251766 0.413671 0.585788
177 1 0.3406 0.330724 0.661494
107 1 0.500778 0.331549 0.50054
111 1 0.589572 0.410854 0.583523
185 1 0.670654 0.32273 0.670326
94 1 0.750963 0.244794 0.581494
115 1 0.830581 0.324508 0.50349
119 1 0.91487 0.413789 0.58216
98 1 -0.00141912 0.497232 0.500076
102 1 0.0792256 0.583716 0.585783
123 1 0.170185 0.662973 0.506187
172 1 0.172037 0.49991 0.661044
193 1 -0.00531048 0.665944 0.670173
106 1 0.327026 0.490852 0.496286
110 1 0.412012 0.58829 0.580013
201 1 0.336419 0.672517 0.668792
114 1 0.671011 0.501128 0.497868
131 1 0.495171 0.670542 0.499719
180 1 0.498658 0.500056 0.660761
209 1 0.66867 0.661504 0.656153
118 1 0.755842 0.583882 0.576266
139 1 0.843711 0.676769 0.492507
188 1 0.83993 0.499201 0.662731
122 1 -0.00279551 0.829458 0.498991
126 1 0.0798501 0.912699 0.584789
196 1 0.163597 0.833465 0.667492
127 1 0.25191 0.751274 0.582575
130 1 0.335373 0.837913 0.499843
134 1 0.423447 0.911141 0.585335
135 1 0.582942 0.747734 0.579343
138 1 0.670794 0.838458 0.500047
204 1 0.503288 0.825951 0.673189
142 1 0.749215 0.922813 0.574897
143 1 0.921712 0.7532 0.585338
212 1 0.833744 0.84506 0.660633
146 1 -0.000382804 0.163678 0.834693
147 1 0.160684 -0.000241091 0.830969
149 1 0.0841163 0.0848371 0.746709
151 1 0.235583 0.0807461 0.921035
154 1 0.320483 0.161619 0.840371
157 1 0.415096 0.0840123 0.75408
155 1 0.496709 -0.00123939 0.830566
159 1 0.580085 0.0817514 0.917671
162 1 0.667397 0.168178 0.838955
163 1 0.835643 0.00331485 0.832836
165 1 0.749451 0.0929272 0.751556
167 1 0.913014 0.0777889 0.920053
150 1 0.0785969 0.251451 0.915861
171 1 0.163204 0.342831 0.834921
173 1 0.0859019 0.424475 0.743974
152 1 0.253482 0.255805 0.751125
158 1 0.413524 0.243926 0.90914
175 1 0.252973 0.417805 0.91481
181 1 0.42083 0.420815 0.749176
160 1 0.583898 0.252249 0.754847
179 1 0.497274 0.334839 0.830514
183 1 0.587424 0.411736 0.912938
166 1 0.752003 0.254069 0.918237
168 1 0.91977 0.248717 0.751581
187 1 0.834767 0.332651 0.834912
189 1 0.748651 0.41593 0.747791
191 1 0.916443 0.424941 0.908121
170 1 0.00180516 0.502251 0.829844
174 1 0.0849536 0.569831 0.919966
195 1 0.163308 0.664126 0.835437
176 1 0.251211 0.583757 0.748647
178 1 0.334691 0.498189 0.830323
182 1 0.405091 0.580942 0.916636
184 1 0.580211 0.586565 0.747489
186 1 0.666217 0.505997 0.824655
203 1 0.489895 0.665775 0.833571
190 1 0.745453 0.583322 0.918696
192 1 0.914037 0.589777 0.753022
211 1 0.827429 0.662827 0.839128
194 1 0.000699641 0.825251 0.839551
197 1 0.0850067 0.747538 0.753919
198 1 0.0801938 0.9158 0.915487
199 1 0.244199 0.751713 0.923955
200 1 0.25002 0.914988 0.752692
202 1 0.329158 0.833148 0.837022
205 1 0.415247 0.751446 0.756882
206 1 0.416694 0.913553 0.92184
207 1 0.582892 0.741881 0.914017
208 1 0.585978 0.922394 0.751883
210 1 0.662065 0.835367 0.82874
213 1 0.749489 0.74672 0.746938
214 1 0.749786 0.924834 0.915652
215 1 0.918393 0.742376 0.928436
216 1 0.924713 0.916196 0.755837
ITEM: TIMESTEP
700
ITEM: NUMBER OF ATOMS
216
ITEM: BOX BOUNDS pp pp pp
0.0000000000000000e+00 1.6427280000000000e+01
0.0000000000000000e+00 1.6427280000000000e+01
0.0000000000000000e+00 1.6427280000000000e+01
ITEM: ATOMS id type xs ys zs
1 1 -0.0043845 0.00146118 -0.00250643
2 1 0.00117812 0.164762 0.172291
3 1 0.165429 -0.0073681 0.17189
4 1 0.170648 0.162272 0.0016524
5 1 0.0848247 0.0804308 0.0871563
9 1 0.326758 0.00742792 -0.00113837
10 1 0.330247 0.17216 0.173958
13 1 0.405491 0.0891335 0.0890658
11 1 0.490043 -0.00463056 0.162066
12 1 0.49281 0.161034 -0.00221194
17 1 0.661177 -0.00666988 -0.013375
18 1 0.664111 0.170739 0.156361
19 1 0.832171 -0.00482097 0.161479
20 1 0.83197 0.168519 -0.00280028
21 1 0.74401 0.0752871 0.0772349
25 1 -0.00207792 0.330224 0.00733525
27 1 0.161368 0.326505 0.170455
29 1 0.0847478 0.415717 0.085561
8 1 0.241252 0.251839 0.0851275
33 1 0.332059 0.331605 0.00664026
37 1 0.417226 0.421578 0.090596
16 1 0.581931 0.253615 0.0779233
35 1 0.498495 0.337449 0.163747
41 1 0.667951 0.335771 -0.00173391
24 1 0.91542 0.245482 0.0859388
43 1 0.830379 0.340852 0.16388
45 1 0.743363 0.421473 0.0832972
26 1 -0.00396988 0.502313 0.170542
28 1 0.169613 0.504571 0.00384006
49 1 -0.00829589 0.673051 -0.00233034
51 1 0.162196 0.662594 0.165404
32 1 0.248952 0.59203 0.0820404
34 1 0.328409 0.506819 0.167091
57 1 0.334362 0.667658 -0.00699948
36 1 0.496588 0.506935 0.000957911
40 1 0.579099 0.592915 0.079816
42 1 0.661375 0.503675 0.163702
59 1 0.494936 0.672606 0.162549
65 1 0.666859 0.666643 -0.00871725
44 1 0.825913 0.502598 -0.00329111
48 1 0.911926 0.583559 0.0822718
67 1 0.827 0.660975 0.163731
50 1 -0.0029752 0.838866 0.174108
52 1 0.165443 0.835249 0.00041913
53 1 0.0773094 0.752252 0.0838497
56 1 0.242933 0.915349 0.0805957
58 1 0.323482 0.83695 0.171156
61 1 0.407949 0.755955 0.0879783
60 1 0.488063 0.835334 -0.00956612
64 1 0.572652 0.914409 0.0757864
66 1 0.658903 0.829187 0.159204
68 1 0.827903 0.828882 0.00224242
69 1 0.744558 0.740207 0.0783629
72 1 0.917056 0.918868 0.0794074
73 1 -0.000681126 0.0117278 0.335272
76 1 0.168121 0.163449 0.333594
77 1 0.0875858 0.0836425 0.41919
7 1 0.246536 0.0815519 0.250175
81 1 0.338669 0.00421928 0.339572
85 1 0.421321 0.0954619 0.421495
15 1 0.584024 0.0826019 0.235876
84 1 0.510058 0.167209 0.331591
89 1 0.664796 0.00394332 0.331767
23 1 0.913347 0.0846445 0.251506
92 1 0.830938 0.164089 0.334801
93 1 0.748805 0.0763153 0.416512
6 1 0.0820966 0.246452 0.262114
97 1 0.00377363 0.330122 0.337233
101 1 0.0827399 0.4118 0.424865
14 1 0.421817 0.248249 0.253146
31 1 0.248834 0.411655 0.246669
80 1 0.256448 0.247493 0.422552
105 1 0.332406 0.335775 0.331407
109 1 0.41907 0.419785 0.419925
39 1 0.582173 0.41862 0.243666
88 1 0.586684 0.254595 0.411731
113 1 0.671591 0.342043 0.327113
22 1 0.752144 0.249946 0.243609
47 1 0.922955 0.41051 0.253816
96 1 0.916256 0.248725 0.417919
117 1 0.754334 0.411149 0.416877
30 1 0.0835428 0.580082 0.253882
100 1 0.164097 0.494708 0.333425
121 1 -0.00786156 0.66603 0.330791
38 1 0.423133 0.582784 0.252051
104 1 0.248118 0.57902 0.41541
129 1 0.334607 0.660922 0.338005
108 1 0.506491 0.493991 0.333482
112 1 0.588132 0.582209 0.414956
137 1 0.669642 0.667288 0.329561
46 1 0.747632 0.577965 0.246013
116 1 0.837713 0.497338 0.336016
120 1 0.912483 0.582967 0.415847
54 1 0.0840628 0.918451 0.262452
124 1 0.168424 0.827355 0.335749
125 1 0.0796082 0.749794 0.415295
55 1 0.246741 0.74126 0.254389
62 1 0.404589 0.915211 0.24814
128 1 0.257079 0.912366 0.412655
133 1 0.414433 0.746041 0.417222
63 1 0.580191 0.751186 0.247282
132 1 0.489711 0.833722 0.329519
136 1 0.585885 0.911902 0.415498
70 1 0.743274 0.907215 0.249376
71 1 0.911649 0.747455 0.245933
140 1 0.838644 0.830667 0.336239
141 1 0.75012 0.743798 0.421084
144 1 0.9199 0.918667 0.42172
74 1 0.00180516 0.161707 0.500084
75 1 0.174683 -0.00191352 0.495009
145 1 0.00595355 -0.00414122 0.672078
148 1 0.167228 0.156919 0.667554
79 1 0.252136 0.0791588 0.581499
82 1 0.33911 0.169896 0.503054
153 1 0.329878 -0.000666231 0.66814
83 1 0.4978 0.00245133 0.494931
87 1 0.582323 0.0807379 0.579226
90 1 0.67164 0.165468 0.495283
156 1 0.504272 0.166025 0.666933
161 1 0.666207 -0.00547085 0.665126
91 1 0.830113 -0.00675709 0.503968
95 1 0.916506 0.0773812 0.590326
164 1 0.829264 0.169169 0.667042
78 1 0.0918268 0.248581 0.584523
99 1 0.17449 0.333872 0.507293
169 1 0.00986296 0.327764 0.667332
86 1 0.413362 0.251838 0.588996
103 1 0.250072 0.421231 0.586944
177 1 0.33069 0.334376 0.670118
107 1 0.502799 0.3309 0.500673
111 1 0.585955 0.418458 0.576673
185 1 0.668678 0.337201 0.661741
94 1 0.757157 0.255277 0.584665
115 1 0.844195 0.336077 0.502609
119 1 0.924097 0.413246 0.580265
98 1 0.000638806 0.502381 0.502857
102 1 0.0888487 0.585776 0.588553
123 1 0.168457 0.665768 0.493913
172 1 0.1643 0.499047 0.676418
193 1 0.0016876 0.669041 0.665204
106 1 0.336557 0.508898 0.502856
110 1 0.419863 0.585461 0.588269
201 1 0.335412 0.668365 0.668833
114 1 0.667663 0.504315 0.491846
131 1 0.503464 0.661879 0.493108
180 1 0.506284 0.498632 0.671033
209 1 0.664932 0.669064 0.664445
118 1 0.74811 0.583648 0.584811
139 1 0.829443 0.655571 0.504293
188 1 0.833605 0.498899 0.65986
122 1 0.00284713 0.832912 0.504893
126 1 0.0907045 0.917136 0.584505
196 1 0.16732 0.831161 0.667135
127 1 0.250491 0.748841 0.585812
130 1 0.328978 0.826807 0.501741
134 1 0.412697 0.919356 0.577429
135 1 0.581889 0.748548 0.583181
138 1 0.667958 0.833905 0.501151
204 1 0.499814 0.838678 0.662778
142 1 0.748257 0.912643 0.589743
143 1 0.914139 0.7428 0.580654
212 1 0.836676 0.826155 0.662847
146 1 0.00510617 0.17069 0.826757
147 1 0.17084 0.00372137 0.836093
149 1 0.0859858 0.0830034 0.754701
151 1 0.255039 0.0857598 0.915941
154 1 0.343384 0.169537 0.833468
157 1 0.420476 0.0806001 0.750526
155 1 0.509345 0.00699624 0.836962
159 1 0.589333 0.0878836 0.912715
162 1 0.67327 0.171042 0.82727
163 1 0.834565 -0.00343473 0.837736
165 1 0.754676 0.0764952 0.745763
167 1 0.91879 0.0948964 0.914631
150 1 0.0854563 0.247474 0.923333
171 1 0.17257 0.331433 0.838484
173 1 0.0846829 0.415782 0.758996
152 1 0.251639 0.242867 0.749746
158 1 0.420126 0.258716 0.919245
175 1 0.25384 0.420559 0.923011
181 1 0.414613 0.41892 0.754587
160 1 0.588228 0.25013 0.744213
179 1 0.502364 0.333031 0.828915
183 1 0.577761 0.419462 0.91539
166 1 0.753134 0.25557 0.918077
168 1 0.917355 0.250497 0.747678
187 1 0.835575 0.331555 0.833838
189 1 0.750809 0.415285 0.749296
191 1 0.915281 0.407583 0.925231
170 1 0.00218086 0.502504 0.844288
174 1 0.0825562 0.593429 0.920531
195 1 0.166782 0.671 0.841185
176 1 0.254253 0.586278 0.757384
178 1 0.338072 0.503456 0.838923
182 1 0.424737 0.592431 0.911027
184 1 0.590965 0.584248 0.750596
186 1 0.667268 0.495896 0.836549
203 1 0.508185 0.670375 0.822668
190 1 0.74553 0.58151 0.912547
192 1 0.916207 0.579806 0.74695
211 1 0.831038 0.658196 0.829139
194 1 -0.0066385 0.837463 0.829911
197 1 0.0790136 0.751061 0.749631
198 1 0.0803662 0.911904 0.918827
199 1 0.256781 0.757663 0.921507
200 1 0.246615 0.918455 0.749828
202 1 0.337008 0.833757 0.826821
205 1 0.422863 0.75657 0.741339
206 1 0.411724 0.928066 0.907083
207 1 0.580988 0.757351 0.917544
208 1 0.5797 0.921366 0.749076
210 1 0.666844 0.834569 0.83096
213 1 0.749708 0.743478 0.749035
214 1 0.750972 0.908372 0.917108
215 1 0.909679 0.755784 0.908002
216 1 0.913493 0.916019 0.748655
ITEM: TIMESTEP
800
ITEM: NUMBER OF ATOMS
216
ITEM: BOX BOUNDS pp pp pp
0.0000000000000000e+00 1.6427280000000000e+01
0.0000000000000000e+00 1.6427280000000000e+01
0.0000000000000000e+00 1.6427280000000000e+01
ITEM: ATOMS id type xs ys zs
1 1 -0.00198273 -0.00962524 0.00534337
2 1 -0.00427874 0.166706 0.170425
3 1 0.16597 0.00220486 0.165405
4 1 0.170205 0.168153 0.00383447
5 1 0.0807979 0.0849746 0.0830927
9 1 0.337005 -0.00579776 0.0050546
10 1 0.334221 0.157408 0.162197
13 1 0.42469 0.0765769 0.0820425
11 1 0.505222 0.00589005 0.175511
12 1 0.503075 0.16648 -0.00407104
17 1 0.663548 0.00496854 0.00238157
18 1 0.664798 0.163792 0.173846
19 1 0.83545 0.000258243 0.171901
20 1 0.837095 0.160351 -0.000913209
21 1 0.751584 0.0898614 0.0861856
25 1 0.00241612 0.332064 -0.00269609
27 1 0.169324 0.331044 0.171648
29 1 0.0835328 0.416067 0.0795751
8 1 0.252608 0.246156 0.087806
33 1 0.332788 0.340729 -0.00490209
37 1 0.417569 0.412229 0.0765623
16 1 0.58445 0.252961 0.0886852
35 1 0.501642 0.33422 0.167488
41 1 0.668084 0.328681 -0.00205349
24 1 0.919455 0.248451 0.0761315
43 1 0.834417 0.334348 0.16378
45 1 0.752575 0.414066 0.0804918
26 1 0.00156393 0.501619 0.166324
28 1 0.165753 0.501642 0.00152886
49 1 0.00517118 0.665973 0.000340082
51 1 0.172876 0.668788 0.168855
32 1 0.246475 0.582367 0.0841937
34 1 0.333752 0.496727 0.162627
57 1 0.325444 0.667131 0.00576407
36 1 0.502241 0.498396 -0.00352138
40 1 0.586571 0.579089 0.0834039
42 1 0.671684 0.49535 0.161174
59 1 0.499145 0.662494 0.16339
65 1 0.668852 0.666531 0.00245804
44 1 0.835132 0.502136 -0.000889767
48 1 0.918286 0.589958 0.0826498
67 1 0.835145 0.676535 0.164437
50 1 -0.00464621 0.829967 0.163006
52 1 0.167183 0.834017 -5.74572e-05
53 1 0.0901401 0.75081 0.0804257
56 1 0.25171 0.917498 0.0879244
58 1 0.337173 0.839438 0.167051
61 1 0.41904 0.74993 0.0791123
60 1 0.509478 0.835555 0.00579565
64 1 0.591089 0.922044 0.092252
66 1 0.668574 0.832394 0.166857
68 1 0.829315 0.84061 -0.0049227
69 1 0.750176 0.755975 0.0840511
72 1 0.911672 0.911933 0.084648
73 1 0.000690297 -0.00620851 0.33293
76 1 0.160352 0.165123 0.331052
77 1 0.0842169 0.081158 0.412346
7 1 0.252815 0.0795921 0.254421
81 1 0.333383 -0.011947 0.329392
85 1 0.415842 0.0780512 0.415747
15 1 0.581278 0.0848071 0.262365
84 1 0.490916 0.164639 0.336846
89 1 0.667192 0.00506771 0.339087
23 1 0.920201 0.0821391 0.253443
92 1 0.837804 0.170016 0.334062
93 1 0.752133 0.0884893 0.411239
6 1 0.0798221 0.252632 0.242793
97 1 -0.00139562 0.33225 0.323386
101 1 0.0829792 0.416 0.411719
14 1 0.417804 0.247945 0.246784
31 1 0.247317 0.421446 0.251771
80 1 0.245792 0.25112 0.419309
105 1 0.334251 0.332004 0.333136
109 1 0.420174 0.420092 0.41093
39 1 0.583787 0.419819 0.248001
88 1 0.578772 0.251208 0.41364
113 1 0.659941 0.333428 0.33055
22 1 0.749361 0.25196 0.2502
47 1 0.916643 0.414707 0.252056
96 1 0.916875 0.257207 0.413039
117 1 0.749717 0.416212 0.419575
30 1 0.0842902 0.587001 0.248471
100 1 0.167103 0.511023 0.336284
121 1 0.00100345 0.66446 0.337136
38 1 0.406034 0.58952 0.243704
104 1 0.251771 0.58729 0.42095
129 1 0.329835 0.670432 0.337146
108 1 0.50172 0.50526 0.329429
112 1 0.584105 0.577748 0.416983
137 1 0.66516 0.655894 0.336215
46 1 0.747621 0.586406 0.241741
116 1 0.831045 0.502618 0.32764
120 1 0.914804 0.580488 0.418837
54 1 0.0807529 0.912691 0.244252
124 1 0.162672 0.83923 0.333942
125 1 0.0848043 0.747487 0.421237
55 1 0.250034 0.758465 0.248053
62 1 0.425754 0.916813 0.252554
128 1 0.247624 0.914828 0.422092
133 1 0.419129 0.749559 0.417333
63 1 0.583451 0.744459 0.247991
132 1 0.5002 0.830521 0.332334
136 1 0.583584 0.922508 0.419711
70 1 0.746937 0.919773 0.253116
71 1 0.91558 0.746717 0.255416
140 1 0.831944 0.830557 0.334716
141 1 0.74879 0.747676 0.416019
144 1 0.911303 0.913243 0.419805
74 1 0.00492227 0.174021 0.497231
75 1 0.159895 -0.00142517 0.500769
145 1 -0.00116331 0.00310113 0.666125
148 1 0.167164 0.173751 0.669168
79 1 0.251075 0.0928104 0.585743
82 1 0.337973 0.164964 0.495142
153 1 0.338465 0.00666842 0.663058
83 1 0.498827 0.00206768 0.498565
87 1 0.588247 0.0834468 0.587645
90 1 0.665797 0.167011 0.498029
156 1 0.503134 0.174248 0.66664
161 1 0.668904 0.00028493 0.662292
91 1 0.829467 0.00406981 0.494651
95 1 0.916659 0.0880108 0.577474
164 1 0.835778 0.168918 0.672353
78 1 0.0795472 0.256059 0.58551
99 1 0.161887 0.33478 0.50203
169 1 -0.00583534 0.336132 0.670578
86 1 0.420233 0.249367 0.57708
103 1 0.252858 0.409106 0.58377
177 1 0.340395 0.335213 0.668396
107 1 0.501319 0.337307 0.498607
111 1 0.586275 0.417085 0.589269
185 1 0.665444 0.329388 0.670579
94 1 0.752413 0.250277 0.583629
115 1 0.829549 0.335515 0.496706
119 1 0.912128 0.410976 0.585733
98 1 -0.00310765 0.493785 0.49809
102 1 0.0819616 0.576808 0.584247
123 1 0.170061 0.668472 0.506598
172 1 0.173067 0.494947 0.663683
193 1 0.00122977 0.668505 0.666203
106 1 0.329643 0.495805 0.499684
110 1 0.41366 0.579183 0.578711
201 1 0.330112 0.66758 0.660648
114 1 0.668687 0.496857 0.507324
131 1 0.498824 0.663839 0.501621
180 1 0.494923 0.500279 0.666327
209 1 0.671095 0.661269 0.668047
118 1 0.754014 0.58557 0.580392
139 1 0.835359 0.665326 0.502396
188 1 0.830171 0.50185 0.670913
122 1 -0.00498457 0.82813 0.498798
126 1 0.078699 0.913692 0.581837
196 1 0.172983 0.834716 0.663746
127 1 0.252645 0.751452 0.582199
130 1 0.336525 0.833121 0.495374
134 1 0.421419 0.915133 0.584332
135 1 0.589784 0.75103 0.584962
138 1 0.669039 0.832184 0.50066
204 1 0.501254 0.830073 0.667995
142 1 0.754034 0.920271 0.576402
143 1 0.913249 0.746704 0.585319
212 1 0.831114 0.835627 0.666922
146 1 -0.000699478 0.155385 0.840266
147 1 0.166649 0.00291052 0.828684
149 1 0.0809025 0.0890834 0.745067
151 1 0.249571 0.0839837 0.919312
154 1 0.328026 0.165277 0.835293
157 1 0.418482 0.0906391 0.747415
155 1 0.4948 -0.00450457 0.826342
159 1 0.572674 0.0729285 0.91578
162 1 0.654299 0.162036 0.841126
163 1 0.82954 -0.00287756 0.828909
165 1 0.747522 0.0849418 0.746063
167 1 0.915656 0.0753787 0.915339
150 1 0.0799658 0.247338 0.915675
171 1 0.163851 0.331517 0.831762
173 1 0.0857295 0.41196 0.745848
152 1 0.251774 0.255571 0.749927
158 1 0.413381 0.250586 0.91537
175 1 0.246794 0.420004 0.915476
181 1 0.417338 0.415748 0.755059
160 1 0.578168 0.253723 0.755631
179 1 0.499496 0.333568 0.837599
183 1 0.590134 0.419442 0.917141
166 1 0.747981 0.241194 0.914131
168 1 0.919069 0.245483 0.758626
187 1 0.832027 0.327125 0.834603
189 1 0.751581 0.415712 0.754981
191 1 0.91712 0.415693 0.914315
170 1 0.00436906 0.495863 0.827852
174 1 0.0855036 0.581783 0.915847
195 1 0.168017 0.662399 0.828863
176 1 0.250242 0.580422 0.744561
178 1 0.328268 0.49906 0.83407
182 1 0.405299 0.576719 0.923365
184 1 0.57901 0.584255 0.748946
186 1 0.669016 0.508326 0.834221
203 1 0.489087 0.663488 0.840375
190 1 0.752576 0.590234 0.919932
192 1 0.921639 0.586982 0.753773
211 1 0.836602 0.67642 0.843175
194 1 0.00452449 0.833935 0.83082
197 1 0.0850545 0.754407 0.748428
198 1 0.0865563 0.91943 0.916416
199 1 0.238414 0.746409 0.914007
200 1 0.253949 0.920598 0.742283
202 1 0.329362 0.830553 0.836467
205 1 0.40688 0.743041 0.750436
206 1 0.422399 0.91457 0.91723
207 1 0.588371 0.744571 0.915545
208 1 0.58187 0.918102 0.743832
210 1 0.668547 0.838515 0.835745
213 1 0.751636 0.754005 0.747732
214 1 0.745337 0.922812 0.916734
215 1 0.922462 0.753849 0.91934
216 1 0.915394 0.914296 0.747504
ITEM: TIMESTEP
900
ITEM: NUMBER OF ATOMS
216
ITEM: BOX BOUNDS pp pp pp
0.0000000000000000e+00 1.6427280000000000e+01
0.0000000000000000e+00 1.6427280000000000e+01
0.0000000000000000e+00 1.6427280000000000e+01
ITEM: ATOMS id type xs ys zs
1 1 0.00320519 0.00806085 -0.00943773
2 1 0.00960824 0.172533 0.163444
3 1 0.174909 -0.00705829 0.162736
4 1 0.161214 0.167183 -0.0105625
5 1 0.0876562 0.0807846 0.0823692
9 1 0.334495 -0.00035581 0.00133902
10 1 0.332488 0.172571 0.168159
13 1 0.415652 0.0821431 0.0850203
11 1 0.500669 -0.00628213 0.167059
12 1 0.506132 0.1651 0.0045602
17 1 0.669342 -0.00686042 0.00148387
18 1 0.666691 0.164331 0.169344
19 1 0.836954 0.000331844 0.165979
20 1 0.830408 0.172069 0.00300797
21 1 0.75059 0.0767476 0.0823058
25 1 -9.14276e-05 0.331431 -0.00287665
27 1 0.160952 0.333019 0.157557
29 1 0.083675 0.416156 0.0793983
8 1 0.25076 0.251001 0.0763551
33 1 0.336089 0.327418 0.00128193
37 1 0.413538 0.417322 0.0865578
16 1 0.582117 0.248653 0.0860095
35 1 0.498517 0.332425 0.169433
41 1 0.663416 0.340663 0.00488536
24 1 0.919593 0.249563 0.0891168
43 1 0.837857 0.33341 0.167523
45 1 0.746011 0.422132 0.0864589
26 1 0.00138907 0.497724 0.16366
28 1 0.170006 0.497866 -0.00665333
49 1 0.00282591 0.670085 -0.00298607
51 1 0.16343 0.663372 0.160327
32 1 0.252732 0.580669 0.0787628
34 1 0.335109 0.506016 0.163074
57 1 0.342186 0.660526 -0.0034115
36 1 0.497659 0.49756 0.00600294
40 1 0.587761 0.580918 0.0847877
42 1 0.661528 0.500509 0.173583
59 1 0.508802 0.66581 0.17267
65 1 0.670355 0.663844 0.0055656
44 1 0.833111 0.496539 0.00161205
48 1 0.917663 0.582423 0.0791267
67 1 0.835964 0.659678 0.171805
50 1 0.00484454 0.83609 0.167217
52 1 0.173125 0.830293 -0.00213234
53 1 0.08273 0.750831 0.086
56 1 0.255143 0.910782 0.0771814
58 1 0.337657 0.829934 0.166533
61 1 0.416693 0.74224 0.0899027
60 1 0.493739 0.831253 0.00338452
64 1 0.580696 0.913015 0.0820411
66 1 0.671732 0.836444 0.164989
68 1 0.84437 0.82957 0.00791213
69 1 0.756989 0.747912 0.088863
72 1 0.922509 0.919871 0.0846904
73 1 -0.000878402 0.00324425 0.330698
76 1 0.162596 0.17078 0.326919
77 1 0.0760662 0.0857726 0.415129
7 1 0.249473 0.0836043 0.245011
81 1 0.336962 0.00981161 0.334882
85 1 0.417142 0.0857545 0.413765
15 1 0.581461 0.077868 0.250782
84 1 0.506924 0.16315 0.332687
89 1 0.667986 0.00165556 0.330537
23 1 0.915979 0.0904112 0.245695
92 1 0.830034 0.163493 0.335835
93 1 0.752707 0.0809317 0.424179
6 1 0.0821198 0.254155 0.249079
97 1 -0.00026747 0.332257 0.335766
101 1 0.0826449 0.417832 0.410841
14 1 0.420117 0.248889 0.249823
31 1 0.24951 0.418229 0.243035
80 1 0.246834 0.246998 0.411222
105 1 0.335078 0.334392 0.33138
109 1 0.409881 0.41447 0.427203
39 1 0.584137 0.411016 0.24879
88 1 0.581055 0.247083 0.418242
113 1 0.667193 0.332592 0.338723
22 1 0.750564 0.248893 0.255306
47 1 0.918776 0.419058 0.247556
96 1 0.91218 0.253339 0.416352
117 1 0.745948 0.42249 0.419899
30 1 0.085426 0.584269 0.250147
100 1 0.168095 0.4945 0.329546
121 1 0.00150981 0.668824 0.329905
38 1 0.428206 0.577855 0.25777
104 1 0.252757 0.581664 0.410103
129 1 0.340174 0.666998 0.330209
108 1 0.502463 0.492841 0.334651
112 1 0.580022 0.585314 0.413936
137 1 0.667938 0.675345 0.334704
46 1 0.751803 0.582731 0.255398
116 1 0.83404 0.497198 0.336621
120 1 0.91752 0.59262 0.417932
54 1 0.087566 0.921846 0.25169
124 1 0.173408 0.830587 0.334505
125 1 0.0827564 0.75399 0.411499
55 1 0.252728 0.742918 0.248819
62 1 0.415461 0.920953 0.250546
128 1 0.251762 0.922545 0.412191
133 1 0.409817 0.753589 0.419395
63 1 0.588383 0.757936 0.252824
132 1 0.499988 0.837689 0.339425
136 1 0.58403 0.917892 0.414832
70 1 0.753969 0.919357 0.253632
71 1 0.918769 0.753306 0.243807
140 1 0.835665 0.835199 0.333558
141 1 0.757555 0.751687 0.419727
144 1 0.919898 0.924193 0.41401
74 1 -0.00647458 0.168126 0.497371
75 1 0.16743 0.00391008 0.494747
145 1 0.000647442 0.00234322 0.668784
148 1 0.162203 0.164105 0.662916
79 1 0.247172 0.0782416 0.581144
82 1 0.330498 0.165952 0.503101
153 1 0.330335 -0.00573324 0.670995
83 1 0.497178 -0.00113998 0.502511
87 1 0.57388 0.081253 0.585648
90 1 0.666039 0.168313 0.504994
156 1 0.491318 0.160181 0.667787
161 1 0.66258 -0.00229139 0.670452
91 1 0.831491 -0.00487797 0.502608
95 1 0.911311 0.0798331 0.584812
164 1 0.831814 0.166327 0.662654
78 1 0.0851534 0.24658 0.580865
99 1 0.164985 0.332428 0.493418
169 1 -0.000987295 0.331527 0.660588
86 1 0.410731 0.249508 0.590747
103 1 0.243576 0.424715 0.576548
177 1 0.321425 0.335942 0.660125
107 1 0.493227 0.329807 0.504799
111 1 0.578036 0.419413 0.580644
185 1 0.661318 0.337586 0.669996
94 1 0.744219 0.256509 0.58156
115 1 0.832735 0.331189 0.502702
119 1 0.915709 0.420393 0.58119
98 1 -0.000401466 0.504682 0.499061
102 1 0.0845438 0.592876 0.578095
123 1 0.170287 0.667034 0.495237
172 1 0.161858 0.499858 0.664684
193 1 -0.00358644 0.670921 0.663123
106 1 0.330641 0.501762 0.497947
110 1 0.41648 0.587259 0.589569
201 1 0.329329 0.66138 0.66822
114 1 0.664957 0.505591 0.501805
131 1 0.496814 0.671334 0.500289
180 1 0.501023 0.498429 0.665531
209 1 0.665646 0.667712 0.666546
118 1 0.740814 0.583276 0.584045
139 1 0.83277 0.672993 0.501698
188 1 0.829582 0.498502 0.662074
122 1 0.001728 0.840092 0.498235
126 1 0.0852744 0.919501 0.584725
196 1 0.15939 0.827626 0.663929
127 1 0.247943 0.747169 0.583163
130 1 0.327629 0.831862 0.505823
134 1 0.408878 0.916192 0.5816
135 1 0.578424 0.747573 0.587103
138 1 0.670001 0.835437 0.503885
204 1 0.498044 0.837992 0.668349
142 1 0.746585 0.914343 0.591514
143 1 0.918386 0.759758 0.580689
212 1 0.835333 0.838255 0.666352
146 1 -0.00584396 0.177876 0.826183
147 1 0.162694 -0.00316917 0.834806
149 1 0.0818225 0.0840144 0.75721
151 1 0.252777 0.0832009 0.91285
154 1 0.334126 0.16714 0.824979
157 1 0.417259 0.0719149 0.757283
155 1 0.504749 0.00428337 0.839445
159 1 0.591409 0.0843701 0.9215
162 1 0.670996 0.170006 0.830728
163 1 0.838077 0.00163269 0.83887
165 1 0.745931 0.0786552 0.756289
167 1 0.916643 0.0896151 0.91785
150 1 0.0799944 0.251228 0.910524
171 1 0.163891 0.335797 0.830381
173 1 0.0777212 0.418133 0.743795
152 1 0.245071 0.246112 0.745827
158 1 0.420169 0.243674 0.913574
175 1 0.252738 0.413443 0.913721
181 1 0.416701 0.41457 0.744695
160 1 0.581511 0.244764 0.746243
179 1 0.499763 0.330205 0.82756
183 1 0.574071 0.410153 0.917938
166 1 0.752457 0.256949 0.92111
168 1 0.913806 0.254827 0.741798
187 1 0.836455 0.337068 0.831617
189 1 0.744482 0.415009 0.753789
191 1 0.917353 0.417765 0.914664
170 1 -0.00101439 0.498386 0.832809
174 1 0.0845285 0.579982 0.918067
195 1 0.167624 0.670693 0.830275
176 1 0.247613 0.584053 0.752225
178 1 0.334497 0.49551 0.827196
182 1 0.420985 0.576572 0.9113
184 1 0.587143 0.577914 0.754236
186 1 0.667144 0.494385 0.83906
203 1 0.506965 0.665795 0.833046
190 1 0.750275 0.580207 0.918
192 1 0.912709 0.584724 0.746985
211 1 0.827954 0.664519 0.829651
194 1 -0.000520819 0.832123 0.834481
197 1 0.0866912 0.748174 0.752763
198 1 0.082359 0.911399 0.917145
199 1 0.257518 0.744765 0.918124
200 1 0.24418 0.90628 0.754163
202 1 0.337204 0.834368 0.833948
205 1 0.421082 0.747763 0.748054
206 1 0.417205 0.921549 0.920459
207 1 0.5836 0.751304 0.921904
208 1 0.584838 0.918319 0.761745
210 1 0.666161 0.831702 0.833083
213 1 0.748948 0.753381 0.751368
214 1 0.757519 0.914417 0.922398
215 1 0.916534 0.745837 0.918955
216 1 0.920387 0.918817 0.752603
ITEM: TIMESTEP
1000
ITEM: NUMBER OF ATOMS
216
ITEM: BOX BOUNDS pp pp pp
0.0000000000000000e+00 1.6427280000000000e+01
0.0000000000000000e+00 1.6427280000000000e+01
0.0000000000000000e+00 1.6427280000000000e+01
ITEM: ATOMS id type xs ys zs
1 1 0.0016071 -0.00436015 0.00210419
2 1 -0.0067283 0.16917 0.164996
3 1 0.163097 0.00864918 0.165263
4 1 0.168487 0.16927 0.00639289
5 1 0.0768688 0.0910056 0.0841057
9 1 0.331775 -0.0067743 -0.00511872
10 1 0.336921 0.16551 0.166623
13 1 0.415036 0.0827708 0.081117
11 1 0.503989 0.00317062 0.163059
12 1 0.492202 0.166535 -0.00431176
17 1 0.664656 0.00690774 0.00462931
18 1 0.66418 0.164856 0.162049
19 1 0.828742 -0.00367814 0.165858
20 1 0.841633 0.164444 -0.00346458
21 1 0.75559 0.0868285 0.0809028
25 1 -0.00283051 0.338325 0.000584886
27 1 0.170284 0.330597 0.172224
29 1 0.0861234 0.417388 0.0870124
8 1 0.249335 0.254909 0.0864906
33 1 0.33223 0.336909 -0.000499451
37 1 0.426175 0.411711 0.0843236
16 1 0.581354 0.252622 0.0799786
35 1 0.503271 0.335582 0.167305
41 1 0.668173 0.328708 -0.00173655
24 1 0.913709 0.254343 0.0804826
43 1 0.829666 0.333181 0.16768
45 1 0.75092 0.415977 0.0843448
26 1 -0.000287229 0.50003 0.172069
28 1 0.167166 0.499396 0.00715624
49 1 -0.00343044 0.662174 0.0039427
51 1 0.170392 0.664975 0.166957
32 1 0.254329 0.581304 0.0822713
34 1 0.33936 0.490121 0.168447
57 1 0.333257 0.670464 0.00314993
36 1 0.507878 0.501109 -0.00121903
40 1 0.580694 0.581171 0.0899117
42 1 0.669206 0.500307 0.168043
59 1 0.491783 0.665034 0.164046
65 1 0.663269 0.662037 -0.00124592
44 1 0.830429 0.500572 -0.00236681
48 1 0.911813 0.580574 0.0895353
67 1 0.832655 0.673047 0.165529
50 1 0.00353356 0.82584 0.163602
52 1 0.163679 0.839369 0.00538395
53 1 0.0824852 0.746144 0.0780459
56 1 0.24663 0.924516 0.0833713
58 1 0.328044 0.836526 0.158869
61 1 0.419687 0.758831 0.0770314
60 1 0.507717 0.836467 -0.00432861
64 1 0.587134 0.919205 0.0840401
66 1 0.662578 0.831633 0.172464
68 1 0.828154 0.830474 -0.00258847
69 1 0.744667 0.747194 0.0797264
72 1 0.918001 0.911698 0.0821475
73 1 0.00268743 -0.000968391 0.338878
76 1 0.172313 0.165878 0.331085
77 1 0.0927813 0.0829508 0.420023
7 1 0.252241 0.0840962 0.254536
81 1 0.330167 -0.0049784 0.331688
85 1 0.414753 0.0803557 0.418111
15 1 0.582701 0.0866611 0.248118
84 1 0.49596 0.167283 0.330546
89 1 0.663047 -0.0033068 0.329042
23 1 0.920741 0.0798746 0.253449
92 1 0.834896 0.167809 0.335122
93 1 0.745579 0.0808222 0.411733
6 1 0.0849018 0.246607 0.253604
97 1 0.00355702 0.334179 0.332463
101 1 0.0827655 0.415572 0.416692
14 1 0.418478 0.249167 0.251041
31 1 0.24957 0.413668 0.252791
80 1 0.25068 0.254063 0.422523
105 1 0.334081 0.330627 0.337801
109 1 0.419775 0.420814 0.411131
39 1 0.582146 0.422743 0.253529
88 1 0.583842 0.248443 0.418089
113 1 0.664762 0.337173 0.332264
22 1 0.751864 0.252063 0.249908
47 1 0.914849 0.41478 0.252796
96 1 0.921047 0.246409 0.41712
117 1 0.750871 0.412683 0.415531
30 1 0.0846302 0.579472 0.25022
100 1 0.162215 0.502387 0.334154
121 1 0.00342408 0.669136 0.328352
38 1 0.407491 0.584333 0.245578
104 1 0.243545 0.579233 0.420206
129 1 0.33211 0.661055 0.337516
108 1 0.495219 0.504013 0.333798
112 1 0.589125 0.584264 0.428932
137 1 0.671058 0.667266 0.335533
46 1 0.747937 0.586398 0.249001
116 1 0.832388 0.505388 0.334378
120 1 0.917036 0.586334 0.410578
54 1 0.0794063 0.916721 0.244834
124 1 0.161246 0.835038 0.326101
125 1 0.0811669 0.748559 0.417386
55 1 0.251978 0.750649 0.250003
62 1 0.415621 0.914101 0.246749
128 1 0.254926 0.912399 0.419925
133 1 0.420891 0.74742 0.413929
63 1 0.578831 0.742909 0.251094
132 1 0.499018 0.827432 0.327
136 1 0.579805 0.91698 0.416772
70 1 0.748785 0.913028 0.245591
71 1 0.921539 0.753092 0.253417
140 1 0.835604 0.83723 0.336481
141 1 0.744841 0.755781 0.415281
144 1 0.917584 0.916595 0.420815
74 1 -0.000168912 0.161411 0.50211
75 1 0.168886 -0.00504988 0.503271
145 1 -0.00573683 -0.00877169 0.662635
148 1 0.165683 0.165898 0.662317
79 1 0.242814 0.0827591 0.584294
82 1 0.331248 0.166339 0.498336
153 1 0.33649 0.00641491 0.663656
83 1 0.49618 -0.00101844 0.502914
87 1 0.588329 0.0855101 0.587119
90 1 0.664489 0.160933 0.495751
156 1 0.501093 0.167463 0.672382
161 1 0.668737 -0.00521698 0.673311
91 1 0.837971 0.00206172 0.502353
95 1 0.92231 0.0813757 0.581243
164 1 0.835038 0.171796 0.670205
78 1 0.0772422 0.256011 0.585945
99 1 0.16633 0.338866 0.505842
169 1 -0.00202135 0.333998 0.670666
86 1 0.421716 0.248306 0.580402
103 1 0.255586 0.411791 0.585654
177 1 0.339994 0.325932 0.67072
107 1 0.502017 0.33554 0.496434
111 1 0.585585 0.414917 0.581942
185 1 0.667562 0.3303 0.6624
94 1 0.749737 0.245768 0.582605
115 1 0.834679 0.333902 0.498648
119 1 0.915764 0.414284 0.582888
98 1 -0.000267339 0.497782 0.4966
102 1 0.0817929 0.579102 0.584288
123 1 0.163737 0.672514 0.500098
172 1 0.170278 0.506256 0.668046
193 1 0.00360858 0.66817 0.669876
106 1 0.333119 0.498002 0.500362
110 1 0.414836 0.579206 0.578881
201 1 0.335679 0.674578 0.663304
114 1 0.666912 0.495585 0.501553
131 1 0.500531 0.666176 0.500485
180 1 0.498313 0.500087 0.667384
209 1 0.667502 0.669732 0.670884
118 1 0.753761 0.586906 0.581075
139 1 0.831128 0.667987 0.497605
188 1 0.830343 0.503922 0.6646
122 1 -0.00145041 0.830382 0.50225
126 1 0.0834635 0.913721 0.583603
196 1 0.169136 0.835664 0.668858
127 1 0.251458 0.757075 0.584264
130 1 0.33792 0.833165 0.496518
134 1 0.417588 0.913066 0.585046
135 1 0.58388 0.751498 0.584531
138 1 0.664879 0.836733 0.501367
204 1 0.502958 0.836079 0.670469
142 1 0.757023 0.922462 0.58556
143 1 0.911466 0.74758 0.583336
212 1 0.829638 0.825767 0.667701
146 1 0.00650623 0.163641 0.833647
147 1 0.169414 -0.00121798 0.833058
149 1 0.0834929 0.0812325 0.74025
151 1 0.249754 0.0745592 0.920537
154 1 0.336533 0.16078 0.835879
157 1 0.418432 0.0898567 0.749039
155 1 0.493732 -0.00582981 0.831346
159 1 0.577066 0.0793605 0.911237
162 1 0.66014 0.164023 0.833522
163 1 0.833701 0.00349905 0.834523
165 1 0.752458 0.08511 0.751961
167 1 0.921334 0.0827193 0.915856
150 1 0.0852356 0.250925 0.917424
171 1 0.164805 0.332023 0.832304
173 1 0.0796896 0.418338 0.753525
152 1 0.250343 0.244911 0.751318
158 1 0.413136 0.255085 0.917812
175 1 0.246797 0.418228 0.917655
181 1 0.417774 0.417125 0.751038
160 1 0.585385 0.251056 0.749969
179 1 0.50172 0.338796 0.840103
183 1 0.59267 0.42127 0.912572
166 1 0.747881 0.249852 0.909574
168 1 0.922294 0.257251 0.756893
187 1 0.828661 0.338415 0.829038
189 1 0.750914 0.419293 0.739394
191 1 0.9085 0.419412 0.916458
170 1 -0.00492512 0.500592 0.837178
174 1 0.080773 0.585439 0.911771
195 1 0.166213 0.664928 0.832868
176 1 0.255088 0.588567 0.747234
178 1 0.335902 0.508689 0.836578
182 1 0.422395 0.591933 0.921899
184 1 0.579126 0.587117 0.740494
186 1 0.662978 0.50048 0.82335
203 1 0.502317 0.666704 0.832974
190 1 0.747931 0.575386 0.91479
192 1 0.915254 0.577617 0.751906
211 1 0.835575 0.662256 0.838491
194 1 0.00129236 0.831998 0.834205
197 1 0.0836833 0.751415 0.745477
198 1 0.0849093 0.920084 0.915106
199 1 0.249004 0.751775 0.917098
200 1 0.250467 0.924185 0.746794
202 1 0.333309 0.833423 0.83736
205 1 0.415565 0.752226 0.751481
206 1 0.417715 0.911326 0.914445
207 1 0.583309 0.748724 0.914226
208 1 0.58547 0.914257 0.750741
210 1 0.664622 0.829209 0.832471
213 1 0.751623 0.742491 0.752481
214 1 0.744029 0.915601 0.913905
215 1 0.916639 0.751494 0.916334
216 1 0.90882 0.914207 0.7482
ITEM: TIMESTEP
1100
ITEM: NUMBER OF ATOMS
216
ITEM: BOX BOUNDS pp pp pp
0.0000000000000000e+00 1.6427280000000000e+01
0.0000000000000000e+00 1.6427280000000000e+01
0.0000000000000000e+00 1.6427280000000000e+01
ITEM: ATOMS id type xs ys zs
1 1 -0.00473968 0.0046788 -0.00156959
2 1 0.00523877 0.160575 0.169692
3 1 0.169958 -0.00854209 0.172431
4 1 0.166384 0.162716 0.00550488
5 1 0.0865101 0.0724502 0.0835574
9 1 0.329392 0.00604608 0.00339326
10 1 0.325257 0.167076 0.170274
13 1 0.416267 0.0850348 0.0834898
11 1 0.501079 0.00244304 0.168934
12 1 0.506365 0.172413 0.00030011
17 1 0.666359 -0.00111327 -0.00182306
18 1 0.669902 0.163122 0.168447
19 1 0.82533 0.00469156 0.165041
20 1 0.827144 0.159532 0.00710444
21 1 0.741481 0.0846071 0.085927
25 1 -0.00116842 0.3297 0.00136028
27 1 0.166813 0.335717 0.167462
29 1 0.0817096 0.416533 0.0867927
8 1 0.247601 0.249058 0.0860073
33 1 0.334968 0.331561 0.00287461
37 1 0.40571 0.420163 0.0835635
16 1 0.584725 0.252117 0.0888663
35 1 0.49675 0.330326 0.163481
41 1 0.662595 0.339609 -0.00179477
24 1 0.914507 0.239169 0.0861243
43 1 0.834823 0.33003 0.160589
45 1 0.754839 0.416078 0.0784664
26 1 0.00385666 0.506597 0.163365
28 1 0.163731 0.501734 -0.00111819
49 1 -0.000835953 0.672349 0.000611536
51 1 0.151981 0.671421 0.171651
32 1 0.241087 0.590624 0.0874084
34 1 0.325115 0.512017 0.169303
57 1 0.327369 0.666151 -0.000512181
36 1 0.487292 0.498767 -0.00533215
40 1 0.579816 0.588046 0.0754722
42 1 0.664298 0.498718 0.160781
59 1 0.502346 0.669834 0.167467
65 1 0.664953 0.67758 -0.00762336
44 1 0.842155 0.496838 -0.0025213
48 1 0.919373 0.582183 0.0769568
67 1 0.832171 0.660719 0.166198
50 1 -0.0089759 0.837275 0.174364
52 1 0.162875 0.831919 3.33773e-05
53 1 0.0778505 0.762226 0.0906098
56 1 0.252776 0.913456 0.0831219
58 1 0.331996 0.834746 0.171032
61 1 0.411173 0.741865 0.085015
60 1 0.486203 0.832496 -0.00220528
64 1 0.576557 0.912107 0.0779121
66 1 0.664776 0.841375 0.161407
68 1 0.836512 0.837221 -0.000892735
69 1 0.749995 0.755943 0.0864235
72 1 0.913351 0.920139 0.0884294
73 1 -0.00609482 -0.00637357 0.33236
76 1 0.165243 0.163588 0.340925
77 1 0.0761476 0.0827028 0.416866
7 1 0.244988 0.0826642 0.250092
81 1 0.330395 0.0042935 0.336722
85 1 0.420662 0.0876723 0.411487
15 1 0.58653 0.0820534 0.253868
84 1 0.504009 0.16888 0.332796
89 1 0.672822 0.00189283 0.332664
23 1 0.910413 0.0809918 0.244662
92 1 0.833509 0.165369 0.330365
93 1 0.751591 0.0845476 0.42026
6 1 0.0850514 0.251483 0.249049
97 1 -0.00083491 0.33629 0.337519
101 1 0.0910616 0.417445 0.422906
14 1 0.415358 0.253772 0.247256
31 1 0.247973 0.421561 0.253575
80 1 0.251973 0.245304 0.412716
105 1 0.335223 0.335875 0.331497
109 1 0.41499 0.411554 0.419451
39 1 0.58333 0.407287 0.24102
88 1 0.586447 0.250647 0.414963
113 1 0.668524 0.328214 0.330519
22 1 0.748426 0.248545 0.243878
47 1 0.916848 0.416188 0.242802
96 1 0.916357 0.249385 0.416548
117 1 0.750663 0.415224 0.414615
30 1 0.0755971 0.584394 0.257469
100 1 0.163182 0.501606 0.337541
121 1 -0.00392315 0.660672 0.338475
38 1 0.417209 0.589275 0.245585
104 1 0.257246 0.585557 0.415919
129 1 0.33675 0.670815 0.333182
108 1 0.498468 0.491011 0.329055
112 1 0.579377 0.584179 0.401048
137 1 0.662277 0.664261 0.323855
46 1 0.746273 0.578178 0.247108
116 1 0.830828 0.493686 0.331654
120 1 0.920532 0.576356 0.421893
54 1 0.0771468 0.911335 0.251666
124 1 0.163335 0.833321 0.34618
125 1 0.0789639 0.741548 0.419208
55 1 0.24628 0.753006 0.249813
62 1 0.416546 0.914912 0.255572
128 1 0.245922 0.922604 0.420341
133 1 0.416682 0.754893 0.418487
63 1 0.584919 0.757324 0.245025
132 1 0.500951 0.832164 0.338358
136 1 0.587379 0.914445 0.411562
70 1 0.747481 0.919576 0.250251
71 1 0.913099 0.744125 0.252697
140 1 0.825468 0.828958 0.32458
141 1 0.752172 0.739735 0.410457
144 1 0.906984 0.907094 0.414359
74 1 0.00182014 0.168899 0.505155
75 1 0.166152 0.00404088 0.502778
145 1 0.00935139 0.0110463 0.664987
148 1 0.179654 0.169914 0.675619
79 1 0.258511 0.084902 0.584174
82 1 0.338367 0.166227 0.504293
153 1 0.335125 0.00170354 0.666024
83 1 0.506879 -0.000746059 0.492037
87 1 0.586777 0.0885226 0.573699
90 1 0.673367 0.175764 0.49954
156 1 0.501672 0.1679 0.661604
161 1 0.666099 0.00502352 0.655511
91 1 0.838796 -0.000300737 0.493822
95 1 0.918761 0.0782869 0.579575
164 1 0.836572 0.157199 0.662829
78 1 0.0911529 0.242902 0.586818
99 1 0.169917 0.328147 0.497068
169 1 0.00708308 0.330782 0.667706
86 1 0.417743 0.252448 0.5874
103 1 0.250729 0.421128 0.583492
177 1 0.33233 0.343396 0.664804
107 1 0.504195 0.3356 0.499686
111 1 0.586545 0.415436 0.58506
185 1 0.674288 0.337557 0.669033
94 1 0.749597 0.251776 0.58337
115 1 0.833744 0.333003 0.499206
119 1 0.924136 0.415088 0.592313
98 1 0.00479371 0.494122 0.502972
102 1 0.0854446 0.58222 0.587953
123 1 0.170522 0.656736 0.50345
172 1 0.168247 0.494116 0.670387
193 1 0.000443654 0.663863 0.668905
106 1 0.339333 0.501606 0.500572
110 1 0.422583 0.585373 0.585048
201 1 0.330115 0.65782 0.671565
114 1 0.668928 0.494244 0.494296
131 1 0.49437 0.665529 0.495147
180 1 0.507047 0.501844 0.665204
209 1 0.667527 0.662476 0.664014
118 1 0.751211 0.576308 0.588955
139 1 0.836525 0.660313 0.500579
188 1 0.839345 0.493759 0.675199
122 1 0.00263024 0.837175 0.495573
126 1 0.0866815 0.920363 0.583121
196 1 0.162851 0.830882 0.665439
127 1 0.249629 0.74716 0.585448
130 1 0.331745 0.834012 0.500263
134 1 0.41967 0.915242 0.57886
135 1 0.583006 0.748055 0.577453
138 1 0.667142 0.824842 0.490082
204 1 0.504786 0.833515 0.657862
142 1 0.751467 0.910376 0.5737
143 1 0.924222 0.750183 0.583646
212 1 0.834626 0.838774 0.664218
146 1 -0.00907491 0.16568 0.841644
147 1 0.165021 0.00101387 0.839068
149 1 0.0870449 0.0880678 0.760302
151 1 0.247581 0.0932954 0.914038
154 1 0.335129 0.173955 0.834637
157 1 0.417501 0.0877365 0.745819
155 1 0.500738 0.00320801 0.827824
159 1 0.588819 0.0892692 0.917179
162 1 0.67382 0.16921 0.831069
163 1 0.835193 -0.000155836 0.825581
165 1 0.745293 0.0807761 0.744779
167 1 0.907876 0.0813246 0.91925
150 1 0.0833204 0.248189 0.918637
171 1 0.170321 0.335734 0.840109
173 1 0.0851567 0.411605 0.754217
152 1 0.253672 0.263541 0.752541
158 1 0.416832 0.249956 0.918893
175 1 0.253977 0.414907 0.925477
181 1 0.416744 0.418072 0.748276
160 1 0.58305 0.247191 0.745974
179 1 0.49916 0.327553 0.828158
183 1 0.577193 0.417899 0.919918
166 1 0.752352 0.246453 0.922473
168 1 0.917941 0.245243 0.746475
187 1 0.844242 0.328905 0.838266
189 1 0.757398 0.412001 0.763785
191 1 0.926194 0.415823 0.916412
170 1 0.00365431 0.49735 0.833514
174 1 0.0832444 0.583301 0.92281
195 1 0.165332 0.66456 0.832961
176 1 0.240762 0.579208 0.755879
178 1 0.328854 0.492941 0.833232
182 1 0.406993 0.585192 0.913875
184 1 0.58711 0.584509 0.759991
186 1 0.669937 0.501116 0.839131
203 1 0.496628 0.66632 0.83132
190 1 0.755478 0.591793 0.917942
192 1 0.923381 0.582528 0.752697
211 1 0.833111 0.673761 0.825307
194 1 0.00141129 0.833658 0.831088
197 1 0.0838379 0.749252 0.754938
198 1 0.0828181 0.917287 0.921817
199 1 0.24726 0.749627 0.916139
200 1 0.247366 0.913976 0.750369
202 1 0.337588 0.83916 0.83073
205 1 0.416266 0.749093 0.752316
206 1 0.413331 0.923814 0.922292
207 1 0.575427 0.757353 0.912999
208 1 0.578929 0.919532 0.742188
210 1 0.662544 0.836728 0.826184
213 1 0.746547 0.760288 0.74192
214 1 0.750897 0.917922 0.913132
215 1 0.915733 0.747978 0.915822
216 1 0.924463 0.916534 0.746521
ITEM: TIMESTEP
1200
ITEM: NUMBER OF ATOMS
216
ITEM: BOX BOUNDS pp pp pp
0.0000000000000000e+00 1.6427280000000000e+01
0.0000000000000000e+00 1.6427280000000000e+01
0.0000000000000000e+00 1.6427280000000000e+01
ITEM: ATOMS id type xs ys zs
1 1 0.00205943 -0.00122371 -0.00310405
2 1 -0.0074621 0.169915 0.163059
3 1 0.163444 0.00557956 0.168083
4 1 0.170771 0.162343 -0.00105825
5 1 0.0826155 0.0855667 0.0840528
9 1 0.336044 -0.010537 0.000340193
10 1 0.332419 0.169127 0.16814
13 1 0.410296 0.0864058 0.0781773
11 1 0.495776 -0.00439401 0.166857
12 1 0.494107 0.169749 -0.00251809
17 1 0.671111 0.00326822 0.00413749
18 1 0.667536 0.170189 0.160428
19 1 0.834743 -0.00324352 0.16824
20 1 0.834058 0.165812 -0.00522105
21 1 0.75823 0.0846377 0.0795996
25 1 -0.00292585 0.337744 -0.000834069
27 1 0.167824 0.328436 0.162117
29 1 0.0799058 0.418832 0.0871062
8 1 0.25561 0.250393 0.0787574
33 1 0.329796 0.333136 -0.00274716
37 1 0.419134 0.416722 0.0799591
16 1 0.582253 0.246741 0.0845872
35 1 0.498317 0.334616 0.167494
41 1 0.669483 0.329283 0.00293414
24 1 0.909183 0.256123 0.0826984
43 1 0.828496 0.335185 0.169422
45 1 0.748926 0.413726 0.0834007
26 1 -0.00311081 0.504279 0.171182
28 1 0.169021 0.498494 -0.00104833
49 1 0.000817469 0.667221 -0.00120217
51 1 0.169436 0.657982 0.164323
32 1 0.258471 0.582022 0.0801139
34 1 0.334464 0.493381 0.163805
57 1 0.341464 0.669635 0.00129383
36 1 0.503982 0.502796 0.00410685
40 1 0.582316 0.585885 0.0859996
42 1 0.674095 0.499156 0.166719
59 1 0.49348 0.671539 0.163483
65 1 0.662185 0.662571 -0.00140016
44 1 0.827567 0.497918 0.00642463
48 1 0.917906 0.583218 0.0817454
67 1 0.834052 0.666822 0.164922
50 1 0.00277983 0.828048 0.162338
52 1 0.169016 0.834804 0.00155463
53 1 0.0863869 0.744898 0.0819529
56 1 0.241301 0.919604 0.0868176
58 1 0.335288 0.833154 0.16194
61 1 0.418573 0.761224 0.081141
60 1 0.506773 0.831915 -0.00306335
64 1 0.585698 0.915269 0.0850092
66 1 0.665129 0.823571 0.169699
68 1 0.828064 0.832843 -0.00217033
69 1 0.741696 0.748339 0.0762477
72 1 0.918367 0.914129 0.0837612
73 1 0.00442408 0.00264523 0.333995
76 1 0.172377 0.165483 0.326546
77 1 0.0941592 0.0859953 0.42339
7 1 0.251871 0.0806729 0.25174
81 1 0.333805 -0.00105899 0.331933
85 1 0.411397 0.0803074 0.421779
15 1 0.58563 0.0907868 0.247393
84 1 0.499142 0.167483 0.338647
89 1 0.659909 -0.00513374 0.330489
23 1 0.915733 0.0821867 0.252349
92 1 0.828679 0.169585 0.331552
93 1 0.752678 0.0823997 0.417139
6 1 0.0863468 0.243885 0.251642
97 1 0.0058207 0.331942 0.336982
101 1 0.0788603 0.421021 0.413262
14 1 0.415973 0.25252 0.252731
31 1 0.251744 0.411576 0.249234
80 1 0.246907 0.250904 0.4151
105 1 0.33425 0.335272 0.334994
109 1 0.415451 0.419804 0.418051
39 1 0.585345 0.42068 0.25272
88 1 0.587901 0.250152 0.414865
113 1 0.66887 0.34015 0.336114
22 1 0.743542 0.251185 0.247718
47 1 0.91531 0.420002 0.251762
96 1 0.919784 0.248532 0.425083
117 1 0.751998 0.420275 0.415474
30 1 0.0844059 0.585099 0.249888
100 1 0.16726 0.495793 0.330241
121 1 0.000889148 0.66673 0.329951
38 1 0.419021 0.584579 0.253702
104 1 0.243269 0.580461 0.419099
129 1 0.336568 0.668015 0.335975
108 1 0.50434 0.512172 0.329294
112 1 0.587996 0.584498 0.425711
137 1 0.66789 0.66651 0.332747
46 1 0.752407 0.585268 0.254954
116 1 0.832707 0.504089 0.332971
120 1 0.919069 0.584353 0.409196
54 1 0.0884606 0.917114 0.245508
124 1 0.169148 0.837011 0.332312
125 1 0.0811897 0.751981 0.412753
55 1 0.249514 0.745531 0.253635
62 1 0.414704 0.91662 0.251924
128 1 0.252419 0.915843 0.417574
133 1 0.41866 0.746446 0.417606
63 1 0.580917 0.74066 0.25193
132 1 0.500201 0.830796 0.333942
136 1 0.580798 0.916414 0.413911
70 1 0.750803 0.908968 0.252608
71 1 0.920533 0.75138 0.249025
140 1 0.837844 0.83357 0.342548
141 1 0.747546 0.752631 0.417104
144 1 0.921924 0.922749 0.423318
74 1 0.00155117 0.164675 0.500306
75 1 0.16981 -0.00511196 0.499737
145 1 -0.00978027 -0.00705563 0.665304
148 1 0.161368 0.164963 0.657392
79 1 0.247632 0.0792931 0.576466
82 1 0.329068 0.167248 0.500211
153 1 0.330355 0.0015697 0.667638
83 1 0.499312 -0.00186634 0.505864
87 1 0.580347 0.0843977 0.588365
90 1 0.661582 0.163377 0.500634
156 1 0.504424 0.166678 0.665866
161 1 0.665967 -1.01046e-05 0.673432
91 1 0.831379 0.00254976 0.504419
95 1 0.914914 0.0885535 0.583371
164 1 0.831567 0.167337 0.665879
78 1 0.0770334 0.254319 0.579688
99 1 0.160802 0.33701 0.499071
169 1 -0.000519627 0.335416 0.671143
86 1 0.419346 0.251976 0.58309
103 1 0.254375 0.414201 0.588546
177 1 0.331839 0.320967 0.672324
107 1 0.502926 0.333964 0.495745
111 1 0.579968 0.418655 0.585378
185 1 0.659243 0.333179 0.66561
94 1 0.750061 0.247257 0.577672
115 1 0.831199 0.335557 0.500681
119 1 0.912851 0.419617 0.580001
98 1 -0.00381302 0.502986 0.498342
102 1 0.0804965 0.581784 0.578423
123 1 0.162897 0.674156 0.499946
172 1 0.166966 0.502022 0.66896
193 1 -0.00117692 0.664552 0.667515
106 1 0.331514 0.498586 0.500658
110 1 0.416987 0.583142 0.57874
201 1 0.339403 0.66618 0.663578
114 1 0.670478 0.498992 0.508939
131 1 0.502597 0.673841 0.503012
180 1 0.495627 0.502083 0.666035
209 1 0.667179 0.672637 0.671375
118 1 0.74679 0.581607 0.584322
139 1 0.832089 0.666019 0.494344
188 1 0.836005 0.506832 0.662992
122 1 0.000392229 0.831788 0.506494
126 1 0.0814171 0.914578 0.585313
196 1 0.166449 0.83589 0.669129
127 1 0.251011 0.752657 0.579752
130 1 0.337806 0.827443 0.495164
134 1 0.409986 0.918396 0.58774
135 1 0.581254 0.749894 0.590283
138 1 0.660044 0.8361 0.503557
204 1 0.495976 0.831505 0.669957
142 1 0.748023 0.916223 0.586876
143 1 0.911926 0.74758 0.585596
212 1 0.832987 0.827458 0.671165
146 1 0.00773562 0.160452 0.828201
147 1 0.172609 0.00154218 0.833314
149 1 0.0806809 0.073378 0.743997
151 1 0.257758 0.0811131 0.923136
154 1 0.331281 0.166094 0.834964
157 1 0.416592 0.0826676 0.74989
155 1 0.499976 -0.00503711 0.831699
159 1 0.581074 0.0821418 0.913378
162 1 0.663883 0.161987 0.826693
163 1 0.831908 0.00303404 0.841657
165 1 0.753544 0.0856576 0.753706
167 1 0.92244 0.0828735 0.919358
150 1 0.0887751 0.245306 0.916302
171 1 0.170596 0.333609 0.82456
173 1 0.0857494 0.421009 0.747163
152 1 0.250882 0.239599 0.750397
158 1 0.41304 0.253321 0.916068
175 1 0.248075 0.418362 0.908574
181 1 0.416568 0.413852 0.752577
160 1 0.585749 0.253267 0.752529
179 1 0.502452 0.334655 0.843443
183 1 0.587164 0.420386 0.916794
166 1 0.752829 0.246724 0.912617
168 1 0.915821 0.249662 0.754998
187 1 0.828658 0.33997 0.835803
189 1 0.744914 0.421758 0.740792
191 1 0.910213 0.422137 0.918748
170 1 -0.00270504 0.497613 0.833146
174 1 0.0803074 0.585486 0.907782
195 1 0.168512 0.672454 0.831033
176 1 0.255366 0.585214 0.7503
178 1 0.333544 0.506276 0.837499
182 1 0.424984 0.583343 0.915536
184 1 0.578826 0.585701 0.747627
186 1 0.665143 0.500416 0.829145
203 1 0.50383 0.67097 0.83899
190 1 0.748099 0.5792 0.912492
192 1 0.912551 0.58594 0.748419
211 1 0.8339 0.665163 0.831957
194 1 0.000732224 0.836413 0.835075
197 1 0.0843689 0.750214 0.747409
198 1 0.0834909 0.917825 0.911903
199 1 0.246666 0.749089 0.919481
200 1 0.253365 0.919573 0.749782
202 1 0.32974 0.827653 0.83703
205 1 0.424777 0.750046 0.746035
206 1 0.418472 0.913481 0.911423
207 1 0.586247 0.747268 0.914651
208 1 0.588348 0.908255 0.751829
210 1 0.667856 0.824333 0.832787
213 1 0.754386 0.745747 0.755589
214 1 0.744895 0.919503 0.911741
215 1 0.918392 0.75321 0.91331
216 1 0.909653 0.917063 0.75272
ITEM: TIMESTEP
1300
ITEM: NUMBER OF ATOMS
216
ITEM: BOX BOUNDS pp pp pp
0.0000000000000000e+00 1.6427280000000000e+01
0.0000000000000000e+00 1.6427280000000000e+01
0.0000000000000000e+00 1.6427280000000000e+01
ITEM: ATOMS id type xs ys zs
1 1 0.00122525 0.00274261 -0.000819327
2 1 0.00847949 0.166344 0.169374
3 1 0.173671 0.00353014 0.164829
4 1 0.166483 0.172783 -0.00030237
5 1 0.0893013 0.0843411 0.0812157
9 1 0.326173 0.00788144 -0.00646076
10 1 0.334123 0.164664 0.163895
13 1 0.4194 0.0802027 0.085742
11 1 0.504758 -0.00114167 0.16893
12 1 0.502691 0.166922 0.00137686
17 1 0.674186 -0.00015055 0.000767194
18 1 0.668642 0.167471 0.172571
19 1 0.836936 0.00801912 0.158916
20 1 0.836912 0.166913 0.00423957
21 1 0.74801 0.0914186 0.0898064
25 1 -0.00386977 0.333275 -0.00203981
27 1 0.170061 0.335459 0.171158
29 1 0.0857423 0.415139 0.0756226
8 1 0.245761 0.250005 0.081181
33 1 0.340003 0.328592 -0.000289197
37 1 0.423271 0.40974 0.0847949
16 1 0.590729 0.245623 0.0843173
35 1 0.507946 0.328255 0.16645
41 1 0.668497 0.338533 0.00629992
24 1 0.919538 0.248874 0.07977
43 1 0.830691 0.332756 0.163719
45 1 0.754741 0.422237 0.088928
26 1 0.00572131 0.495971 0.161771
28 1 0.175886 0.494236 -0.00076063
49 1 0.000523135 0.66107 0.00773475
51 1 0.166872 0.668148 0.161699
32 1 0.249033 0.581429 0.0837649
34 1 0.338915 0.49545 0.168282
57 1 0.333902 0.665176 -0.00158887
36 1 0.50309 0.496862 -0.00362498
40 1 0.586138 0.579458 0.0848998
42 1 0.667379 0.499748 0.173115
59 1 0.507203 0.662637 0.174428
65 1 0.669355 0.67029 0.00615697
44 1 0.833867 0.495718 -0.00339322
48 1 0.915544 0.574658 0.0887882
67 1 0.838772 0.666564 0.173634
50 1 0.0093935 0.836011 0.165037
52 1 0.169691 0.830142 -0.00332285
53 1 0.0852884 0.749468 0.0788156
56 1 0.257094 0.919594 0.0797516
58 1 0.341271 0.833428 0.161537
61 1 0.423284 0.737824 0.0890396
60 1 0.501197 0.821973 0.00840258
64 1 0.590684 0.911218 0.0823699
66 1 0.672854 0.838398 0.170464
68 1 0.842274 0.832008 0.00558931
69 1 0.756893 0.747551 0.0933638
72 1 0.923535 0.921528 0.0834255
73 1 -0.000298379 0.000260499 0.330758
76 1 0.163527 0.168041 0.331814
77 1 0.0767924 0.0899365 0.412988
7 1 0.248024 0.0872489 0.24998
81 1 0.327895 0.00139974 0.327527
85 1 0.415085 0.0811355 0.411303
15 1 0.586715 0.0809788 0.252218
84 1 0.498049 0.168594 0.328642
89 1 0.668466 -0.000694956 0.342164
23 1 0.920704 0.0841021 0.244644
92 1 0.83697 0.161357 0.333131
93 1 0.741317 0.0828155 0.420852
6 1 0.0840039 0.255097 0.252456
97 1 -0.00437503 0.33722 0.328078
101 1 0.0810006 0.415215 0.41814
14 1 0.415701 0.245063 0.24541
31 1 0.249421 0.419628 0.249386
80 1 0.251476 0.249561 0.413269
105 1 0.329689 0.327002 0.328198
109 1 0.410977 0.410663 0.41494
39 1 0.583039 0.413442 0.260591
88 1 0.57682 0.248223 0.421182
113 1 0.666152 0.322779 0.338803
22 1 0.75152 0.24928 0.252661
47 1 0.912036 0.42468 0.248422
96 1 0.914303 0.250435 0.413956
117 1 0.74718 0.415734 0.416573
30 1 0.0849049 0.58045 0.242011
100 1 0.160793 0.500753 0.329627
121 1 0.00362449 0.666238 0.330426
38 1 0.415247 0.580326 0.24665
104 1 0.253014 0.582643 0.411701
129 1 0.336339 0.663086 0.334633
108 1 0.49032 0.490026 0.340888
112 1 0.581307 0.589512 0.418371
137 1 0.674398 0.67734 0.338512
46 1 0.751741 0.586418 0.259798
116 1 0.834899 0.505405 0.339297
120 1 0.917159 0.58636 0.415457
54 1 0.0877089 0.921424 0.244189
124 1 0.164202 0.834395 0.326685
125 1 0.087539 0.750073 0.413276
55 1 0.25294 0.751903 0.243409
62 1 0.415615 0.915527 0.253729
128 1 0.251711 0.918688 0.410048
133 1 0.413679 0.75085 0.415895
63 1 0.588055 0.758789 0.252731
132 1 0.497238 0.833932 0.33563
136 1 0.580095 0.915026 0.424093
70 1 0.751868 0.929666 0.244742
71 1 0.924765 0.755271 0.253427
140 1 0.83291 0.836399 0.324778
141 1 0.750165 0.761806 0.417643
144 1 0.911214 0.916004 0.412133
74 1 -0.00735795 0.164061 0.499794
75 1 0.162654 0.00377535 0.495625
145 1 0.00302091 0.00123759 0.665253
148 1 0.169236 0.171492 0.67193
79 1 0.246625 0.076217 0.586483
82 1 0.331411 0.163202 0.496951
153 1 0.330921 -0.00485007 0.663315
83 1 0.501914 0.00553111 0.49891
87 1 0.582908 0.0830135 0.582808
90 1 0.660075 0.164821 0.502958
156 1 0.496894 0.163362 0.67071
161 1 0.665408 0.00549987 0.668775
91 1 0.838167 0.00342789 0.502048
95 1 0.920413 0.0838793 0.584866
164 1 0.828849 0.164041 0.669337
78 1 0.0747149 0.243598 0.57645
99 1 0.166385 0.331991 0.501146
169 1 0.00109606 0.337798 0.655355
86 1 0.409613 0.245148 0.586201
103 1 0.242616 0.422423 0.577448
177 1 0.326755 0.335317 0.660731
107 1 0.495836 0.327952 0.507456
111 1 0.584888 0.416694 0.576299
185 1 0.664169 0.32938 0.667017
94 1 0.751969 0.251598 0.590415
115 1 0.832222 0.334842 0.49443
119 1 0.912585 0.420384 0.573384
98 1 0.000674103 0.502573 0.493348
102 1 0.0834509 0.585654 0.583755
123 1 0.167821 0.664389 0.494892
172 1 0.15865 0.50147 0.663519
193 1 -0.000286504 0.670778 0.664572
106 1 0.332841 0.504645 0.501204
110 1 0.41264 0.582114 0.585804
201 1 0.328371 0.670556 0.667016
114 1 0.662428 0.498038 0.492424
131 1 0.491837 0.664756 0.501737
180 1 0.499579 0.496335 0.661037
209 1 0.668091 0.669092 0.667085
118 1 0.751149 0.587358 0.579082
139 1 0.836723 0.672179 0.504926
188 1 0.82779 0.501051 0.662829
122 1 0.00182689 0.834843 0.492038
126 1 0.0857836 0.922815 0.577958
196 1 0.165288 0.832852 0.664472
127 1 0.247493 0.75237 0.582314
130 1 0.328449 0.837393 0.497532
134 1 0.42127 0.911913 0.585792
135 1 0.579674 0.751156 0.579377
138 1 0.668557 0.837525 0.502645
204 1 0.50762 0.835262 0.669446
142 1 0.755234 0.923129 0.588559
143 1 0.920718 0.761582 0.585055
212 1 0.8312 0.830889 0.671298
146 1 -0.0102952 0.17167 0.834775
147 1 0.158423 -0.00765892 0.830774
149 1 0.0785466 0.0910271 0.75177
151 1 0.240317 0.0813841 0.909773
154 1 0.328556 0.165924 0.830468
157 1 0.409968 0.0797156 0.753764
155 1 0.498106 0.0040234 0.845426
159 1 0.584406 0.0821726 0.923135
162 1 0.663851 0.173084 0.839447
163 1 0.83491 0.00027385 0.829819
165 1 0.74982 0.0843965 0.75677
167 1 0.909418 0.0881459 0.912505
150 1 0.0795652 0.255365 0.910535
171 1 0.16373 0.335608 0.829025
173 1 0.0823081 0.415516 0.749902
152 1 0.251504 0.257944 0.753004
158 1 0.414423 0.241756 0.91494
175 1 0.255135 0.408733 0.915089
181 1 0.410129 0.41682 0.745701
160 1 0.580445 0.243049 0.750172
179 1 0.494143 0.326482 0.827066
183 1 0.576998 0.413443 0.910523
166 1 0.747304 0.252681 0.923792
168 1 0.913435 0.251952 0.738968
187 1 0.831674 0.330609 0.831479
189 1 0.75072 0.416428 0.749003
191 1 0.915709 0.414532 0.914829
170 1 -0.00197864 0.500116 0.826368
174 1 0.0839058 0.586575 0.917736
195 1 0.168052 0.662669 0.832159
176 1 0.243967 0.580611 0.748391
178 1 0.331148 0.500047 0.830633
182 1 0.415481 0.576639 0.918542
184 1 0.586229 0.579457 0.748146
186 1 0.666744 0.495946 0.835587
203 1 0.502502 0.663529 0.835783
190 1 0.752979 0.582026 0.923976
192 1 0.913407 0.582703 0.750544
211 1 0.829361 0.665547 0.832503
194 1 -0.000361696 0.827143 0.834627
197 1 0.0817656 0.747659 0.754961
198 1 0.0810186 0.908962 0.921339
199 1 0.252833 0.746334 0.912965
200 1 0.246306 0.918052 0.743981
202 1 0.334078 0.840202 0.833056
205 1 0.415612 0.750575 0.754304
206 1 0.419921 0.915984 0.927848
207 1 0.58815 0.747224 0.924653
208 1 0.580786 0.918321 0.760897
210 1 0.669478 0.83609 0.845353
213 1 0.74598 0.750905 0.755351
214 1 0.758026 0.911573 0.921377
215 1 0.917179 0.741013 0.9182
216 1 0.919922 0.915979 0.751216
ITEM: TIMESTEP
1400
ITEM: NUMBER OF ATOMS
216
ITEM: BOX BOUNDS pp pp pp
0.0000000000000000e+00 1.6427280000000000e+01
0.0000000000000000e+00 1.6427280000000000e+01
0.0000000000000000e+00 1.6427280000000000e+01
ITEM: ATOMS id type xs ys zs
1 1 -0.00285162 -0.00118639 -0.00297908
2 1 -0.00539428 0.169079 0.16112
3 1 0.163607 -0.00635318 0.166227
4 1 0.166214 0.159584 -0.00547078
5 1 0.0792031 0.0804122 0.0855494
9 1 0.341234 -0.00606809 0.00400672
10 1 0.333334 0.16651 0.171448
13 1 0.417097 0.0855573 0.0809445
11 1 0.499881 0.00254836 0.168358
12 1 0.502948 0.164344 -0.00268966
17 1 0.658709 -0.00328805 -0.00145125
18 1 0.665432 0.161678 0.163509
19 1 0.830954 -0.00563423 0.173463
20 1 0.831489 0.16572 -0.00289998
21 1 0.752816 0.0776322 0.0875258
25 1 0.00314161 0.334631 -0.00151285
27 1 0.162239 0.333714 0.160838
29 1 0.0781054 0.416958 0.0895346
8 1 0.254428 0.250035 0.0855893
33 1 0.32828 0.339754 -0.00408223
37 1 0.409101 0.426588 0.080347
16 1 0.577758 0.250167 0.0840803
35 1 0.488869 0.331334 0.169131
41 1 0.662774 0.330776 -0.00187946
24 1 0.915605 0.251888 0.0817069
43 1 0.834414 0.33322 0.169379
45 1 0.751272 0.412729 0.0756897
26 1 0.00114362 0.506627 0.170366
28 1 0.158908 0.502556 -0.00111356
49 1 0.00414768 0.675819 -0.00500778
51 1 0.162096 0.666351 0.166471
32 1 0.253401 0.585801 0.08663
34 1 0.329262 0.509373 0.171419
57 1 0.336156 0.665564 -0.000553726
36 1 0.495902 0.501292 0.00515321
40 1 0.58279 0.586936 0.0811629
42 1 0.668213 0.497741 0.158179
59 1 0.498098 0.66937 0.160244
65 1 0.665979 0.663628 -0.00435796
44 1 0.83533 0.503361 0.00350796
48 1 0.91873 0.589595 0.0757591
67 1 0.830319 0.666278 0.162489
50 1 -0.00465512 0.828704 0.164734
52 1 0.159336 0.829981 0.000393919
53 1 0.0861944 0.751551 0.0871132
56 1 0.246726 0.910494 0.0832114
58 1 0.332867 0.833457 0.172286
61 1 0.415078 0.753735 0.0753408
60 1 0.499972 0.841727 -0.00502703
64 1 0.57609 0.914967 0.0858979
66 1 0.66529 0.832375 0.166428
68 1 0.829186 0.836169 -0.0028692
69 1 0.74354 0.753249 0.0789642
72 1 0.911119 0.914223 0.0873945
73 1 0.00296804 0.00160495 0.332162
76 1 0.167869 0.160761 0.328572
77 1 0.0818043 0.0863563 0.417727
7 1 0.252893 0.075181 0.24541
81 1 0.337713 -0.00198502 0.335604
85 1 0.420933 0.08174 0.419432
15 1 0.583653 0.0856996 0.248867
84 1 0.502614 0.163257 0.337935
89 1 0.67187 0.00297538 0.323487
23 1 0.913104 0.0828154 0.249059
92 1 0.834752 0.175381 0.336869
93 1 0.75331 0.0812639 0.414817
6 1 0.0833239 0.246134 0.242008
97 1 0.00344717 0.326821 0.334869
101 1 0.0873815 0.421411 0.414238
14 1 0.414795 0.25235 0.259362
31 1 0.25652 0.412782 0.249391
80 1 0.243818 0.25224 0.411313
105 1 0.336297 0.338636 0.335044
109 1 0.418304 0.417554 0.420722
39 1 0.582895 0.413935 0.240434
88 1 0.586489 0.248253 0.415147
113 1 0.66783 0.33854 0.333283
22 1 0.744015 0.24733 0.246375
47 1 0.921605 0.414298 0.251525
96 1 0.923313 0.252554 0.423788
117 1 0.748184 0.424036 0.418298
30 1 0.0838195 0.588405 0.253333
100 1 0.176606 0.501917 0.33182
121 1 -0.000584674 0.669313 0.337899
38 1 0.417643 0.585526 0.248833
104 1 0.253303 0.588321 0.422187
129 1 0.33774 0.664554 0.33532
108 1 0.504033 0.504294 0.3296
112 1 0.585366 0.578186 0.418761
137 1 0.664414 0.659904 0.331187
46 1 0.75143 0.57847 0.239799
116 1 0.83142 0.493403 0.333492
120 1 0.914596 0.580426 0.417736
54 1 0.0772142 0.912422 0.251736
124 1 0.16815 0.836231 0.3407
125 1 0.0790335 0.755689 0.421501
55 1 0.249342 0.743945 0.253557
62 1 0.417987 0.917315 0.250249
128 1 0.251406 0.917838 0.421385
133 1 0.423636 0.754401 0.416305
63 1 0.581288 0.747767 0.247483
132 1 0.506751 0.837725 0.331218
136 1 0.590235 0.920011 0.413255
70 1 0.755012 0.907478 0.259687
71 1 0.907176 0.750225 0.247454
140 1 0.832825 0.82776 0.340898
141 1 0.749904 0.743145 0.416428
144 1 0.920982 0.914547 0.41907
74 1 0.000777346 0.165662 0.499545
75 1 0.166731 -0.00264436 0.500753
145 1 -0.00693361 0.00401456 0.662497
148 1 0.165258 0.17013 0.660905
79 1 0.253636 0.0855753 0.587467
82 1 0.332166 0.170842 0.502086
153 1 0.330996 0.000697462 0.677497
83 1 0.501708 -0.00870533 0.504196
87 1 0.581656 0.0837221 0.581923
90 1 0.667461 0.163135 0.499314
156 1 0.499751 0.170044 0.666079
161 1 0.664928 -0.000742751 0.663118
91 1 0.832894 -0.000131428 0.498054
95 1 0.91489 0.0874116 0.580098
164 1 0.837803 0.164513 0.664255
78 1 0.0826609 0.254101 0.583707
99 1 0.167321 0.335473 0.495873
169 1 -0.000936192 0.331007 0.679581
86 1 0.423183 0.253775 0.584057
103 1 0.252266 0.417642 0.585835
177 1 0.331752 0.33386 0.668349
107 1 0.505422 0.340835 0.496769
111 1 0.577912 0.416149 0.588426
185 1 0.662808 0.341052 0.670323
94 1 0.742437 0.251459 0.581407
115 1 0.831734 0.335716 0.503657
119 1 0.92015 0.414719 0.594504
98 1 -0.00307393 0.498938 0.505268
102 1 0.0859131 0.583266 0.5821
123 1 0.170501 0.667773 0.502943
172 1 0.174136 0.497059 0.669601
193 1 -0.00242523 0.667247 0.6656
106 1 0.335756 0.50267 0.498184
110 1 0.419003 0.585217 0.580067
201 1 0.333228 0.654738 0.663169
114 1 0.666694 0.498525 0.509341
131 1 0.498729 0.665583 0.501731
180 1 0.495855 0.50482 0.666843
209 1 0.669897 0.666116 0.669528
118 1 0.747671 0.580429 0.588658
139 1 0.828636 0.662612 0.495827
188 1 0.835725 0.498798 0.672539
122 1 -0.00123582 0.834925 0.504148
126 1 0.0806138 0.909808 0.590894
196 1 0.169576 0.832316 0.672202
127 1 0.249884 0.745052 0.588484
130 1 0.334537 0.829646 0.506676
134 1 0.40803 0.922393 0.582773
135 1 0.586681 0.751568 0.583039
138 1 0.664406 0.828107 0.493317
204 1 0.490605 0.834508 0.661877
142 1 0.745214 0.907025 0.577888
143 1 0.91359 0.745533 0.576381
212 1 0.834651 0.83853 0.664062
146 1 0.00266195 0.166614 0.83429
147 1 0.17794 0.00408853 0.83476
149 1 0.0869526 0.0776052 0.746827
151 1 0.262765 0.0865734 0.918445
154 1 0.338556 0.169611 0.835457
157 1 0.419576 0.0859187 0.747494
155 1 0.502688 0.00110584 0.824582
159 1 0.584889 0.0845496 0.913912
162 1 0.66648 0.160289 0.828427
163 1 0.831819 0.000539744 0.839345
165 1 0.75163 0.0817966 0.743523
167 1 0.920127 0.0833961 0.918262
150 1 0.0838328 0.254492 0.916065
171 1 0.16387 0.331037 0.831759
173 1 0.0877838 0.417254 0.748297
152 1 0.244347 0.247563 0.751849
158 1 0.422102 0.253824 0.915806
175 1 0.244219 0.417259 0.911201
181 1 0.420447 0.411943 0.7526
160 1 0.582555 0.252797 0.750609
179 1 0.507337 0.335436 0.834292
183 1 0.584895 0.418414 0.927419
166 1 0.749923 0.246548 0.911488
168 1 0.91497 0.243428 0.757915
187 1 0.838093 0.34034 0.832597
189 1 0.747163 0.416773 0.751271
191 1 0.918838 0.420401 0.923974
170 1 -0.00250995 0.494806 0.835281
174 1 0.0876647 0.583329 0.913985
195 1 0.168801 0.667295 0.830587
176 1 0.249428 0.584655 0.747229
178 1 0.333678 0.49577 0.833364
182 1 0.415975 0.581988 0.917912
184 1 0.584486 0.584079 0.751592
186 1 0.668226 0.50311 0.836498
203 1 0.499843 0.667566 0.836964
190 1 0.750569 0.58713 0.914549
192 1 0.916245 0.585745 0.748343
211 1 0.834529 0.669977 0.835761
194 1 0.00362519 0.840152 0.829431
197 1 0.0859465 0.749983 0.749371
198 1 0.0900827 0.921435 0.913333
199 1 0.244615 0.744903 0.920866
200 1 0.250318 0.910698 0.754623
202 1 0.328468 0.827816 0.832121
205 1 0.41093 0.746192 0.746911
206 1 0.414503 0.915143 0.909036
207 1 0.583484 0.757434 0.917958
208 1 0.581401 0.913246 0.745173
210 1 0.666341 0.825452 0.825878
213 1 0.754512 0.753126 0.743386
214 1 0.743664 0.917522 0.912753
215 1 0.919591 0.75747 0.912906
216 1 0.911592 0.917469 0.751985
ITEM: TIMESTEP
1500
ITEM: NUMBER OF ATOMS
216
ITEM: BOX BOUNDS pp pp pp
0.0000000000000000e+00 1.6427280000000000e+01
0.0000000000000000e+00 1.6427280000000000e+01
0.0000000000000000e+00 1.6427280000000000e+01
ITEM: ATOMS id type xs ys zs
1 1 0.000626403 -0.000119705 0.00361496
2 1 0.00471264 0.166525 0.174972
3 1 0.166358 0.00416385 0.176367
4 1 0.161707 0.168651 0.00444944
5 1 0.0794333 0.0816151 0.0909256
9 1 0.327915 0.00445375 -0.00444178
10 1 0.336611 0.164041 0.168415
13 1 0.41479 0.0819171 0.0826596
11 1 0.499226 -0.00293571 0.165592
12 1 0.497352 0.166963 0.000774852
17 1 0.663604 0.00741657 -0.00196212
18 1 0.661578 0.168783 0.169415
19 1 0.82881 -0.00167218 0.164502
20 1 0.841046 0.159329 0.00248989
21 1 0.745443 0.0857766 0.0785836
25 1 0.00231373 0.328614 0.00320438
27 1 0.162405 0.337714 0.175876
29 1 0.0804043 0.407715 0.080784
8 1 0.246067 0.252327 0.0973461
33 1 0.336935 0.331925 0.00947702
37 1 0.424543 0.420652 0.089448
16 1 0.589031 0.249677 0.0794528
35 1 0.506621 0.332318 0.163431
41 1 0.66561 0.339408 -0.00339229
24 1 0.925533 0.244623 0.08763
43 1 0.837905 0.334906 0.160867
45 1 0.744563 0.422181 0.0820608
26 1 -0.00184785 0.494862 0.160867
28 1 0.167743 0.498229 0.00938581
49 1 -0.00339782 0.668997 0.0103542
51 1 0.162574 0.671314 0.169362
32 1 0.248835 0.589928 0.0902682
34 1 0.333067 0.492837 0.167309
57 1 0.327242 0.672238 0.00288169
36 1 0.502326 0.501408 -0.00461941
40 1 0.579359 0.58057 0.0783878
42 1 0.663254 0.506702 0.162336
59 1 0.493863 0.661232 0.166617
65 1 0.662694 0.667729 -0.00473915
44 1 0.828508 0.49815 -0.00715592
48 1 0.91032 0.577553 0.0875292
67 1 0.83331 0.665464 0.166029
50 1 -6.23959e-05 0.833164 0.166631
52 1 0.168132 0.83494 0.00532751
53 1 0.0823857 0.754515 0.0880279
56 1 0.24292 0.924065 0.0835897
58 1 0.331086 0.839472 0.164421
61 1 0.415602 0.754565 0.0842829
60 1 0.498744 0.831797 0.000347017
64 1 0.579746 0.919057 0.0762104
66 1 0.664458 0.836583 0.162222
68 1 0.831839 0.835644 -0.00145078
69 1 0.751455 0.745459 0.078908
72 1 0.915518 0.917103 0.0840128
73 1 -0.00223594 -0.0062358 0.340527
76 1 0.164417 0.171459 0.344074
77 1 0.080728 0.0810566 0.421222
7 1 0.249599 0.0917116 0.260001
81 1 0.329289 -0.0003826 0.3296
85 1 0.416166 0.081909 0.410258
15 1 0.58063 0.0846123 0.251179
84 1 0.497357 0.172946 0.322526
89 1 0.656736 -0.00570913 0.331527
23 1 0.920401 0.0759561 0.248346
92 1 0.833206 0.164484 0.328378
93 1 0.749103 0.0888925 0.414644
6 1 0.0819989 0.250622 0.259694
97 1 -0.00463844 0.334071 0.33282
101 1 0.0795087 0.403336 0.420929
14 1 0.415408 0.252082 0.241604
31 1 0.247284 0.418234 0.253564
80 1 0.258665 0.254808 0.417518
105 1 0.334829 0.33046 0.329553
109 1 0.411861 0.41311 0.41285
39 1 0.587196 0.421796 0.251412
88 1 0.580175 0.254124 0.416026
113 1 0.669266 0.337016 0.331826
22 1 0.752602 0.253615 0.247006
47 1 0.917154 0.417998 0.249336
96 1 0.922345 0.239307 0.411697
117 1 0.755202 0.413694 0.410878
30 1 0.0823238 0.58106 0.246628
100 1 0.163284 0.501011 0.340245
121 1 -0.00372062 0.660128 0.332486
38 1 0.409086 0.584648 0.249199
104 1 0.248014 0.577904 0.418351
129 1 0.323177 0.664385 0.330016
108 1 0.496724 0.503859 0.325129
112 1 0.585725 0.580108 0.412881
137 1 0.67021 0.671293 0.331452
46 1 0.751157 0.58101 0.25248
116 1 0.832665 0.498434 0.327668
120 1 0.912636 0.580203 0.419465
54 1 0.0848838 0.918385 0.251914
124 1 0.160778 0.831685 0.333813
125 1 0.0842333 0.74299 0.421289
55 1 0.243634 0.753168 0.250097
62 1 0.419416 0.922101 0.252458
128 1 0.250132 0.912266 0.414905
133 1 0.409886 0.740801 0.417844
63 1 0.580015 0.747568 0.246505
132 1 0.493965 0.828416 0.331555
136 1 0.57503 0.909573 0.417416
70 1 0.744497 0.920392 0.242728
71 1 0.918141 0.748674 0.251592
140 1 0.824829 0.834669 0.32854
141 1 0.756081 0.752838 0.41981
144 1 0.91394 0.908604 0.412956
74 1 0.00193164 0.167063 0.50059
75 1 0.167859 0.00383646 0.496332
145 1 0.00144371 -0.00248147 0.666013
148 1 0.171871 0.164932 0.671917
79 1 0.251719 0.0829811 0.585093
82 1 0.335723 0.165802 0.497396
153 1 0.345065 -0.00306472 0.66039
83 1 0.497064 0.00380657 0.496365
87 1 0.585351 0.0889554 0.579167
90 1 0.670576 0.176322 0.495679
156 1 0.507794 0.161869 0.666832
161 1 0.668989 -0.000736232 0.661217
91 1 0.839722 0.00318967 0.506299
95 1 0.924781 0.0885977 0.582022
164 1 0.844629 0.165335 0.668814
78 1 0.0863728 0.244269 0.584777
99 1 0.171347 0.325291 0.508598
169 1 0.000555964 0.331161 0.663659
86 1 0.425644 0.251205 0.58239
103 1 0.253657 0.415807 0.583627
177 1 0.341903 0.333628 0.669707
107 1 0.500528 0.334043 0.498438
111 1 0.592235 0.41582 0.58151
185 1 0.671374 0.334113 0.667431
94 1 0.761618 0.246981 0.585361
115 1 0.841105 0.331918 0.488427
119 1 0.913398 0.418783 0.581513
98 1 0.0017241 0.497696 0.501221
102 1 0.0866458 0.577022 0.586004
123 1 0.167254 0.66644 0.499647
172 1 0.16776 0.497384 0.67094
193 1 0.00660805 0.667122 0.669651
106 1 0.335531 0.497004 0.502744
110 1 0.415364 0.582591 0.588215
201 1 0.333203 0.671769 0.663368
114 1 0.672588 0.496487 0.494008
131 1 0.506821 0.660691 0.499538
180 1 0.506711 0.495595 0.662878
209 1 0.665561 0.664719 0.665186
118 1 0.753242 0.580715 0.580754
139 1 0.834905 0.66784 0.499875
188 1 0.831013 0.496376 0.664449
122 1 -0.00131009 0.827462 0.502156
126 1 0.0822715 0.912292 0.578659
196 1 0.168836 0.838691 0.665086
127 1 0.251045 0.752504 0.584649
130 1 0.335514 0.837887 0.49856
134 1 0.423113 0.920708 0.580233
135 1 0.5909 0.742133 0.580862
138 1 0.671748 0.831651 0.49722
204 1 0.507244 0.836753 0.663293
142 1 0.751865 0.917162 0.581528
143 1 0.916927 0.749627 0.585088
212 1 0.83296 0.827334 0.667267
146 1 -0.00184599 0.171016 0.839795
147 1 0.167472 -0.00705973 0.834288
149 1 0.0841915 0.0889905 0.756788
151 1 0.242247 0.0804422 0.914572
154 1 0.330583 0.159381 0.830261
157 1 0.417769 0.0832743 0.744553
155 1 0.495718 0.00135415 0.834779
159 1 0.572765 0.0841965 0.914947
162 1 0.657059 0.166039 0.83499
163 1 0.836044 -0.00290979 0.823422
165 1 0.748465 0.0858394 0.752319
167 1 0.914951 0.074461 0.913696
150 1 0.0825374 0.247766 0.920326
171 1 0.170194 0.330183 0.843733
173 1 0.0873195 0.407968 0.7551
152 1 0.2551 0.252039 0.755158
158 1 0.4142 0.246978 0.918891
175 1 0.246403 0.417513 0.922738
181 1 0.422371 0.424006 0.751914
160 1 0.585316 0.254986 0.74754
179 1 0.498393 0.334139 0.837139
183 1 0.583536 0.418471 0.909163
166 1 0.748745 0.250322 0.918725
168 1 0.921977 0.253477 0.749524
187 1 0.83549 0.326917 0.833078
189 1 0.75555 0.417305 0.750948
191 1 0.916788 0.409797 0.919528
170 1 0.00402032 0.497207 0.83802
174 1 0.0741166 0.588381 0.919796
195 1 0.162847 0.672206 0.834707
176 1 0.249848 0.589395 0.749008
178 1 0.328771 0.508793 0.835865
182 1 0.414375 0.587037 0.925887
184 1 0.58583 0.580186 0.745847
186 1 0.674114 0.499142 0.83214
203 1 0.497675 0.666371 0.833103
190 1 0.750239 0.582723 0.914919
192 1 0.913489 0.5804 0.753917
211 1 0.826115 0.66882 0.828562
194 1 -0.00400695 0.828674 0.835327
197 1 0.0876243 0.757927 0.747802
198 1 0.0775717 0.91466 0.918168
199 1 0.25164 0.764643 0.912816
200 1 0.25187 0.928333 0.744396
202 1 0.33142 0.848512 0.832319
205 1 0.414412 0.751999 0.747917
206 1 0.418581 0.918133 0.921191
207 1 0.579466 0.750248 0.913185
208 1 0.58925 0.922953 0.749555
210 1 0.663174 0.838889 0.831041
213 1 0.743199 0.748437 0.750562
214 1 0.749893 0.920287 0.911568
215 1 0.91043 0.74894 0.919935
216 1 0.918586 0.915042 0.74359
ITEM: TIMESTEP
1600
ITEM: NUMBER OF ATOMS
216
ITEM: BOX BOUNDS pp pp pp
0.0000000000000000e+00 1.6427280000000000e+01
0.0000000000000000e+00 1.6427280000000000e+01
0.0000000000000000e+00 1.6427280000000000e+01
ITEM: ATOMS id type xs ys zs
1 1 -0.00693274 0.00329884 0.00244552
2 1 -0.00566292 0.168049 0.159619
3 1 0.16338 -0.00432327 0.160444
4 1 0.162781 0.166928 -0.00618712
5 1 0.0813068 0.0835967 0.0787148
9 1 0.332872 -0.00155554 0.00267627
10 1 0.335911 0.173802 0.171315
13 1 0.418656 0.0879935 0.0884921
11 1 0.497754 0.00376182 0.167988
12 1 0.506678 0.167176 -0.00240033
17 1 0.668214 -0.00701796 4.21016e-05
18 1 0.667663 0.163263 0.159072
19 1 0.834454 -0.00102389 0.162372
20 1 0.831673 0.170976 0.00115434
21 1 0.748894 0.078642 0.0862982
25 1 0.00123196 0.333612 0.00176375
27 1 0.166537 0.332545 0.163268
29 1 0.0859639 0.420942 0.0830685
8 1 0.252611 0.247487 0.0753922
33 1 0.334881 0.338143 -0.00989581
37 1 0.411348 0.419417 0.0773845
16 1 0.578091 0.250642 0.0825757
35 1 0.49101 0.335842 0.167922
41 1 0.664211 0.333621 0.0048214
24 1 0.915803 0.256863 0.0786782
43 1 0.831612 0.330346 0.17374
45 1 0.751516 0.415235 0.0882643
26 1 -0.00250021 0.496302 0.171976
28 1 0.169088 0.495412 -0.00294528
49 1 0.00247571 0.663842 -0.00453337
51 1 0.165453 0.667913 0.162833
32 1 0.246031 0.580654 0.0809305
34 1 0.337068 0.5051 0.166192
57 1 0.338044 0.663066 -0.00525354
36 1 0.499834 0.500827 0.000770402
40 1 0.582178 0.582346 0.0870646
42 1 0.667483 0.498447 0.169078
59 1 0.500842 0.668332 0.166057
65 1 0.664968 0.662864 0.00189181
44 1 0.833587 0.501373 0.00500392
48 1 0.920695 0.587716 0.08258
67 1 0.833061 0.668229 0.168322
50 1 0.00188768 0.834449 0.162862
52 1 0.16159 0.829965 0.000107703
53 1 0.0831571 0.742088 0.0795451
56 1 0.251601 0.912705 0.0812144
58 1 0.330922 0.823379 0.170344
61 1 0.419092 0.744478 0.0799229
60 1 0.494531 0.833695 -0.00305846
64 1 0.580451 0.918036 0.0858376
66 1 0.666579 0.839172 0.173051
68 1 0.838218 0.829885 0.00166625
69 1 0.747423 0.7545 0.0875895
72 1 0.919191 0.915959 0.0780993
73 1 0.00462691 0.00723137 0.329151
76 1 0.17004 0.164701 0.329424
77 1 0.0815462 0.0880842 0.418707
7 1 0.254908 0.0777364 0.240504
81 1 0.338206 0.00136523 0.337657
85 1 0.421241 0.0824965 0.419995
15 1 0.583531 0.0790627 0.241019
84 1 0.506014 0.166157 0.334984
89 1 0.674463 -0.000111537 0.324844
23 1 0.912719 0.0913869 0.252559
92 1 0.838776 0.170809 0.339406
93 1 0.748363 0.0762736 0.414877
6 1 0.0821943 0.250177 0.24322
97 1 -0.00111785 0.3309 0.333018
101 1 0.0861372 0.420317 0.416222
14 1 0.415118 0.250959 0.259007
31 1 0.25568 0.414171 0.248218
80 1 0.246913 0.251354 0.418318
105 1 0.331905 0.330625 0.338661
109 1 0.421008 0.416077 0.422146
39 1 0.584231 0.415625 0.249233
88 1 0.589684 0.248738 0.415713
113 1 0.667957 0.327181 0.33691
22 1 0.746074 0.240848 0.255187
47 1 0.913012 0.417122 0.258949
96 1 0.916855 0.254274 0.424008
117 1 0.746946 0.418599 0.414213
30 1 0.0854106 0.586404 0.24693
100 1 0.168591 0.498759 0.326732
121 1 0.00442675 0.67607 0.334996
38 1 0.421964 0.581472 0.249445
104 1 0.253839 0.587572 0.416041
129 1 0.338019 0.661338 0.333757
108 1 0.500125 0.496846 0.340044
112 1 0.581516 0.588505 0.419835
137 1 0.668805 0.667145 0.336379
46 1 0.750703 0.58248 0.248558
116 1 0.835014 0.50344 0.33732
120 1 0.917299 0.585479 0.412057
54 1 0.0804381 0.912776 0.248685
124 1 0.171977 0.831887 0.328874
125 1 0.0863631 0.759158 0.414146
55 1 0.246177 0.737295 0.253205
62 1 0.413178 0.918264 0.249333
128 1 0.254456 0.918721 0.410785
133 1 0.419164 0.760639 0.407687
63 1 0.58067 0.755111 0.253389
132 1 0.500661 0.845565 0.331054
136 1 0.588566 0.921059 0.414919
70 1 0.755475 0.913837 0.250318
71 1 0.91485 0.753883 0.248798
140 1 0.833295 0.831069 0.334829
141 1 0.744024 0.749944 0.416274
144 1 0.919205 0.917323 0.415802
74 1 -0.00151203 0.162686 0.505635
75 1 0.1672 -0.000923941 0.502684
145 1 -0.00867845 -0.00561222 0.663877
148 1 0.165913 0.174263 0.662261
79 1 0.253363 0.076875 0.586956
82 1 0.333433 0.170096 0.499369
153 1 0.327904 -0.0043857 0.670278
83 1 0.503 -0.00285178 0.505002
87 1 0.580131 0.0753041 0.586935
90 1 0.65652 0.15526 0.501267
156 1 0.495589 0.170207 0.668631
161 1 0.664777 0.00108577 0.671891
91 1 0.831424 -0.00708827 0.499708
95 1 0.91183 0.0788249 0.581831
164 1 0.829583 0.166851 0.664459
78 1 0.0770211 0.246195 0.580143
99 1 0.16688 0.337517 0.501445
169 1 0.00701077 0.329509 0.669753
86 1 0.413036 0.248991 0.584763
103 1 0.242917 0.423955 0.584839
177 1 0.323456 0.333018 0.664241
107 1 0.506706 0.32779 0.50501
111 1 0.574035 0.421079 0.580915
185 1 0.661949 0.332931 0.664545
94 1 0.740433 0.248759 0.582695
115 1 0.829452 0.337257 0.506171
119 1 0.925262 0.412807 0.586191
98 1 0.0029411 0.503254 0.50158
102 1 0.0846046 0.590792 0.585723
123 1 0.161955 0.662213 0.498639
172 1 0.167021 0.508164 0.667561
193 1 -0.00426603 0.671214 0.661743
106 1 0.328183 0.504546 0.501621
110 1 0.413538 0.583757 0.587016
201 1 0.330885 0.664138 0.672394
114 1 0.662882 0.500405 0.500453
131 1 0.493707 0.672096 0.502124
180 1 0.493663 0.49976 0.666262
209 1 0.671091 0.672051 0.663231
118 1 0.755018 0.58726 0.584594
139 1 0.832657 0.669742 0.498507
188 1 0.833406 0.496709 0.662931
122 1 0.00255072 0.835069 0.496401
126 1 0.0881902 0.916069 0.58503
196 1 0.165011 0.820788 0.671539
127 1 0.251116 0.744609 0.584529
130 1 0.332996 0.832524 0.505229
134 1 0.410269 0.919456 0.582283
135 1 0.580438 0.756619 0.579759
138 1 0.664388 0.833854 0.500279
204 1 0.499184 0.838528 0.661363
142 1 0.746034 0.914516 0.589669
143 1 0.91558 0.754654 0.577548
212 1 0.834104 0.835656 0.668657
146 1 -5.45717e-05 0.168977 0.833032
147 1 0.169501 0.00190232 0.832767
149 1 0.085426 0.0798411 0.745545
151 1 0.253563 0.0821541 0.915799
154 1 0.335556 0.171919 0.836578
157 1 0.413211 0.0844093 0.752992
155 1 0.50485 0.00488475 0.836765
159 1 0.592435 0.0827384 0.92309
162 1 0.672689 0.172767 0.831369
163 1 0.835689 0.00393237 0.842849
165 1 0.759029 0.0765686 0.74964
167 1 0.918198 0.090477 0.918257
150 1 0.0813071 0.259924 0.912623
171 1 0.161709 0.33322 0.828533
173 1 0.0850321 0.423054 0.755209
152 1 0.244447 0.249852 0.754008
158 1 0.423723 0.251142 0.91399
175 1 0.250724 0.414402 0.906446
181 1 0.414498 0.412292 0.746156
160 1 0.581585 0.242927 0.749524
179 1 0.505245 0.332505 0.828114
183 1 0.575596 0.417426 0.919902
166 1 0.75131 0.2585 0.914818
168 1 0.916131 0.2458 0.744957
187 1 0.835033 0.339484 0.823226
189 1 0.74736 0.417949 0.745325
191 1 0.921572 0.418929 0.915894
170 1 -0.00137618 0.504246 0.82919
174 1 0.0889995 0.579746 0.916253
195 1 0.17264 0.661521 0.83064
176 1 0.258134 0.581758 0.751671
178 1 0.34172 0.496131 0.830944
182 1 0.423744 0.582378 0.909292
184 1 0.583301 0.585073 0.745851
186 1 0.658224 0.494098 0.833278
203 1 0.506655 0.66852 0.832244
190 1 0.748887 0.580034 0.91585
192 1 0.914369 0.578527 0.748143
211 1 0.832656 0.660581 0.837225
194 1 0.0012539 0.836126 0.829687
197 1 0.0789567 0.742424 0.756669
198 1 0.0845055 0.920913 0.921864
199 1 0.248151 0.742317 0.924012
200 1 0.246214 0.908697 0.750115
202 1 0.332166 0.827336 0.836639
205 1 0.41324 0.746839 0.752585
206 1 0.415921 0.919741 0.914773
207 1 0.584347 0.757309 0.920584
208 1 0.581471 0.916514 0.755233
210 1 0.672762 0.82798 0.833261
213 1 0.753716 0.747302 0.750066
214 1 0.751737 0.910826 0.920144
215 1 0.91798 0.744715 0.912983
216 1 0.911831 0.91834 0.762715
ITEM: TIMESTEP
1700
ITEM: NUMBER OF ATOMS
216
ITEM: BOX BOUNDS pp pp pp
0.0000000000000000e+00 1.6427280000000000e+01
0.0000000000000000e+00 1.6427280000000000e+01
0.0000000000000000e+00 1.6427280000000000e+01
ITEM: ATOMS id type xs ys zs
1 1 0.00476606 -0.00236082 -0.00380834
2 1 0.0059429 0.167372 0.165424
3 1 0.168256 0.00455678 0.163828
4 1 0.169112 0.165305 -0.00485916
5 1 0.0864285 0.0835108 0.0809595
9 1 0.338676 -0.00236975 -0.00894905
10 1 0.332214 0.160941 0.159794
13 1 0.417708 0.0780775 0.0792475
11 1 0.506937 -0.00322501 0.168601
12 1 0.49539 0.167377 0.00254164
17 1 0.67075 0.0083918 0.00215755
18 1 0.672394 0.171152 0.176098
19 1 0.834725 0.0011119 0.168236
20 1 0.83719 0.161599 0.000319017
21 1 0.752901 0.0912607 0.0881943
25 1 0.00135954 0.33129 -0.0066912
27 1 0.165556 0.337436 0.161749
29 1 0.0804194 0.414574 0.0778785
8 1 0.251564 0.250734 0.086759
33 1 0.334132 0.331108 0.00444357
37 1 0.427169 0.410821 0.0821056
16 1 0.590873 0.243657 0.0837488
35 1 0.508748 0.324394 0.169161
41 1 0.666909 0.33223 -0.0020857
24 1 0.917762 0.248713 0.084589
43 1 0.836607 0.34053 0.16567
45 1 0.745078 0.415494 0.0857349
26 1 0.00546439 0.501592 0.163123
28 1 0.164104 0.500469 -0.00415784
49 1 0.00023381 0.666807 0.00282916
51 1 0.178296 0.668206 0.167962
32 1 0.25484 0.582931 0.086619
34 1 0.337559 0.496254 0.169027
57 1 0.338851 0.665372 0.00365808
36 1 0.503346 0.495491 0.00251003
40 1 0.583671 0.578525 0.0879425
42 1 0.670427 0.501285 0.171155
59 1 0.502385 0.664391 0.166587
65 1 0.669155 0.664903 0.00106588
44 1 0.832643 0.502716 0.0021909
48 1 0.918065 0.582286 0.082852
67 1 0.833896 0.656603 0.172133
50 1 0.00336983 0.832805 0.163688
52 1 0.173548 0.829299 -0.000540299
53 1 0.0915277 0.747878 0.0848946
56 1 0.249826 0.923215 0.0791367
58 1 0.34277 0.841466 0.163656
61 1 0.423572 0.747385 0.0838524
60 1 0.510403 0.828993 0.00455834
64 1 0.595512 0.915932 0.0834686
66 1 0.673631 0.828786 0.168484
68 1 0.834269 0.842987 0.000299578
69 1 0.757497 0.747357 0.0845434
72 1 0.920836 0.920765 0.0847284
73 1 2.40127e-05 -0.00492329 0.329928
76 1 0.165454 0.16621 0.33612
77 1 0.0800958 0.0820872 0.417968
7 1 0.252012 0.0842704 0.248946
81 1 0.329815 -0.00501418 0.324355
85 1 0.403601 0.0789181 0.41945
15 1 0.586818 0.0881812 0.256276
84 1 0.489209 0.167091 0.34052
89 1 0.662056 -0.000700914 0.344158
23 1 0.920015 0.0820804 0.246576
92 1 0.82832 0.16657 0.324119
93 1 0.754987 0.0918255 0.418596
6 1 0.082638 0.252985 0.25041
97 1 -0.00329612 0.338242 0.329844
101 1 0.0804172 0.416557 0.417662
14 1 0.413199 0.245787 0.242844
31 1 0.249697 0.41556 0.250996
80 1 0.249309 0.249905 0.411881
105 1 0.33175 0.328263 0.320731
109 1 0.409285 0.412829 0.411378
39 1 0.585877 0.414134 0.25799
88 1 0.577048 0.252887 0.424154
113 1 0.661169 0.33364 0.34151
22 1 0.7498 0.262701 0.254923
47 1 0.916439 0.422456 0.246493
96 1 0.918891 0.245862 0.409098
117 1 0.750903 0.417118 0.414974
30 1 0.0882878 0.587548 0.245075
100 1 0.170137 0.502236 0.339132
121 1 0.000943671 0.66096 0.334257
38 1 0.413177 0.588473 0.250761
104 1 0.248429 0.589161 0.416138
129 1 0.332849 0.677041 0.329411
108 1 0.499223 0.507478 0.328841
112 1 0.587017 0.582047 0.412861
137 1 0.669845 0.666359 0.334123
46 1 0.751036 0.579904 0.258254
116 1 0.831766 0.494489 0.331274
120 1 0.912201 0.582017 0.417764
54 1 0.0921825 0.917316 0.24753
124 1 0.165181 0.833375 0.330684
125 1 0.0817776 0.752044 0.413434
55 1 0.253662 0.759488 0.246728
62 1 0.425141 0.916868 0.254948
128 1 0.24202 0.917389 0.418913
133 1 0.41786 0.746186 0.422071
63 1 0.586357 0.746505 0.249582
132 1 0.501581 0.826692 0.334109
136 1 0.577271 0.912633 0.424344
70 1 0.748249 0.919847 0.255125
71 1 0.918769 0.748116 0.248742
140 1 0.834127 0.836507 0.330683
141 1 0.753425 0.755842 0.416883
144 1 0.917335 0.918739 0.419913
74 1 0.00145582 0.168361 0.492727
75 1 0.16179 -7.99707e-05 0.493538
145 1 -0.000195742 0.00447335 0.669685
148 1 0.160583 0.168447 0.66401
79 1 0.243671 0.08442 0.580581
82 1 0.324576 0.161425 0.499345
153 1 0.331069 -0.000698087 0.664311
83 1 0.494511 -0.0014206 0.502924
87 1 0.583198 0.0843745 0.581947
90 1 0.665772 0.175796 0.504876
156 1 0.502874 0.16292 0.663585
161 1 0.665505 0.00260936 0.663205
91 1 0.836516 0.00888302 0.50195
95 1 0.92162 0.0970514 0.585018
164 1 0.834699 0.162883 0.672547
78 1 0.0780312 0.25636 0.578289
99 1 0.164438 0.327967 0.493179
169 1 -0.0143483 0.33784 0.658047
86 1 0.416156 0.243688 0.581677
103 1 0.253787 0.407868 0.57802
177 1 0.337502 0.331788 0.666631
107 1 0.493888 0.334666 0.497012
111 1 0.581129 0.409255 0.587217
185 1 0.666086 0.333376 0.675055
94 1 0.756596 0.250205 0.587971
115 1 0.831543 0.32976 0.494115
119 1 0.901236 0.425755 0.57758
98 1 -0.00603633 0.504047 0.499487
102 1 0.0820331 0.581676 0.574745
123 1 0.168119 0.672032 0.498671
172 1 0.166106 0.493335 0.65568
193 1 0.00772961 0.659758 0.666261
106 1 0.336148 0.502168 0.496719
110 1 0.420049 0.583439 0.583245
201 1 0.332823 0.664261 0.662366
114 1 0.664402 0.500024 0.50292
131 1 0.505352 0.666813 0.501688
180 1 0.50264 0.502426 0.666793
209 1 0.661153 0.669164 0.675289
118 1 0.740605 0.587852 0.587291
139 1 0.83018 0.66884 0.500128
188 1 0.829962 0.509476 0.67195
122 1 -0.00093782 0.830615 0.500469
126 1 0.0763872 0.918275 0.580968
196 1 0.166441 0.847789 0.667003
127 1 0.24796 0.75298 0.584154
130 1 0.337852 0.838882 0.496873
134 1 0.419208 0.918143 0.590496
135 1 0.587815 0.752583 0.588144
138 1 0.663848 0.832386 0.50225
204 1 0.494815 0.827215 0.670811
142 1 0.749268 0.919104 0.579273
143 1 0.920203 0.74543 0.588977
212 1 0.831665 0.835924 0.669964
146 1 -0.00472649 0.169729 0.836284
147 1 0.166354 -0.000526325 0.837384
149 1 0.0780461 0.0863468 0.753136
151 1 0.249736 0.0876247 0.917786
154 1 0.327075 0.163329 0.832583
157 1 0.415862 0.0778982 0.747505
155 1 0.496612 -0.0105306 0.837995
159 1 0.575108 0.0803029 0.919666
162 1 0.656919 0.156912 0.834761
163 1 0.832591 -0.00478341 0.830135
165 1 0.744882 0.0851888 0.74678
167 1 0.916939 0.0747574 0.916306
150 1 0.0849474 0.252182 0.915875
171 1 0.169955 0.331586 0.828585
173 1 0.0796669 0.411808 0.738003
152 1 0.250469 0.250359 0.745789
158 1 0.411326 0.249864 0.915487
175 1 0.24993 0.412551 0.918536
181 1 0.417788 0.420651 0.752678
160 1 0.577209 0.256463 0.752826
179 1 0.49631 0.336326 0.836765
183 1 0.591416 0.415253 0.91854
166 1 0.747759 0.239597 0.921043
168 1 0.907908 0.255096 0.752957
187 1 0.824396 0.331126 0.840409
189 1 0.74985 0.418617 0.751868
191 1 0.912062 0.416161 0.915976
170 1 -0.00301334 0.495672 0.830806
174 1 0.0789777 0.582236 0.915667
195 1 0.165383 0.66595 0.832143
176 1 0.240593 0.582186 0.738145
178 1 0.324397 0.501459 0.832516
182 1 0.412659 0.572824 0.920981
184 1 0.579916 0.581825 0.756711
186 1 0.673822 0.506305 0.834388
203 1 0.492926 0.660782 0.842495
190 1 0.754763 0.59034 0.913483
192 1 0.9159 0.593994 0.747551
211 1 0.837936 0.676804 0.831489
194 1 -0.00267949 0.827852 0.83217
197 1 0.085707 0.752869 0.74234
198 1 0.0820463 0.909582 0.912935
199 1 0.250835 0.746931 0.911481
200 1 0.255352 0.923693 0.752143
202 1 0.335255 0.833254 0.833412
205 1 0.418823 0.742488 0.751199
206 1 0.420108 0.904819 0.923375
207 1 0.582808 0.739867 0.915156
208 1 0.58663 0.912335 0.749447
210 1 0.664865 0.832173 0.84137
213 1 0.748891 0.755308 0.752346
214 1 0.750098 0.92553 0.91527
215 1 0.920329 0.753084 0.922277
216 1 0.916156 0.914179 0.744796
ITEM: TIMESTEP
1800
ITEM: NUMBER OF ATOMS
216
ITEM: BOX BOUNDS pp pp pp
0.0000000000000000e+00 1.6427280000000000e+01
0.0000000000000000e+00 1.6427280000000000e+01
0.0000000000000000e+00 1.6427280000000000e+01
ITEM: ATOMS id type xs ys zs
1 1 -0.000833166 0.003439 0.00471377
2 1 -0.003083 0.158698 0.166681
3 1 0.166901 -0.00439401 0.17152
4 1 0.169723 0.164463 0.00415066
5 1 0.0850313 0.0797958 0.0847474
9 1 0.331701 0.006854 0.00101961
10 1 0.334249 0.167101 0.171752
13 1 0.411035 0.0866137 0.0827471
11 1 0.488444 -0.0032696 0.16385
12 1 0.503194 0.164744 0.00092394
17 1 0.664202 -0.0101965 -0.00100507
18 1 0.665321 0.164779 0.156725
19 1 0.833776 -0.000415074 0.168188
20 1 0.825474 0.164981 0.000340942
21 1 0.747528 0.075053 0.0757117
25 1 0.00188932 0.339468 0.00477637
27 1 0.176109 0.330739 0.167254
29 1 0.0857419 0.418573 0.0879384
8 1 0.251276 0.244514 0.0817117
33 1 0.329097 0.327918 -0.00202452
37 1 0.402014 0.420628 0.0810956
16 1 0.581581 0.2533 0.084499
35 1 0.489427 0.337447 0.163873
41 1 0.667267 0.332407 0.00201938
24 1 0.915631 0.246827 0.0806478
43 1 0.832388 0.327109 0.169372
45 1 0.755548 0.413172 0.0777449
26 1 -0.00815146 0.499235 0.163568
28 1 0.167165 0.500715 0.00506062
49 1 0.0034871 0.671665 -0.00524569
51 1 0.157595 0.667472 0.166045
32 1 0.244722 0.590621 0.081173
34 1 0.325231 0.501066 0.169236
57 1 0.329913 0.667785 -0.00358245
36 1 0.49568 0.504696 -0.002405
40 1 0.581394 0.587237 0.078713
42 1 0.672231 0.50364 0.161769
59 1 0.502569 0.667784 0.173245
65 1 0.663802 0.675954 -0.000433078
44 1 0.838629 0.495168 -0.00136187
48 1 0.921448 0.588379 0.0820378
67 1 0.836125 0.669426 0.16273
50 1 0.00104895 0.836519 0.169452
52 1 0.163043 0.838246 -0.00377573
53 1 0.0791323 0.752898 0.0819797
56 1 0.252265 0.911271 0.0886554
58 1 0.330042 0.822629 0.173947
61 1 0.416802 0.750702 0.0848368
60 1 0.491817 0.836205 -0.00577754
64 1 0.57201 0.91034 0.0828123
66 1 0.65853 0.836614 0.170295
68 1 0.836485 0.825394 -0.00585283
69 1 0.747446 0.754 0.0857893
72 1 0.912835 0.915611 0.0833402
73 1 0.000977568 0.00535246 0.338953
76 1 0.168097 0.164911 0.332931
77 1 0.0853146 0.084585 0.418714
7 1 0.248295 0.0804092 0.248696
81 1 0.336024 0.0038749 0.336986
85 1 0.424963 0.0865598 0.417678
15 1 0.58714 0.0804271 0.248829
84 1 0.508564 0.17385 0.328433
89 1 0.676042 -0.00269408 0.331462
23 1 0.913588 0.0847816 0.253877
92 1 0.833364 0.174741 0.33882
93 1 0.746011 0.0846007 0.416687
6 1 0.0848454 0.247752 0.246815
97 1 8.22664e-05 0.332561 0.334732
101 1 0.085673 0.415732 0.414734
14 1 0.412265 0.253407 0.255929
31 1 0.250774 0.414616 0.253056
80 1 0.252249 0.252926 0.418346
105 1 0.331292 0.338428 0.343797
109 1 0.420353 0.412439 0.419485
39 1 0.586907 0.418734 0.241285
88 1 0.589508 0.255826 0.410306
113 1 0.67511 0.332719 0.322095
22 1 0.748347 0.243557 0.238376
47 1 0.91509 0.416008 0.248559
96 1 0.914868 0.255467 0.425829
117 1 0.748442 0.421893 0.409473
30 1 0.0767497 0.582122 0.251372
100 1 0.164775 0.50008 0.324631
121 1 -0.00281654 0.66969 0.337268
38 1 0.423264 0.582866 0.24712
104 1 0.251345 0.578002 0.412835
129 1 0.334536 0.657958 0.333952
108 1 0.503852 0.492032 0.335603
112 1 0.57842 0.586578 0.41874
137 1 0.665203 0.66149 0.328792
46 1 0.752131 0.588177 0.245682
116 1 0.832827 0.504431 0.324565
120 1 0.920701 0.57714 0.415952
54 1 0.0832493 0.918566 0.252799
124 1 0.167018 0.832883 0.337776
125 1 0.0898128 0.749986 0.421015
55 1 0.245289 0.741894 0.254664
62 1 0.410857 0.912862 0.252068
128 1 0.249253 0.917441 0.412897
133 1 0.418634 0.744373 0.41032
63 1 0.584146 0.748497 0.253467
132 1 0.501915 0.836691 0.337224
136 1 0.588977 0.916256 0.415665
70 1 0.756041 0.912839 0.246883
71 1 0.915153 0.751662 0.253347
140 1 0.832383 0.831479 0.343854
141 1 0.744409 0.745927 0.419921
144 1 0.915242 0.917634 0.412284
74 1 -0.00294605 0.168518 0.503617
75 1 0.169051 0.00641926 0.50406
145 1 -0.000865855 -0.00146599 0.657683
148 1 0.174824 0.162012 0.667219
79 1 0.256012 0.0830076 0.580271
82 1 0.335176 0.172802 0.498612
153 1 0.33366 -0.00212615 0.663328
83 1 0.506835 0.00168 0.498527
87 1 0.581987 0.0824307 0.584747
90 1 0.663822 0.163927 0.495889
156 1 0.502489 0.170732 0.664353
161 1 0.670028 0.00496092 0.668349
91 1 0.829607 -0.00422307 0.500506
95 1 0.909725 0.0805952 0.580733
164 1 0.826221 0.166919 0.658471
78 1 0.0893657 0.247335 0.581538
99 1 0.163342 0.333179 0.500163
169 1 0.00898383 0.330001 0.670991
86 1 0.415451 0.256946 0.578536
103 1 0.23817 0.422635 0.583776
177 1 0.326537 0.336607 0.667671
107 1 0.503657 0.32916 0.499257
111 1 0.58308 0.422526 0.586101
185 1 0.662933 0.337393 0.663276
94 1 0.740798 0.24868 0.583923
115 1 0.833266 0.341991 0.503737
119 1 0.930392 0.416604 0.588506
98 1 0.00790938 0.497446 0.499916
102 1 0.0769865 0.584606 0.591802
123 1 0.159882 0.65826 0.495252
172 1 0.160957 0.509673 0.675113
193 1 -0.00979641 0.665869 0.668596
106 1 0.333058 0.495597 0.5042
110 1 0.411419 0.583603 0.583427
201 1 0.33973 0.664241 0.670527
114 1 0.666893 0.500435 0.500133
131 1 0.49817 0.662866 0.503039
180 1 0.494464 0.499292 0.669079
209 1 0.66551 0.662194 0.662604
118 1 0.760477 0.573699 0.584757
139 1 0.837882 0.66069 0.498201
188 1 0.837488 0.487002 0.67054
122 1 0.00454455 0.83986 0.496923
126 1 0.0875832 0.91771 0.579052
196 1 0.164857 0.827391 0.661979
127 1 0.24981 0.739939 0.580673
130 1 0.333076 0.830314 0.497514
134 1 0.418875 0.9193 0.582613
135 1 0.579971 0.747044 0.583841
138 1 0.668788 0.833636 0.499472
204 1 0.496926 0.831995 0.662321
142 1 0.745922 0.91339 0.58681
143 1 0.919151 0.757414 0.583538
212 1 0.836031 0.832838 0.670934
146 1 0.000746555 0.162331 0.830267
147 1 0.175413 0.00270771 0.825237
149 1 0.0859004 0.0802017 0.744625
151 1 0.252627 0.0781787 0.916945
154 1 0.328634 0.172642 0.837223
157 1 0.410753 0.0882437 0.747193
155 1 0.499849 0.00750765 0.832178
159 1 0.591928 0.0821735 0.916529
162 1 0.675806 0.17475 0.834392
163 1 0.831654 0.000490313 0.832086
165 1 0.751033 0.0871901 0.753844
167 1 0.912487 0.0862183 0.920256
150 1 0.0842697 0.240332 0.920487
171 1 0.163651 0.332599 0.841509
173 1 0.0891042 0.418455 0.757593
152 1 0.249033 0.251298 0.755352
158 1 0.416638 0.247051 0.922589
175 1 0.248921 0.418025 0.919127
181 1 0.417303 0.408327 0.748828
160 1 0.590663 0.248198 0.746547
179 1 0.498312 0.32449 0.835912
183 1 0.574564 0.411267 0.917168
166 1 0.754365 0.259241 0.917228
168 1 0.915933 0.24314 0.744282
187 1 0.839961 0.33274 0.831561
189 1 0.746997 0.412041 0.752761
191 1 0.920134 0.412353 0.917953
170 1 0.000377502 0.508909 0.836153
174 1 0.0838668 0.590145 0.91724
195 1 0.164591 0.667323 0.832586
176 1 0.256026 0.582859 0.760685
178 1 0.340284 0.498583 0.837173
182 1 0.422733 0.594194 0.918108
184 1 0.583123 0.584794 0.749676
186 1 0.663866 0.49273 0.836387
203 1 0.508802 0.676292 0.827004
190 1 0.748672 0.577292 0.922565
192 1 0.913957 0.584011 0.749836
211 1 0.831624 0.66019 0.828184
194 1 0.000817477 0.842369 0.836815
197 1 0.0767279 0.748898 0.752612
198 1 0.0854236 0.928558 0.917705
199 1 0.254023 0.756697 0.914051
200 1 0.249727 0.912047 0.74677
202 1 0.332867 0.840801 0.829518
205 1 0.418899 0.75627 0.750361
206 1 0.41191 0.924529 0.914034
207 1 0.58111 0.75374 0.916408
208 1 0.580765 0.914712 0.744624
210 1 0.671481 0.836272 0.831217
213 1 0.751851 0.743347 0.752765
214 1 0.751465 0.910207 0.919102
215 1 0.916549 0.74801 0.907091
216 1 0.922142 0.923838 0.752154
ITEM: TIMESTEP
1900
ITEM: NUMBER OF ATOMS
216
ITEM: BOX BOUNDS pp pp pp
0.0000000000000000e+00 1.6427280000000000e+01
0.0000000000000000e+00 1.6427280000000000e+01
0.0000000000000000e+00 1.6427280000000000e+01
ITEM: ATOMS id type xs ys zs
1 1 0.00163957 -0.00555555 0.000918298
2 1 -0.00235732 0.165255 0.167798
3 1 0.160073 0.0089523 0.173331
4 1 0.165099 0.167504 0.00607055
5 1 0.0829249 0.0863039 0.0854671
9 1 0.333595 -0.000190839 0.000933332
10 1 0.32881 0.169543 0.16281
13 1 0.414621 0.0821468 0.0863727
11 1 0.505024 0.000579185 0.160674
12 1 0.490843 0.17086 0.000641291
17 1 0.668324 0.00693965 -0.00152654
18 1 0.671304 0.173788 0.166002
19 1 0.823829 0.000291612 0.162732
20 1 0.833351 0.169476 -0.00282436
21 1 0.749414 0.0874327 0.0901838
25 1 -0.00386423 0.329746 -0.00319327
27 1 0.1611 0.337421 0.166901
29 1 0.0815507 0.42049 0.0830419
8 1 0.247191 0.255705 0.0829827
33 1 0.334496 0.33559 0.00294517
37 1 0.425593 0.415583 0.0833049
16 1 0.585871 0.247643 0.0752009
35 1 0.512351 0.332258 0.164335
41 1 0.668077 0.32887 -0.00751948
24 1 0.91342 0.25256 0.0863587
43 1 0.826962 0.335408 0.166414
45 1 0.746358 0.418228 0.0837979
26 1 0.00374568 0.49819 0.167098
28 1 0.164554 0.500917 -0.000101305
49 1 -0.00679777 0.663523 0.0054593
51 1 0.171017 0.668998 0.165826
32 1 0.2495 0.576153 0.0809833
34 1 0.332855 0.501677 0.164465
57 1 0.328697 0.667503 0.00188116
36 1 0.502355 0.501617 -0.00510336
40 1 0.578785 0.588614 0.0857176
42 1 0.661479 0.501774 0.170214
59 1 0.492973 0.671948 0.159004
65 1 0.66116 0.664229 -0.00327427
44 1 0.83145 0.501452 0.000899549
48 1 0.911325 0.578611 0.0843926
67 1 0.822274 0.662852 0.16655
50 1 -0.00104677 0.833304 0.166412
52 1 0.157188 0.830926 0.00877224
53 1 0.0777738 0.7428 0.0842376
56 1 0.248606 0.929159 0.0859459
58 1 0.329372 0.839651 0.166668
61 1 0.409686 0.754689 0.0804074
60 1 0.504435 0.8347 0.000374766
64 1 0.593341 0.92341 0.0769973
66 1 0.665033 0.828025 0.160444
68 1 0.825296 0.839167 4.98076e-05
69 1 0.747085 0.74814 0.0759945
72 1 0.912941 0.916994 0.0843355
73 1 -0.00415008 -0.00688434 0.33231
76 1 0.174822 0.167662 0.340082
77 1 0.0830644 0.0772577 0.417607
7 1 0.251864 0.0869371 0.252451
81 1 0.332683 -0.0024254 0.332324
85 1 0.419058 0.0848434 0.415938
15 1 0.58083 0.0865407 0.246616
84 1 0.498034 0.166282 0.334235
89 1 0.660237 -0.00425595 0.334216
23 1 0.916311 0.0716901 0.251178
92 1 0.833723 0.158202 0.32248
93 1 0.745228 0.0720301 0.414738
6 1 0.0858114 0.250525 0.256853
97 1 -0.0017239 0.336956 0.341262
101 1 0.0828801 0.419342 0.429252
14 1 0.421973 0.252682 0.248039
31 1 0.247907 0.417344 0.251107
80 1 0.255881 0.257073 0.419981
105 1 0.334796 0.337374 0.327877
109 1 0.414079 0.419647 0.412265
39 1 0.578086 0.416344 0.257684
88 1 0.582462 0.243976 0.419876
113 1 0.662974 0.328579 0.337464
22 1 0.749972 0.249353 0.256889
47 1 0.915946 0.417753 0.250382
96 1 0.920307 0.236957 0.405144
117 1 0.753379 0.410878 0.416911
30 1 0.0875693 0.575682 0.248888
100 1 0.165995 0.490909 0.340258
121 1 0.00395791 0.66646 0.333204
38 1 0.407081 0.586295 0.252942
104 1 0.248261 0.585804 0.42525
129 1 0.325925 0.668259 0.334742
108 1 0.491001 0.50567 0.335235
112 1 0.588247 0.585795 0.416829
137 1 0.667898 0.674027 0.328118
46 1 0.749806 0.58161 0.254235
116 1 0.836929 0.501658 0.339039
120 1 0.918095 0.581976 0.416397
54 1 0.0784463 0.91391 0.258578
124 1 0.163746 0.82832 0.332238
125 1 0.0782365 0.749716 0.418431
55 1 0.251895 0.755428 0.253219
62 1 0.414502 0.915289 0.246104
128 1 0.249245 0.915172 0.417864
133 1 0.419761 0.744664 0.418875
63 1 0.578261 0.74853 0.243821
132 1 0.498263 0.828017 0.3254
136 1 0.580857 0.913395 0.414673
70 1 0.74253 0.916411 0.248581
71 1 0.908389 0.75056 0.244177
140 1 0.832288 0.837625 0.324628
141 1 0.750831 0.753591 0.406089
144 1 0.91754 0.909952 0.418994
74 1 0.00405215 0.161373 0.500409
75 1 0.166789 -0.00662947 0.507006
145 1 0.00190826 -0.00513195 0.672596
148 1 0.167702 0.169344 0.666392
79 1 0.249054 0.0832442 0.585869
82 1 0.336842 0.16853 0.503628
153 1 0.330874 -0.00109016 0.665658
83 1 0.505254 -0.00211924 0.499157
87 1 0.589291 0.0853452 0.571486
90 1 0.670516 0.163946 0.499232
156 1 0.501536 0.169132 0.66658
161 1 0.666978 0.00305459 0.660016
91 1 0.835348 -0.00266672 0.494925
95 1 0.924097 0.0783348 0.589478
164 1 0.842869 0.167932 0.675428
78 1 0.0810357 0.250852 0.587615
99 1 0.175643 0.337748 0.504201
169 1 -0.00326653 0.334603 0.668398
86 1 0.421619 0.25137 0.586283
103 1 0.260783 0.414531 0.590599
177 1 0.346378 0.329191 0.671807
107 1 0.499008 0.342136 0.498496
111 1 0.589929 0.409708 0.58028
185 1 0.677968 0.327309 0.668134
94 1 0.756948 0.247347 0.585711
115 1 0.840478 0.320433 0.497927
119 1 0.91382 0.415101 0.581615
98 1 -0.00103496 0.502036 0.508984
102 1 0.0892741 0.578788 0.583558
123 1 0.164368 0.669425 0.508328
172 1 0.175501 0.495631 0.663831
193 1 0.0107578 0.660744 0.66965
106 1 0.338173 0.504587 0.498802
110 1 0.425944 0.582237 0.581338
201 1 0.336286 0.669661 0.669763
114 1 0.6673 0.496452 0.495241
131 1 0.499669 0.664143 0.500972
180 1 0.504384 0.501283 0.661011
209 1 0.667873 0.668778 0.665221
118 1 0.745849 0.582257 0.579717
139 1 0.830449 0.671969 0.498592
188 1 0.837391 0.507973 0.66637
122 1 -0.00278559 0.82632 0.500671
126 1 0.079309 0.919815 0.586118
196 1 0.170171 0.844352 0.675632
127 1 0.249424 0.754905 0.589993
130 1 0.3388 0.835504 0.504007
134 1 0.425988 0.91769 0.583342
135 1 0.580463 0.75288 0.572656
138 1 0.665107 0.833472 0.494621
204 1 0.505304 0.830395 0.664571
142 1 0.750737 0.919936 0.576486
143 1 0.92025 0.73726 0.589247
212 1 0.826829 0.831725 0.65863
146 1 0.00566363 0.170235 0.833612
147 1 0.161068 -0.00714018 0.839251
149 1 0.0862918 0.0797346 0.75129
151 1 0.244163 0.0819681 0.916914
154 1 0.339436 0.161626 0.837304
157 1 0.419295 0.081182 0.7508
155 1 0.498481 -0.00768512 0.836598
159 1 0.581041 0.092855 0.918385
162 1 0.66728 0.167038 0.828006
163 1 0.83352 0.00178513 0.830288
165 1 0.757167 0.0849732 0.741406
167 1 0.923071 0.0840297 0.912832
150 1 0.0890216 0.259175 0.913467
171 1 0.175897 0.332141 0.829599
173 1 0.0859057 0.417122 0.752158
152 1 0.254252 0.246398 0.751817
158 1 0.413708 0.257988 0.91275
175 1 0.252319 0.415787 0.9188
181 1 0.414926 0.429719 0.751126
160 1 0.584752 0.25432 0.753457
179 1 0.499895 0.346398 0.832433
183 1 0.590512 0.425094 0.913841
166 1 0.746644 0.243093 0.911774
168 1 0.919049 0.256487 0.759295
187 1 0.827261 0.334998 0.837268
189 1 0.757118 0.414293 0.742575
191 1 0.908759 0.41987 0.920198
170 1 -0.0020911 0.496 0.836051
174 1 0.0854737 0.582341 0.9236
195 1 0.168922 0.668212 0.840754
176 1 0.243263 0.589206 0.745972
178 1 0.327491 0.502957 0.831957
182 1 0.408962 0.584407 0.912397
184 1 0.581401 0.58294 0.747202
186 1 0.665311 0.49994 0.821585
203 1 0.491153 0.662648 0.830631
190 1 0.751823 0.588923 0.907019
192 1 0.921725 0.581755 0.751457
211 1 0.84175 0.670995 0.836498
194 1 -0.00496914 0.821461 0.831543
197 1 0.0872986 0.746143 0.750967
198 1 0.0783546 0.907041 0.910703
199 1 0.248999 0.751287 0.918761
200 1 0.252565 0.924355 0.755684
202 1 0.334793 0.829644 0.831205
205 1 0.416336 0.754795 0.749446
206 1 0.410892 0.910785 0.917986
207 1 0.577481 0.750275 0.914195
208 1 0.584618 0.920281 0.744073
210 1 0.662749 0.826089 0.833294
213 1 0.751304 0.748463 0.74665
214 1 0.744954 0.922641 0.913346
215 1 0.911784 0.750294 0.924396
216 1 0.913254 0.910253 0.748335
ITEM: TIMESTEP
2000
ITEM: NUMBER OF ATOMS
216
ITEM: BOX BOUNDS pp pp pp
0.0000000000000000e+00 1.6427280000000000e+01
0.0000000000000000e+00 1.6427280000000000e+01
0.0000000000000000e+00 1.6427280000000000e+01
ITEM: ATOMS id type xs ys zs
1 1 7.51031e-05 0.0065076 0.00229669
2 1 0.00243156 0.165794 0.163922
3 1 0.167154 -0.00268991 0.158378
4 1 0.165143 0.169542 -0.000190175
5 1 0.0843925 0.0853994 0.0822793
9 1 0.339619 0.00205423 -0.00155649
10 1 0.334075 0.161231 0.166688
13 1 0.422036 0.0871298 0.0781719
11 1 0.495615 0.00504407 0.167079
12 1 0.504881 0.16851 0.00296723
17 1 0.665355 -0.00441012 0.00265796
18 1 0.666008 0.166718 0.169168
19 1 0.843446 0.00601778 0.169081
20 1 0.829716 0.171025 0.00231957
21 1 0.74421 0.079818 0.0781699
25 1 0.00330317 0.339656 0.00427378
27 1 0.173431 0.335223 0.168745
29 1 0.0881641 0.417671 0.088457
8 1 0.253726 0.251525 0.0857818
33 1 0.330912 0.331762 -0.0047103
37 1 0.410447 0.416163 0.0846278
16 1 0.578116 0.254201 0.0892146
35 1 0.491849 0.333046 0.171218
41 1 0.664371 0.339663 0.00293621
24 1 0.91834 0.252178 0.0847086
43 1 0.837988 0.332361 0.169783
45 1 0.753992 0.414739 0.0867107
26 1 -0.00462653 0.497274 0.169133
28 1 0.167969 0.497838 0.00422653
49 1 -0.00308952 0.666549 -0.00300128
51 1 0.168591 0.666513 0.169443
32 1 0.247845 0.585078 0.0860375
34 1 0.330803 0.501807 0.172797
57 1 0.335317 0.661278 0.00409478
36 1 0.501606 0.495657 0.00296626
40 1 0.584618 0.576945 0.079702
42 1 0.667609 0.500097 0.161764
59 1 0.506714 0.662414 0.167544
65 1 0.669853 0.670213 0.00691039
44 1 0.837503 0.499823 0.00221428
48 1 0.920428 0.582505 0.0852564
67 1 0.834799 0.66578 0.165898
50 1 0.00446112 0.831644 0.166109
52 1 0.171285 0.829811 -0.00659783
53 1 0.0808882 0.748493 0.0846912
56 1 0.254822 0.909846 0.080903
58 1 0.334286 0.828833 0.168024
61 1 0.420019 0.747401 0.0877349
60 1 0.495817 0.83529 -0.00105113
64 1 0.574338 0.919762 0.0837702
66 1 0.665117 0.83619 0.166367
68 1 0.838814 0.823299 -0.00238966
69 1 0.75139 0.75003 0.0875017
72 1 0.917472 0.90938 0.0816759
73 1 -0.00145162 0.000590328 0.330091
76 1 0.163621 0.163353 0.327698
77 1 0.0828579 0.0805792 0.415538
7 1 0.245088 0.079537 0.243771
81 1 0.328516 0.00700974 0.32925
85 1 0.412239 0.0811367 0.41698
15 1 0.582603 0.0850723 0.250401
84 1 0.498096 0.164411 0.336733
89 1 0.668983 0.00267277 0.330889
23 1 0.919542 0.0936585 0.249702
92 1 0.836872 0.176456 0.338323
93 1 0.75651 0.095084 0.418239
6 1 0.0808183 0.250918 0.244428
97 1 0.00335354 0.330181 0.332152
101 1 0.0856089 0.412454 0.405988
14 1 0.410785 0.248308 0.254135
31 1 0.253518 0.414924 0.253806
80 1 0.244901 0.240973 0.411172
105 1 0.332144 0.329478 0.342468
109 1 0.416483 0.412888 0.41907
39 1 0.583156 0.413572 0.243052
88 1 0.584712 0.246232 0.415466
113 1 0.66792 0.33458 0.329871
22 1 0.755584 0.252446 0.249197
47 1 0.915171 0.411538 0.253638
96 1 0.91905 0.259253 0.424889
117 1 0.74978 0.422083 0.421745
30 1 0.0782295 0.586107 0.252862
100 1 0.169439 0.503343 0.335709
121 1 -0.00398059 0.665728 0.342662
38 1 0.421877 0.580135 0.249152
104 1 0.254891 0.585567 0.409684
129 1 0.339962 0.674063 0.326069
108 1 0.503665 0.491809 0.333695
112 1 0.579509 0.583301 0.41745
137 1 0.664258 0.660695 0.333294
46 1 0.74714 0.580453 0.249746
116 1 0.826843 0.494261 0.327109
120 1 0.914086 0.575683 0.421656
54 1 0.0853478 0.917892 0.243544
124 1 0.164017 0.835028 0.328912
125 1 0.0903674 0.754094 0.415077
55 1 0.250327 0.75536 0.24699
62 1 0.412167 0.923706 0.244831
128 1 0.242025 0.917887 0.414297
133 1 0.414335 0.75578 0.415766
63 1 0.585596 0.750741 0.251689
132 1 0.500436 0.844405 0.332348
136 1 0.582319 0.92648 0.419717
70 1 0.757402 0.916195 0.247997
71 1 0.920622 0.75023 0.253058
140 1 0.832356 0.831425 0.339362
141 1 0.748018 0.74529 0.419592
144 1 0.920474 0.920817 0.410606
74 1 -0.000180721 0.171463 0.501266
75 1 0.167898 0.00218604 0.500022
145 1 0.00994163 0.00383288 0.669441
148 1 0.165614 0.161872 0.673945
79 1 0.248229 0.0810325 0.587823
82 1 0.327165 0.159164 0.500686
153 1 0.331027 -0.00217429 0.675698
83 1 0.49424 0.00253785 0.500583
87 1 0.583859 0.0723538 0.58818
90 1 0.664261 0.166877 0.503338
156 1 0.50291 0.159206 0.66223
161 1 0.671794 -0.00656647 0.668918
91 1 0.836688 -0.00240511 0.500786
95 1 0.917612 0.0829595 0.581935
164 1 0.827358 0.163746 0.664015
78 1 0.0911659 0.246459 0.585398
99 1 0.159504 0.327898 0.492691
169 1 0.00137817 0.329067 0.661433
86 1 0.412833 0.244067 0.582518
103 1 0.247485 0.414979 0.576184
177 1 0.326636 0.33377 0.661228
107 1 0.500418 0.325892 0.498563
111 1 0.579747 0.424469 0.584149
185 1 0.663027 0.339433 0.663414
94 1 0.745706 0.250722 0.580882
115 1 0.832018 0.341328 0.503774
119 1 0.921797 0.420623 0.582657
98 1 0.00719994 0.4981 0.48932
102 1 0.0790497 0.587559 0.578712
123 1 0.1665 0.664398 0.494503
172 1 0.160094 0.505411 0.663976
193 1 -0.0072094 0.668325 0.661178
106 1 0.338067 0.494844 0.498268
110 1 0.417367 0.587738 0.580386
201 1 0.33298 0.666056 0.666045
114 1 0.66655 0.50591 0.503846
131 1 0.50135 0.673147 0.498234
180 1 0.49929 0.503668 0.668084
209 1 0.668437 0.668671 0.663037
118 1 0.752739 0.585248 0.585934
139 1 0.835427 0.662442 0.499317
188 1 0.83031 0.494834 0.663245
122 1 0.00166819 0.837913 0.49922
126 1 0.0868868 0.912254 0.585081
196 1 0.163945 0.829732 0.667478
127 1 0.247123 0.746068 0.579587
130 1 0.32908 0.838365 0.496093
134 1 0.409959 0.917386 0.588728
135 1 0.580299 0.753344 0.585974
138 1 0.667359 0.835693 0.500892
204 1 0.490561 0.833223 0.670654
142 1 0.754486 0.912714 0.5881
143 1 0.914723 0.759625 0.577794
212 1 0.8405 0.834354 0.673136
146 1 -0.00673746 0.167815 0.832156
147 1 0.16761 0.00262429 0.832125
149 1 0.0810613 0.084351 0.754942
151 1 0.252213 0.0899193 0.916193
154 1 0.331451 0.176646 0.829062
157 1 0.412545 0.0847361 0.748934
155 1 0.496837 0.00263419 0.828689
159 1 0.587541 0.0814401 0.914324
162 1 0.674084 0.167983 0.836822
163 1 0.831674 -0.00377886 0.835345
165 1 0.740582 0.0808222 0.756455
167 1 0.910344 0.0812153 0.91855
150 1 0.0765044 0.245405 0.920728
171 1 0.160911 0.333467 0.838413
173 1 0.0813874 0.411089 0.744369
152 1 0.245995 0.25662 0.744327
158 1 0.422122 0.246725 0.919238
175 1 0.246058 0.419677 0.916301
181 1 0.421433 0.409014 0.744896
160 1 0.590351 0.248144 0.745533
179 1 0.506945 0.326159 0.830755
183 1 0.58221 0.40882 0.918596
166 1 0.749712 0.26026 0.916385
168 1 0.915385 0.245549 0.740255
187 1 0.835712 0.329249 0.825532
189 1 0.748391 0.418564 0.753153
191 1 0.9169 0.413847 0.910619
170 1 -0.00478843 0.498778 0.828251
174 1 0.0803596 0.579631 0.916828
195 1 0.164295 0.661983 0.826873
176 1 0.255912 0.576497 0.752036
178 1 0.341541 0.495827 0.834833
182 1 0.423333 0.581489 0.919216
184 1 0.584722 0.583357 0.748315
186 1 0.665037 0.499616 0.839666
203 1 0.503851 0.6708 0.834388
190 1 0.74785 0.581038 0.926764
192 1 0.907246 0.586386 0.743572
211 1 0.827116 0.66543 0.831001
194 1 0.00491314 0.840422 0.842923
197 1 0.077558 0.754105 0.751628
198 1 0.0880994 0.929321 0.921777
199 1 0.249551 0.745353 0.910956
200 1 0.24803 0.914912 0.754875
202 1 0.330777 0.835424 0.834933
205 1 0.415124 0.748862 0.755422
206 1 0.415415 0.915596 0.916426
207 1 0.590133 0.74974 0.918191
208 1 0.582204 0.909552 0.751861
210 1 0.668436 0.838632 0.831931
213 1 0.751328 0.753894 0.753044
214 1 0.753483 0.912532 0.923278
215 1 0.921108 0.747288 0.914181
216 1 0.921643 0.921231 0.749083
ITEM: TIMESTEP
2100
ITEM: NUMBER OF ATOMS
216
ITEM: BOX BOUNDS pp pp pp
0.0000000000000000e+00 1.6427280000000000e+01
0.0000000000000000e+00 1.6427280000000000e+01
0.0000000000000000e+00 1.6427280000000000e+01
ITEM: ATOMS id type xs ys zs
1 1 0.00609802 -0.00621378 -0.00245363
2 1 -0.00084915 0.162901 0.164747
3 1 0.166841 -0.00090617 0.169101
4 1 0.161474 0.167382 -0.00470004
5 1 0.0818926 0.0827528 0.0790472
9 1 0.338538 -0.00226377 0.00228603
10 1 0.337206 0.163467 0.166427
13 1 0.42133 0.0789845 0.0885601
11 1 0.504583 -0.00334834 0.167221
12 1 0.497968 0.162801 0.00168934
17 1 0.669054 -0.000910999 0.000174589
18 1 0.662495 0.162791 0.168935
19 1 0.831904 -0.00137643 0.172454
20 1 0.836607 0.160232 -0.00158201
21 1 0.751909 0.0834752 0.0856292
25 1 0.00247106 0.332488 -0.00477331
27 1 0.158176 0.331778 0.159359
29 1 0.0829001 0.415653 0.0720979
8 1 0.244454 0.24496 0.0786995
33 1 0.334711 0.337028 -0.00208277
37 1 0.426844 0.417764 0.0846136
16 1 0.58469 0.246566 0.0803937
35 1 0.507956 0.332954 0.16536
41 1 0.663698 0.329396 -0.00445457
24 1 0.920518 0.249579 0.0890194
43 1 0.834903 0.336104 0.16963
45 1 0.745262 0.416285 0.082253
26 1 -0.00179625 0.498326 0.155652
28 1 0.171331 0.495427 -0.00109097
49 1 0.0037365 0.670337 -0.00136826
51 1 0.175684 0.668997 0.160355
32 1 0.251377 0.577733 0.0781688
34 1 0.337622 0.498879 0.15852
57 1 0.33352 0.666558 -0.00404079
36 1 0.504798 0.503995 -0.000320644
40 1 0.588392 0.585463 0.0885261
42 1 0.667862 0.499369 0.176206
59 1 0.501195 0.665597 0.168448
65 1 0.671549 0.659471 0.00442591
44 1 0.831773 0.504175 0.00200274
48 1 0.922296 0.591844 0.0766572
67 1 0.838553 0.665348 0.16306
50 1 -0.000754859 0.840429 0.167356
52 1 0.166006 0.838093 -0.00358096
53 1 0.0857753 0.750828 0.0838885
56 1 0.248523 0.911114 0.0904015
58 1 0.334631 0.827723 0.168174
61 1 0.417873 0.752715 0.0845584
60 1 0.504235 0.835486 0.00379083
64 1 0.590094 0.914505 0.0906699
66 1 0.673726 0.830955 0.167339
68 1 0.831638 0.835243 0.00142614
69 1 0.753311 0.752522 0.0805089
72 1 0.919291 0.923272 0.0843544
73 1 -6.24431e-05 -0.000717247 0.32906
76 1 0.167748 0.170245 0.32964
77 1 0.0819684 0.087356 0.411118
7 1 0.253791 0.0822911 0.254165
81 1 0.343566 -0.00643406 0.338607
85 1 0.422736 0.0803776 0.41867
15 1 0.578666 0.0770668 0.254232
84 1 0.500808 0.165001 0.333209
89 1 0.663522 0.00176478 0.338252
23 1 0.919874 0.0866761 0.250235
92 1 0.832717 0.161293 0.328563
93 1 0.746715 0.0864038 0.421967
6 1 0.0795924 0.251021 0.249513
97 1 -0.00174933 0.339181 0.333181
101 1 0.0765882 0.423812 0.421558
14 1 0.422952 0.250695 0.245913
31 1 0.250923 0.414969 0.24368
80 1 0.255227 0.255772 0.420327
105 1 0.337324 0.335811 0.326405
109 1 0.413874 0.417966 0.414642
39 1 0.584962 0.422147 0.25068
88 1 0.578669 0.250587 0.41906
113 1 0.664999 0.333814 0.337601
22 1 0.749794 0.250263 0.247548
47 1 0.920124 0.419322 0.248223
96 1 0.90706 0.2518 0.406754
117 1 0.749887 0.417702 0.413441
30 1 0.0935359 0.585111 0.244185
100 1 0.165455 0.495892 0.330242
121 1 0.0021466 0.671326 0.32726
38 1 0.417756 0.58595 0.250702
104 1 0.242909 0.584596 0.423091
129 1 0.327437 0.663802 0.332474
108 1 0.500579 0.504082 0.335195
112 1 0.582316 0.586012 0.415976
137 1 0.66892 0.668899 0.340537
46 1 0.748588 0.588504 0.252399
116 1 0.840282 0.505553 0.336996
120 1 0.916922 0.595787 0.419549
54 1 0.0876895 0.912238 0.249678
124 1 0.174812 0.82984 0.332253
125 1 0.0857148 0.749492 0.416815
55 1 0.251162 0.748045 0.248198
62 1 0.424475 0.908736 0.248653
128 1 0.254599 0.913716 0.413679
133 1 0.416291 0.743316 0.417311
63 1 0.589148 0.746285 0.25177
132 1 0.498418 0.827577 0.344901
136 1 0.583572 0.909351 0.42219
70 1 0.74716 0.915497 0.256406
71 1 0.917709 0.756174 0.24424
140 1 0.839376 0.838334 0.338671
141 1 0.753669 0.754094 0.419873
144 1 0.914596 0.917941 0.423512
74 1 -0.00386896 0.171733 0.497209
75 1 0.162547 -0.000166155 0.498165
145 1 -0.00947139 0.00136105 0.667025
148 1 0.161304 0.170636 0.660222
79 1 0.250413 0.0891689 0.57974
82 1 0.341489 0.170079 0.493951
153 1 0.334586 0.000217678 0.659488
83 1 0.502941 0.0016452 0.49879
87 1 0.577223 0.0912472 0.584265
90 1 0.66265 0.169947 0.501023
156 1 0.492527 0.166633 0.674247
161 1 0.658982 0.00993893 0.669748
91 1 0.828493 -0.00370517 0.503984
95 1 0.910046 0.0873592 0.58428
164 1 0.833953 0.175915 0.670393
78 1 0.0731941 0.25893 0.583465
99 1 0.162726 0.337446 0.500576
169 1 -0.00847115 0.335287 0.670703
86 1 0.409689 0.256088 0.584608
103 1 0.250614 0.413351 0.58564
177 1 0.33115 0.335545 0.674134
107 1 0.493251 0.337504 0.500537
111 1 0.581971 0.415754 0.590405
185 1 0.664526 0.328848 0.669935
94 1 0.748433 0.249445 0.580632
115 1 0.829358 0.329218 0.495278
119 1 0.907683 0.4166 0.585654
98 1 -0.00565683 0.504057 0.505928
102 1 0.0828666 0.582145 0.579263
123 1 0.162306 0.669103 0.502121
172 1 0.166397 0.500485 0.666046
193 1 0.00689398 0.665113 0.665804
106 1 0.327385 0.500661 0.500696
110 1 0.411758 0.575227 0.587226
201 1 0.331573 0.663819 0.667592
114 1 0.664418 0.499609 0.50243
131 1 0.499351 0.662426 0.503163
180 1 0.49608 0.496811 0.669669
209 1 0.664708 0.660081 0.671431
118 1 0.74877 0.582619 0.579712
139 1 0.830263 0.670161 0.505883
188 1 0.8263 0.505193 0.668251
122 1 -0.00409586 0.832238 0.498035
126 1 0.0755494 0.918789 0.580687
196 1 0.167015 0.834994 0.659963
127 1 0.248364 0.75108 0.581267
130 1 0.334294 0.826486 0.500574
134 1 0.420698 0.918049 0.578535
135 1 0.586656 0.74504 0.590311
138 1 0.669704 0.832385 0.505499
204 1 0.505889 0.832638 0.668517
142 1 0.742216 0.918156 0.591888
143 1 0.912229 0.749038 0.588513
212 1 0.826071 0.831929 0.665089
146 1 0.00673901 0.164967 0.827034
147 1 0.161877 -0.00306661 0.82142
149 1 0.0843159 0.0878435 0.745471
151 1 0.24598 0.0743146 0.911845
154 1 0.334205 0.163198 0.828346
157 1 0.416149 0.0771781 0.746379
155 1 0.502706 -0.00265271 0.836813
159 1 0.585066 0.082162 0.925313
162 1 0.658958 0.160943 0.830403
163 1 0.831568 0.000289892 0.831458
165 1 0.750629 0.083628 0.750433
167 1 0.928767 0.0846223 0.916085
150 1 0.0868692 0.250753 0.908728
171 1 0.172558 0.334799 0.826858
173 1 0.0813318 0.417196 0.747734
152 1 0.249495 0.245392 0.745658
158 1 0.418284 0.247995 0.917264
175 1 0.251195 0.419116 0.914342
181 1 0.409448 0.419638 0.748514
160 1 0.572648 0.247816 0.758017
179 1 0.4913 0.341428 0.841813
183 1 0.580462 0.42096 0.91678
166 1 0.750032 0.241471 0.913714
168 1 0.916899 0.257833 0.760629
187 1 0.830746 0.335585 0.838352
189 1 0.751035 0.416604 0.751756
191 1 0.916966 0.416449 0.918912
170 1 0.00830384 0.502806 0.832915
174 1 0.0892663 0.587877 0.917878
195 1 0.171859 0.669732 0.831115
176 1 0.248482 0.586457 0.749486
178 1 0.320834 0.498847 0.829778
182 1 0.411934 0.576799 0.916088
184 1 0.577749 0.58193 0.752338
186 1 0.66846 0.495544 0.837397
203 1 0.495831 0.660844 0.833838
190 1 0.751397 0.58555 0.91219
192 1 0.921838 0.581645 0.751059
211 1 0.839738 0.673371 0.836436
194 1 -0.00523704 0.824038 0.827464
197 1 0.0916628 0.746614 0.743676
198 1 0.0799864 0.906957 0.909927
199 1 0.257418 0.753302 0.915071
200 1 0.252841 0.912311 0.744845
202 1 0.337558 0.832774 0.831678
205 1 0.416674 0.748468 0.745571
206 1 0.420351 0.914632 0.914644
207 1 0.583826 0.743879 0.919246
208 1 0.587646 0.919559 0.748532
210 1 0.670475 0.833719 0.836127
213 1 0.749135 0.751842 0.74862
214 1 0.748167 0.917985 0.917943
215 1 0.917526 0.755727 0.922182
216 1 0.910722 0.90891 0.750946
ITEM: TIMESTEP
2200
ITEM: NUMBER OF ATOMS
216
ITEM: BOX BOUNDS pp pp pp
0.0000000000000000e+00 1.6427280000000000e+01
0.0000000000000000e+00 1.6427280000000000e+01
0.0000000000000000e+00 1.6427280000000000e+01
ITEM: ATOMS id type xs ys zs
1 1 0.00081224 0.00587497 0.0037871
2 1 0.00203981 0.166855 0.17176
3 1 0.163539 0.00216621 0.166266
4 1 0.165727 0.159945 0.00908743
5 1 0.0800471 0.0854959 0.0890865
9 1 0.335584 -0.00449413 0.00362058
10 1 0.338634 0.168101 0.166306
13 1 0.41979 0.0806241 0.0873371
11 1 0.501436 0.00264412 0.165992
12 1 0.497881 0.160043 0.00351713
17 1 0.662731 -0.000635878 -0.0042479
18 1 0.669225 0.170352 0.165765
19 1 0.840558 -0.00278533 0.160938
20 1 0.832937 0.171489 0.00122409
21 1 0.748294 0.0785223 0.0832349
25 1 0.00406093 0.32932 0.00502229
27 1 0.165646 0.333881 0.17083
29 1 0.0871085 0.419524 0.0853523
8 1 0.252602 0.248364 0.0882199
33 1 0.331418 0.332263 -0.0021613
37 1 0.412127 0.413218 0.0817952
16 1 0.577375 0.246356 0.0831198
35 1 0.498671 0.333849 0.166416
41 1 0.664723 0.335952 0.00836884
24 1 0.918404 0.245943 0.0820392
43 1 0.83477 0.329751 0.160839
45 1 0.753776 0.422868 0.0925818
26 1 0.000576818 0.495394 0.16915
28 1 0.163522 0.501796 -0.00111969
49 1 -0.00608953 0.66429 -0.0009447
51 1 0.169614 0.671535 0.172255
32 1 0.242924 0.584725 0.0835282
34 1 0.330314 0.504278 0.166058
57 1 0.331922 0.672816 0.00567759
36 1 0.49886 0.492621 0.000563192
40 1 0.580803 0.579824 0.0800155
42 1 0.661992 0.504216 0.159249
59 1 0.500993 0.663871 0.162225
65 1 0.665638 0.671015 0.00051183
44 1 0.838719 0.503214 -0.000429814
48 1 0.914376 0.582007 0.0859421
67 1 0.832544 0.673501 0.1679
50 1 0.00647283 0.83199 0.170472
52 1 0.169992 0.832265 0.00502084
53 1 0.083592 0.745808 0.0798276
56 1 0.254997 0.921419 0.0852901
58 1 0.32859 0.834734 0.172102
61 1 0.415245 0.749632 0.0888802
60 1 0.497835 0.834829 0.0025284
64 1 0.583297 0.92271 0.081595
66 1 0.663065 0.832984 0.162919
68 1 0.835481 0.833362 -0.00555127
69 1 0.751133 0.750141 0.0824709
72 1 0.923498 0.910382 0.0767556
73 1 -0.00637954 0.00310654 0.337383
76 1 0.163172 0.17032 0.335841
77 1 0.0832294 0.0841039 0.420336
7 1 0.249585 0.0873121 0.249431
81 1 0.330229 0.00813271 0.336681
85 1 0.41467 0.0925486 0.416079
15 1 0.581081 0.0856151 0.243284
84 1 0.4992 0.164559 0.330799
89 1 0.665388 -0.0016964 0.330236
23 1 0.91536 0.0860357 0.251144
92 1 0.835098 0.167254 0.335336
93 1 0.745155 0.08148 0.413572
6 1 0.0826182 0.245456 0.246077
97 1 -0.0052777 0.32519 0.328393
101 1 0.081025 0.409933 0.40939
14 1 0.415365 0.251759 0.254122
31 1 0.247355 0.419637 0.249931
80 1 0.246022 0.250805 0.412547
105 1 0.328107 0.333169 0.33293
109 1 0.416652 0.418407 0.412982
39 1 0.581275 0.418557 0.247436
88 1 0.588086 0.248058 0.414717
113 1 0.663559 0.337928 0.328536
22 1 0.754298 0.249795 0.257983
47 1 0.912671 0.407768 0.247853
96 1 0.91737 0.248493 0.416692
117 1 0.751414 0.411085 0.422982
30 1 0.0786488 0.584234 0.248841
100 1 0.163937 0.497706 0.335229
121 1 -0.00260982 0.669126 0.340124
38 1 0.414691 0.57575 0.251963
104 1 0.24898 0.58238 0.413925
129 1 0.334536 0.669796 0.334647
108 1 0.502717 0.49675 0.331767
112 1 0.591601 0.576784 0.413422
137 1 0.668012 0.66394 0.333334
46 1 0.749138 0.580374 0.245838
116 1 0.831454 0.493136 0.327584
120 1 0.915125 0.574769 0.416367
54 1 0.0808973 0.92227 0.258328
124 1 0.163282 0.832303 0.330341
125 1 0.0810227 0.748437 0.422061
55 1 0.24965 0.753404 0.253966
62 1 0.412001 0.920748 0.253217
128 1 0.253661 0.913768 0.415442
133 1 0.417059 0.751792 0.418591
63 1 0.580615 0.747467 0.251459
132 1 0.498839 0.830454 0.326897
136 1 0.579375 0.921429 0.414076
70 1 0.750114 0.912888 0.245688
71 1 0.915359 0.753238 0.253544
140 1 0.83112 0.828328 0.330138
141 1 0.749995 0.74371 0.41472
144 1 0.913872 0.915895 0.417814
74 1 0.00150394 0.169227 0.501233
75 1 0.173295 -0.0027605 0.497141
145 1 0.00979279 0.000654293 0.662746
148 1 0.164864 0.164159 0.668514
79 1 0.253305 0.0850236 0.583308
82 1 0.330543 0.168513 0.497325
153 1 0.335064 0.00571463 0.668771
83 1 0.496314 0.00370807 0.498377
87 1 0.590945 0.0771914 0.58052
90 1 0.66803 0.167641 0.502616
156 1 0.504189 0.166801 0.661595
161 1 0.671456 -0.00720185 0.666342
91 1 0.830841 0.00309197 0.491213
95 1 0.917166 0.0827062 0.581892
164 1 0.829676 0.166512 0.667978
78 1 0.0919277 0.245941 0.585008
99 1 0.168078 0.335922 0.498229
169 1 0.00825636 0.330443 0.662745
86 1 0.419007 0.247371 0.580788
103 1 0.247825 0.416823 0.58472
177 1 0.334722 0.330513 0.663819
107 1 0.504151 0.332806 0.496106
111 1 0.5803 0.418238 0.575925
185 1 0.673314 0.336706 0.668919
94 1 0.749859 0.253186 0.583755
115 1 0.836813 0.331061 0.5054
119 1 0.927361 0.414797 0.582408
98 1 0.00545877 0.498715 0.495831
102 1 0.0844363 0.589138 0.581874
123 1 0.168986 0.664609 0.501709
172 1 0.170025 0.502842 0.670007
193 1 -0.00538928 0.669987 0.668796
106 1 0.333426 0.500768 0.500668
110 1 0.41849 0.581761 0.584954
201 1 0.330298 0.671688 0.666727
114 1 0.672146 0.501992 0.500169
131 1 0.501165 0.661985 0.496323
180 1 0.497362 0.498542 0.667088
209 1 0.671008 0.669786 0.663653
118 1 0.754031 0.587324 0.58829
139 1 0.831618 0.663056 0.498847
188 1 0.836632 0.496909 0.667045
122 1 -0.00175693 0.833189 0.497848
126 1 0.0907491 0.913769 0.582051
196 1 0.171758 0.831583 0.667284
127 1 0.246588 0.746491 0.583067
130 1 0.334199 0.834824 0.499306
134 1 0.41762 0.916134 0.583039
135 1 0.584803 0.75342 0.57647
138 1 0.666318 0.834014 0.496512
204 1 0.49936 0.832945 0.66631
142 1 0.758236 0.918107 0.577105
143 1 0.914282 0.749275 0.582588
212 1 0.834198 0.83562 0.663618
146 1 -0.00365085 0.166959 0.830829
147 1 0.163655 0.000479273 0.835963
149 1 0.0812029 0.0829877 0.750298
151 1 0.248962 0.088602 0.920365
154 1 0.33248 0.166366 0.830948
157 1 0.419382 0.0883534 0.752428
155 1 0.497743 0.00299262 0.832906
159 1 0.576882 0.0884413 0.913929
162 1 0.669477 0.171152 0.842509
163 1 0.832053 0.000482767 0.835016
165 1 0.746583 0.0860895 0.747134
167 1 0.91472 0.0831782 0.912924
150 1 0.0781666 0.241188 0.921137
171 1 0.165104 0.327695 0.840108
173 1 0.08024 0.414549 0.754104
152 1 0.246136 0.247622 0.748252
158 1 0.416877 0.245869 0.913707
175 1 0.249279 0.417611 0.915848
181 1 0.417935 0.413767 0.754824
160 1 0.588031 0.24929 0.75204
179 1 0.502782 0.32995 0.831723
183 1 0.583792 0.412799 0.919754
166 1 0.750151 0.258796 0.919672
168 1 0.92162 0.247786 0.743388
187 1 0.835791 0.329919 0.827651
189 1 0.75281 0.41783 0.754234
191 1 0.916835 0.413366 0.913854
170 1 -0.00458015 0.49652 0.83639
174 1 0.0831324 0.582946 0.918939
195 1 0.164658 0.668917 0.833563
176 1 0.252895 0.585623 0.75474
178 1 0.340949 0.500917 0.835732
182 1 0.420896 0.585798 0.916511
184 1 0.587906 0.578959 0.747241
186 1 0.660278 0.498968 0.833481
203 1 0.500095 0.669292 0.827704
190 1 0.745124 0.580545 0.921174
192 1 0.91308 0.579775 0.752191
211 1 0.830039 0.66358 0.840342
194 1 0.00142891 0.844219 0.836196
197 1 0.0783262 0.758764 0.753912
198 1 0.0832727 0.92637 0.922357
199 1 0.2441 0.751149 0.91398
200 1 0.250663 0.919839 0.748143
202 1 0.331538 0.83138 0.832676
205 1 0.41124 0.750331 0.755426
206 1 0.413252 0.911958 0.912843
207 1 0.586519 0.755853 0.916438
208 1 0.579642 0.919851 0.751392
210 1 0.669031 0.837262 0.82961
213 1 0.751175 0.750169 0.746933
214 1 0.75179 0.915726 0.915385
215 1 0.918622 0.748535 0.912444
216 1 0.915995 0.922841 0.743135
ITEM: TIMESTEP
2300
ITEM: NUMBER OF ATOMS
216
ITEM: BOX BOUNDS pp pp pp
0.0000000000000000e+00 1.6427280000000000e+01
0.0000000000000000e+00 1.6427280000000000e+01
0.0000000000000000e+00 1.6427280000000000e+01
ITEM: ATOMS id type xs ys zs
1 1 -0.0025362 -0.00116966 0.00183001
2 1 0.00114378 0.165713 0.161947
3 1 0.163077 -0.00204043 0.15876
4 1 0.164343 0.172433 -0.00406393
5 1 0.0837469 0.0828596 0.0786693
9 1 0.330674 0.00972362 0.00228695
10 1 0.327426 0.167674 0.166913
13 1 0.413891 0.0969404 0.075368
11 1 0.493251 0.00441418 0.156755
12 1 0.505408 0.171722 -0.00383986
17 1 0.664396 -0.00472034 -0.00253407
18 1 0.658035 0.168297 0.163546
19 1 0.826164 0.00595606 0.174698
20 1 0.831919 0.168466 -0.00426073
21 1 0.742647 0.0860724 0.0791998
25 1 -0.00927039 0.339234 0.000800087
27 1 0.166207 0.332993 0.174012
29 1 0.0816146 0.416643 0.0910434
8 1 0.246129 0.256198 0.0836635
33 1 0.334102 0.334475 0.00558399
37 1 0.417408 0.425064 0.0862693
16 1 0.582422 0.2555 0.0789966
35 1 0.500094 0.336789 0.170042
41 1 0.666667 0.32973 -0.0151581
24 1 0.914144 0.253913 0.0872207
43 1 0.831876 0.337308 0.17188
45 1 0.74684 0.413506 0.0736544
26 1 -0.00424556 0.501125 0.1688
28 1 0.161569 0.501755 0.00598814
49 1 -0.000260626 0.665523 -0.00142746
51 1 0.163061 0.66497 0.167668
32 1 0.248363 0.582958 0.0895021
34 1 0.332165 0.49535 0.173163
57 1 0.324561 0.661735 -0.00250532
36 1 0.500814 0.507773 0.000119874
40 1 0.585197 0.58267 0.0835193
42 1 0.662235 0.492146 0.168613
59 1 0.499609 0.674364 0.166325
65 1 0.666531 0.659937 -0.00125786
44 1 0.827797 0.497079 -0.00472556
48 1 0.916586 0.579531 0.08308
67 1 0.82847 0.659596 0.163478
50 1 -0.0168067 0.830697 0.167704
52 1 0.16457 0.834864 -0.00331597
53 1 0.0753287 0.749401 0.0895448
56 1 0.247289 0.913611 0.0802175
58 1 0.327334 0.827962 0.159393
61 1 0.413684 0.754506 0.0755953
60 1 0.495985 0.836835 -0.00677544
64 1 0.575479 0.916667 0.0782088
66 1 0.660466 0.831861 0.164079
68 1 0.827326 0.829823 0.00158284
69 1 0.746928 0.74468 0.0825392
72 1 0.900404 0.920844 0.0845738
73 1 0.00340519 -0.00623485 0.331003
76 1 0.170756 0.170348 0.337143
77 1 0.0859993 0.0757416 0.410187
7 1 0.246115 0.0799793 0.250378
81 1 0.334299 -0.0032552 0.337201
85 1 0.418295 0.0771604 0.417084
15 1 0.581275 0.0837815 0.251971
84 1 0.495591 0.169256 0.336854
89 1 0.672029 0.00480832 0.335775
23 1 0.92078 0.0816716 0.249275
92 1 0.836404 0.166201 0.337007
93 1 0.763166 0.0846875 0.419203
6 1 0.0818759 0.250818 0.257553
97 1 0.0117848 0.337727 0.34203
101 1 0.0933433 0.421176 0.429637
14 1 0.410917 0.248092 0.247319
31 1 0.252843 0.41252 0.256301
80 1 0.255857 0.242313 0.422493
105 1 0.334117 0.3288 0.339895
109 1 0.423754 0.415866 0.419007
39 1 0.581459 0.416162 0.25337
88 1 0.582281 0.252212 0.417321
113 1 0.668124 0.329014 0.329766
22 1 0.74895 0.247956 0.242635
47 1 0.92162 0.423152 0.256547
96 1 0.922273 0.253058 0.41964
117 1 0.749635 0.418025 0.411362
30 1 0.0842541 0.577264 0.25379
100 1 0.174485 0.503337 0.337528
121 1 -0.00249942 0.664969 0.330265
38 1 0.419157 0.59011 0.25026
104 1 0.252083 0.58969 0.420511
129 1 0.330013 0.669597 0.333781
108 1 0.501677 0.5004 0.332299
112 1 0.573299 0.58696 0.41501
137 1 0.65943 0.668168 0.328832
46 1 0.745425 0.582845 0.24585
116 1 0.832182 0.504301 0.337374
120 1 0.920436 0.586607 0.422224
54 1 0.0834878 0.909093 0.245421
124 1 0.168837 0.830143 0.337874
125 1 0.0901959 0.747984 0.416893
55 1 0.248971 0.748824 0.248014
62 1 0.41463 0.915443 0.240504
128 1 0.24336 0.918601 0.423262
133 1 0.412607 0.756491 0.411692
63 1 0.582611 0.756418 0.246806
132 1 0.503796 0.838093 0.329509
136 1 0.588658 0.914673 0.415231
70 1 0.750595 0.914101 0.251584
71 1 0.907573 0.738323 0.24939
140 1 0.833195 0.830936 0.332406
141 1 0.747932 0.751059 0.410885
144 1 0.918663 0.91357 0.409345
74 1 0.00310693 0.16382 0.498328
75 1 0.164651 0.00572295 0.50888
145 1 0.00272641 -0.000204736 0.681634
148 1 0.173201 0.167596 0.673821
79 1 0.246361 0.0862647 0.587748
82 1 0.338294 0.159576 0.505342
153 1 0.332516 -0.00617284 0.671232
83 1 0.50326 -0.000367682 0.49587
87 1 0.579288 0.0852226 0.581457
90 1 0.673563 0.161769 0.493595
156 1 0.495199 0.164864 0.666769
161 1 0.666829 -0.000745282 0.658762
91 1 0.835308 -0.00809877 0.503586
95 1 0.918299 0.0746941 0.585084
164 1 0.841422 0.172192 0.661499
78 1 0.0860758 0.247545 0.588417
99 1 0.170205 0.32431 0.504042
169 1 -0.00597131 0.326743 0.670347
86 1 0.415957 0.249735 0.583102
103 1 0.255002 0.415055 0.578873
177 1 0.339218 0.338726 0.667433
107 1 0.498764 0.330153 0.507061
111 1 0.592319 0.420252 0.586691
185 1 0.673311 0.327674 0.660589
94 1 0.755441 0.242022 0.579111
115 1 0.835173 0.333318 0.499247
119 1 0.909652 0.413297 0.586298
98 1 -0.00312511 0.497342 0.503947
102 1 0.0860885 0.579896 0.58247
123 1 0.170191 0.669052 0.503493
172 1 0.165901 0.497275 0.661723
193 1 0.00324987 0.663416 0.663252
106 1 0.337746 0.499465 0.498889
110 1 0.419338 0.591539 0.582159
201 1 0.337065 0.668565 0.667732
114 1 0.661829 0.502224 0.490755
131 1 0.499383 0.674965 0.497966
180 1 0.509487 0.505781 0.670886
209 1 0.666191 0.663448 0.664099
118 1 0.7449 0.581295 0.578406
139 1 0.833308 0.669311 0.495937
188 1 0.831843 0.499228 0.665136
122 1 0.0044011 0.832582 0.50293
126 1 0.0788433 0.915427 0.590443
196 1 0.162882 0.832787 0.669713
127 1 0.252268 0.75323 0.586385
130 1 0.327548 0.833267 0.50088
134 1 0.413684 0.913532 0.581591
135 1 0.583669 0.744728 0.586501
138 1 0.672847 0.832945 0.498795
204 1 0.496208 0.831503 0.668662
142 1 0.74824 0.913382 0.584109
143 1 0.919352 0.753167 0.580367
212 1 0.834118 0.831371 0.666358
146 1 0.00352383 0.167576 0.837766
147 1 0.167702 0.00250594 0.835946
149 1 0.0869137 0.088198 0.751849
151 1 0.254601 0.0880812 0.916984
154 1 0.340677 0.169726 0.838083
157 1 0.416505 0.0771681 0.756511
155 1 0.504131 0.00402143 0.83133
159 1 0.587229 0.080532 0.91172
162 1 0.671012 0.159043 0.82399
163 1 0.835176 -0.00510975 0.83438
165 1 0.754598 0.0784827 0.746731
167 1 0.920505 0.0804745 0.921017
150 1 0.0846855 0.256221 0.91902
171 1 0.170073 0.338075 0.833478
173 1 0.0827171 0.416747 0.746878
152 1 0.260505 0.25243 0.75342
158 1 0.423578 0.256658 0.920687
175 1 0.249813 0.423459 0.924723
181 1 0.423698 0.425184 0.747017
160 1 0.586325 0.252262 0.745641
179 1 0.502798 0.341896 0.826676
183 1 0.583706 0.4232 0.906158
166 1 0.748914 0.246301 0.905594
168 1 0.914228 0.245936 0.757576
187 1 0.831534 0.334136 0.834868
189 1 0.750621 0.416019 0.749629
191 1 0.912691 0.421474 0.91477
170 1 0.00158837 0.506972 0.834924
174 1 0.0824537 0.582072 0.919975
195 1 0.167087 0.661321 0.840323
176 1 0.253045 0.580835 0.74726
178 1 0.332385 0.495223 0.828511
182 1 0.40938 0.58111 0.914269
184 1 0.588181 0.587918 0.750526
186 1 0.674144 0.503027 0.826389
203 1 0.497751 0.667073 0.831902
190 1 0.754197 0.585303 0.909623
192 1 0.917944 0.586212 0.746679
211 1 0.836207 0.667878 0.822527
194 1 0.00107966 0.823291 0.835395
197 1 0.0899249 0.744065 0.750773
198 1 0.079079 0.912067 0.91595
199 1 0.25189 0.753872 0.916045
200 1 0.252211 0.909501 0.760299
202 1 0.334989 0.833006 0.836984
205 1 0.415821 0.756124 0.749469
206 1 0.415985 0.926723 0.916201
207 1 0.578944 0.747145 0.913214
208 1 0.583007 0.916506 0.75009
210 1 0.663286 0.832646 0.831734
213 1 0.746981 0.747866 0.751186
214 1 0.749124 0.914055 0.919276
215 1 0.913535 0.751115 0.921535
216 1 0.920431 0.909701 0.756626
ITEM: TIMESTEP
2400
ITEM: NUMBER OF ATOMS
216
ITEM: BOX BOUNDS pp pp pp
0.0000000000000000e+00 1.6427280000000000e+01
0.0000000000000000e+00 1.6427280000000000e+01
0.0000000000000000e+00 1.6427280000000000e+01
ITEM: ATOMS id type xs ys zs
1 1 0.00247504 0.00190122 0.000120785
2 1 -0.00210325 0.166981 0.168986
3 1 0.167444 0.00286453 0.166707
4 1 0.171469 0.164168 0.00990495
5 1 0.0798799 0.08472 0.0833817
9 1 0.333198 -0.00418236 -0.00206267
10 1 0.340467 0.165767 0.161776
13 1 0.415232 0.0752968 0.0837172
11 1 0.504848 -0.00411687 0.168628
12 1 0.490527 0.164255 0.000927005
17 1 0.665223 0.00948907 -0.00144739
18 1 0.678571 0.169252 0.171136
19 1 0.838629 -0.0112399 0.162126
20 1 0.832275 0.167635 -0.00228142
21 1 0.757624 0.0836321 0.0898667
25 1 0.0041351 0.33422 -0.00305349
27 1 0.17538 0.335026 0.163733
29 1 0.0825477 0.418765 0.0808227
8 1 0.254495 0.24777 0.0832759
33 1 0.332218 0.332518 -0.00549838
37 1 0.41362 0.407396 0.0824339
16 1 0.591278 0.243114 0.0897303
35 1 0.502866 0.331516 0.163903
41 1 0.673216 0.330593 0.0118162
24 1 0.91671 0.247305 0.0810224
43 1 0.833276 0.32777 0.163721
45 1 0.750414 0.418209 0.0898219
26 1 0.00382834 0.504801 0.169082
28 1 0.169186 0.504745 -0.00700372
49 1 0.00594452 0.655372 -0.00125314
51 1 0.171037 0.660351 0.169529
32 1 0.251851 0.578866 0.0762232
34 1 0.329917 0.498004 0.160014
57 1 0.336357 0.669522 -0.000966979
36 1 0.49752 0.493108 -0.00174928
40 1 0.581279 0.585392 0.083718
42 1 0.666082 0.506062 0.170009
59 1 0.504595 0.664878 0.17036
65 1 0.666287 0.673098 -0.00266668
44 1 0.836953 0.499128 0.0012373
48 1 0.914402 0.587925 0.0914536
67 1 0.839286 0.675863 0.171879
50 1 0.00585766 0.834867 0.168558
52 1 0.17001 0.831501 0.00127998
53 1 0.0927363 0.744826 0.0788005
56 1 0.246008 0.917224 0.0862154
58 1 0.335853 0.843439 0.168348
61 1 0.416341 0.750915 0.0920992
60 1 0.506574 0.833309 0.00890488
64 1 0.592257 0.915889 0.0846572
66 1 0.667994 0.835138 0.170995
68 1 0.834025 0.837695 -0.000431766
69 1 0.753882 0.757785 0.0868857
72 1 0.926692 0.914886 0.077471
73 1 -0.00448213 0.00761693 0.334918
76 1 0.16255 0.163063 0.335641
77 1 0.0853293 0.0811583 0.421231
7 1 0.249163 0.0917874 0.245934
81 1 0.333116 0.0011483 0.330526
85 1 0.415232 0.0865991 0.421685
15 1 0.590815 0.0871414 0.249636
84 1 0.502418 0.159938 0.333514
89 1 0.665998 -0.000429535 0.333417
23 1 0.913736 0.0794256 0.251131
92 1 0.823063 0.159096 0.330038
93 1 0.741082 0.0811714 0.416812
6 1 0.0914108 0.251937 0.247714
97 1 -0.00831689 0.328289 0.328615
101 1 0.0749141 0.412092 0.41097
14 1 0.423791 0.250996 0.252989
31 1 0.248731 0.419749 0.246631
80 1 0.248017 0.254636 0.418834
105 1 0.332448 0.3391 0.328189
109 1 0.413894 0.416426 0.413235
39 1 0.584623 0.416413 0.25016
88 1 0.585258 0.244279 0.41539
113 1 0.663416 0.340165 0.333848
22 1 0.746073 0.253748 0.253379
47 1 0.917403 0.410608 0.24159
96 1 0.905602 0.24413 0.413209
117 1 0.749666 0.411749 0.423018
30 1 0.0826606 0.586806 0.252779
100 1 0.164597 0.496731 0.330573
121 1 -0.00216202 0.66755 0.33067
38 1 0.414502 0.581048 0.254335
104 1 0.248412 0.580959 0.415091
129 1 0.328595 0.667147 0.332074
108 1 0.504694 0.500507 0.333695
112 1 0.585402 0.580535 0.4187
137 1 0.662808 0.670888 0.332623
46 1 0.753236 0.589156 0.253434
116 1 0.833964 0.496421 0.332555
120 1 0.91666 0.580166 0.410187
54 1 0.08217 0.929411 0.254959
124 1 0.165914 0.83633 0.330465
125 1 0.0780688 0.750497 0.416057
55 1 0.249958 0.754243 0.246996
62 1 0.419824 0.91326 0.254961
128 1 0.253364 0.911854 0.410433
133 1 0.418804 0.743902 0.422534
63 1 0.582671 0.746831 0.250129
132 1 0.497592 0.826097 0.336933
136 1 0.575277 0.918097 0.414256
70 1 0.750133 0.918674 0.251445
71 1 0.917401 0.758573 0.250993
140 1 0.83705 0.841959 0.332124
141 1 0.755534 0.758722 0.416795
144 1 0.912439 0.918647 0.420844
74 1 0.00463413 0.170416 0.503823
75 1 0.167944 -0.0091616 0.494925
145 1 0.000555394 -0.00439753 0.659104
148 1 0.15838 0.157406 0.664143
79 1 0.248868 0.0896439 0.577469
82 1 0.332836 0.173594 0.495454
153 1 0.331709 0.00977945 0.66485
83 1 0.496533 0.000846369 0.500383
87 1 0.590734 0.0790822 0.583439
90 1 0.670353 0.164517 0.502054
156 1 0.506955 0.168146 0.66762
161 1 0.670696 -0.00516646 0.671313
91 1 0.825725 0.00606652 0.492387
95 1 0.914272 0.0859337 0.585937
164 1 0.831046 0.166748 0.669542
78 1 0.0914425 0.256912 0.585063
99 1 0.167712 0.340093 0.495542
169 1 -0.000693972 0.341144 0.662724
86 1 0.416057 0.250092 0.578822
103 1 0.245358 0.412463 0.590978
177 1 0.338779 0.328351 0.670559
107 1 0.496429 0.331068 0.49001
111 1 0.576913 0.410245 0.579104
185 1 0.663307 0.337432 0.665147
94 1 0.749125 0.252699 0.58822
115 1 0.831414 0.329412 0.503945
119 1 0.922291 0.420033 0.574497
98 1 0.00254391 0.503232 0.499618
102 1 0.0814994 0.581348 0.583541
123 1 0.166638 0.666263 0.493294
172 1 0.170279 0.501814 0.668745
193 1 0.00162244 0.66182 0.673729
106 1 0.326405 0.501364 0.498791
110 1 0.415279 0.580867 0.58076
201 1 0.335242 0.66971 0.666078
114 1 0.667507 0.49996 0.504548
131 1 0.504224 0.66139 0.49723
180 1 0.491689 0.493795 0.664899
209 1 0.659374 0.668964 0.67123
118 1 0.751942 0.585317 0.588153
139 1 0.837581 0.66588 0.498816
188 1 0.837149 0.498366 0.666366
122 1 -0.0033204 0.833781 0.498268
126 1 0.0854347 0.917514 0.578603
196 1 0.171887 0.834139 0.662702
127 1 0.252258 0.749466 0.578311
130 1 0.333516 0.834684 0.499524
134 1 0.419156 0.920161 0.583501
135 1 0.583612 0.754404 0.582308
138 1 0.665575 0.843105 0.496299
204 1 0.500559 0.831304 0.670956
142 1 0.752152 0.91968 0.575551
143 1 0.918342 0.74245 0.58751
212 1 0.832652 0.83734 0.665056
146 1 -0.00403056 0.162199 0.830429
147 1 0.16547 0.0039442 0.8344
149 1 0.078763 0.0807469 0.749898
151 1 0.247887 0.0834597 0.91909
154 1 0.324044 0.166527 0.830533
157 1 0.419143 0.0929973 0.749969
155 1 0.498588 -0.00373602 0.836444
159 1 0.57727 0.0875403 0.921061
162 1 0.662083 0.175588 0.847278
163 1 0.832561 -0.000458028 0.83398
165 1 0.749104 0.0891753 0.756364
167 1 0.912081 0.0863446 0.916654
150 1 0.0840015 0.243267 0.915815
171 1 0.168122 0.333516 0.834954
173 1 0.0860504 0.422254 0.750349
152 1 0.237636 0.246293 0.742612
158 1 0.408133 0.247209 0.912422
175 1 0.256341 0.416906 0.91152
181 1 0.412253 0.411491 0.751996
160 1 0.585045 0.2515 0.751587
179 1 0.492459 0.329942 0.837366
183 1 0.587756 0.41056 0.920523
166 1 0.754407 0.254205 0.923062
168 1 0.915998 0.254311 0.745157
187 1 0.834938 0.331965 0.833323
189 1 0.749843 0.414515 0.746934
191 1 0.916701 0.410207 0.915335
170 1 0.00307465 0.498325 0.833568
174 1 0.0790426 0.577073 0.911229
195 1 0.159181 0.668083 0.838235
176 1 0.248462 0.586369 0.753455
178 1 0.337465 0.499004 0.834464
182 1 0.418905 0.582935 0.920359
184 1 0.578935 0.582255 0.743575
186 1 0.66235 0.500026 0.831378
203 1 0.500506 0.664696 0.828027
190 1 0.745928 0.579599 0.917867
192 1 0.918065 0.577317 0.754386
211 1 0.832455 0.663478 0.839008
194 1 -0.00680872 0.837742 0.834909
197 1 0.077191 0.752636 0.749647
198 1 0.0807608 0.913648 0.919471
199 1 0.252016 0.746346 0.91735
200 1 0.246982 0.918761 0.749067
202 1 0.330698 0.825154 0.829755
205 1 0.412991 0.747462 0.747968
206 1 0.415643 0.9084 0.91541
207 1 0.583029 0.755416 0.91853
208 1 0.583125 0.917456 0.749128
210 1 0.673324 0.833732 0.8381
213 1 0.750516 0.746505 0.747039
214 1 0.74726 0.919906 0.918705
215 1 0.913151 0.74971 0.913901
216 1 0.919741 0.921726 0.74922
ITEM: TIMESTEP
2500
ITEM: NUMBER OF ATOMS
216
ITEM: BOX BOUNDS pp pp pp
0.0000000000000000e+00 1.6427280000000000e+01
0.0000000000000000e+00 1.6427280000000000e+01
0.0000000000000000e+00 1.6427280000000000e+01
ITEM: ATOMS id type xs ys zs
1 1 0.00150402 -0.00226368 -0.00136875
2 1 0.00273339 0.161346 0.163901
3 1 0.174057 -0.00310794 0.169399
4 1 0.1692 0.159779 -0.00877497
5 1 0.0947269 0.0755642 0.0812314
9 1 0.329735 -0.00147253 0.00578449
10 1 0.321768 0.168147 0.165686
13 1 0.415272 0.0860888 0.0865236
11 1 0.49386 -0.00317071 0.170095
12 1 0.509691 0.161146 0.000334462
17 1 0.670079 -0.0140967 0.00178849
18 1 0.662683 0.167502 0.165269
19 1 0.834787 0.0075055 0.170412
20 1 0.832517 0.169467 0.00126344
21 1 0.745612 0.0854117 0.0784407
25 1 -0.00476203 0.328835 0.000304826
27 1 0.165465 0.326048 0.163963
29 1 0.0882723 0.414349 0.0813582
8 1 0.246742 0.244261 0.0790898
33 1 0.335269 0.329296 0.00275397
37 1 0.417988 0.416572 0.0782467
16 1 0.580374 0.254783 0.084198
35 1 0.501156 0.339919 0.168382
41 1 0.665821 0.332772 -0.00100089
24 1 0.912822 0.253565 0.0806552
43 1 0.830367 0.335999 0.170273
45 1 0.749311 0.413528 0.0838294
26 1 -0.00208797 0.496781 0.163795
28 1 0.167123 0.500614 -0.00490005
49 1 -0.00155813 0.671249 -0.00583824
51 1 0.166853 0.667903 0.163858
32 1 0.253629 0.588623 0.0836606
34 1 0.335931 0.497016 0.165793
57 1 0.333441 0.667957 -0.000959564
36 1 0.499234 0.505591 0.008282
40 1 0.58547 0.582026 0.0913516
42 1 0.670388 0.492017 0.166241
59 1 0.503521 0.67394 0.165957
65 1 0.670685 0.664398 0.00281698
44 1 0.833011 0.502119 0.00219158
48 1 0.921207 0.581764 0.077862
67 1 0.839858 0.666198 0.163667
50 1 -0.00451614 0.841123 0.171874
52 1 0.177516 0.838757 -0.0029465
53 1 0.0850221 0.759861 0.0814737
56 1 0.25897 0.913233 0.0879847
58 1 0.333998 0.824612 0.169181
61 1 0.422596 0.744481 0.0763381
60 1 0.499022 0.829569 -0.00738247
64 1 0.582171 0.908245 0.084036
66 1 0.670083 0.827317 0.168593
68 1 0.83953 0.835483 0.00131625
69 1 0.753578 0.743359 0.0855703
72 1 0.915677 0.92293 0.084768
73 1 0.00762063 -0.00160061 0.334319
76 1 0.169089 0.170769 0.327749
77 1 0.0841995 0.0858033 0.405773
7 1 0.252999 0.076106 0.253385
81 1 0.337383 -2.41948e-05 0.339927
85 1 0.42148 0.0885453 0.417548
15 1 0.583283 0.0824034 0.249852
84 1 0.5004 0.173636 0.334577
89 1 0.67301 -0.00144056 0.341423
23 1 0.920149 0.0875873 0.25555
92 1 0.834015 0.172597 0.335314
93 1 0.751716 0.0840274 0.420777
6 1 0.0764118 0.249117 0.24575
97 1 0.00377169 0.344709 0.329674
101 1 0.0849773 0.428372 0.416937
14 1 0.411239 0.251951 0.243583
31 1 0.247764 0.414824 0.242729
80 1 0.250216 0.248226 0.413316
105 1 0.328772 0.33368 0.331516
109 1 0.419612 0.418602 0.412607
39 1 0.584013 0.41688 0.253061
88 1 0.581722 0.261567 0.417524
113 1 0.672149 0.328354 0.328298
22 1 0.751825 0.24482 0.246694
47 1 0.914616 0.424848 0.253846
96 1 0.915802 0.267768 0.416717
117 1 0.751821 0.418345 0.411745
30 1 0.0806107 0.584003 0.240098
100 1 0.165802 0.502555 0.323085
121 1 0.00495049 0.664089 0.329914
38 1 0.423217 0.581231 0.243255
104 1 0.246728 0.580008 0.409983
129 1 0.340207 0.662433 0.341642
108 1 0.502904 0.497578 0.337167
112 1 0.581435 0.584179 0.417353
137 1 0.666537 0.657335 0.337651
46 1 0.754795 0.58114 0.24433
116 1 0.838928 0.504845 0.334971
120 1 0.925 0.588432 0.421603
54 1 0.0930953 0.914944 0.251748
124 1 0.173463 0.834887 0.336336
125 1 0.0838341 0.750511 0.411723
55 1 0.254139 0.74568 0.25331
62 1 0.410929 0.91017 0.253455
128 1 0.248506 0.922495 0.425221
133 1 0.416401 0.753798 0.414372
63 1 0.586426 0.752505 0.252808
132 1 0.504882 0.834534 0.331036
136 1 0.589402 0.919935 0.425843
70 1 0.750523 0.913039 0.250232
71 1 0.918589 0.744362 0.255146
140 1 0.837628 0.828396 0.331714
141 1 0.748655 0.74506 0.420995
144 1 0.917356 0.92224 0.416566
74 1 -0.0053185 0.161077 0.490877
75 1 0.161912 0.00716607 0.495768
145 1 -0.000475277 0.00365047 0.669976
148 1 0.167418 0.174623 0.661528
79 1 0.249565 0.0828995 0.580463
82 1 0.331164 0.163007 0.49863
153 1 0.332711 -0.00976845 0.658481
83 1 0.501315 0.00101919 0.499921
87 1 0.570562 0.0876959 0.585589
90 1 0.661533 0.171753 0.500582
156 1 0.485105 0.171078 0.667404
161 1 0.65859 0.00638705 0.665444
91 1 0.82828 -0.00275012 0.506198
95 1 0.909673 0.0794389 0.588202
164 1 0.827385 0.176079 0.668344
78 1 0.0814533 0.243528 0.57776
99 1 0.159886 0.331577 0.49681
169 1 -0.00253164 0.329932 0.66343
86 1 0.405871 0.249759 0.585826
103 1 0.242972 0.418402 0.574579
177 1 0.322177 0.33817 0.660708
107 1 0.499717 0.338343 0.513572
111 1 0.58462 0.422909 0.590908
185 1 0.667224 0.33031 0.673542
94 1 0.744395 0.257537 0.580326
115 1 0.829455 0.344321 0.503741
119 1 0.912193 0.417876 0.585787
98 1 -0.0076904 0.498184 0.500703
102 1 0.0747237 0.585119 0.583337
123 1 0.164609 0.661183 0.506234
172 1 0.15309 0.497685 0.659647
193 1 -0.00717144 0.670982 0.657961
106 1 0.334343 0.497702 0.496069
110 1 0.418314 0.581029 0.585985
201 1 0.334053 0.671924 0.667034
114 1 0.662806 0.495576 0.494894
131 1 0.494832 0.665711 0.502616
180 1 0.503534 0.500865 0.676127
209 1 0.668716 0.662477 0.670204
118 1 0.746407 0.585875 0.587217
139 1 0.833922 0.660907 0.50479
188 1 0.832045 0.497749 0.668464
122 1 0.00273599 0.840255 0.501131
126 1 0.0819595 0.926799 0.583634
196 1 0.159417 0.834681 0.659197
127 1 0.246867 0.749 0.586422
130 1 0.331894 0.831613 0.495226
134 1 0.421537 0.907913 0.576034
135 1 0.579737 0.742483 0.589941
138 1 0.661811 0.827393 0.517647
204 1 0.500939 0.833139 0.664695
142 1 0.743981 0.921823 0.594457
143 1 0.915663 0.759186 0.582604
212 1 0.830256 0.834571 0.673647
146 1 0.00263438 0.166243 0.825483
147 1 0.161753 -0.00142909 0.822797
149 1 0.0871662 0.0836661 0.738511
151 1 0.249782 0.0762779 0.912542
154 1 0.338997 0.160745 0.838231
157 1 0.411161 0.0718483 0.750936
155 1 0.504859 0.00597915 0.834888
159 1 0.592189 0.0759765 0.916932
162 1 0.668046 0.165169 0.833918
163 1 0.837746 0.000601582 0.833885
165 1 0.750661 0.0808076 0.74307
167 1 0.922197 0.0829408 0.917079
150 1 0.0821211 0.249922 0.915349
171 1 0.167437 0.331857 0.826054
173 1 0.0743824 0.417344 0.751786
152 1 0.25922 0.244367 0.748278
158 1 0.417662 0.245905 0.920616
175 1 0.249427 0.408908 0.919451
181 1 0.410918 0.414525 0.74967
160 1 0.577994 0.245979 0.752954
179 1 0.492598 0.327461 0.827072
183 1 0.57699 0.415884 0.921924
166 1 0.747255 0.248913 0.920664
168 1 0.911794 0.248332 0.757541
187 1 0.828065 0.331022 0.840836
189 1 0.748155 0.414338 0.759744
191 1 0.922365 0.422091 0.913257
170 1 -0.000941057 0.506036 0.835646
174 1 0.0911441 0.589243 0.916493
195 1 0.172874 0.66797 0.833647
176 1 0.250428 0.574729 0.746181
178 1 0.333601 0.491694 0.836225
182 1 0.41542 0.582644 0.909677
184 1 0.588864 0.582215 0.759235
186 1 0.665328 0.503311 0.839528
203 1 0.499763 0.667229 0.833263
190 1 0.753848 0.587329 0.919367
192 1 0.919774 0.591015 0.748332
211 1 0.832669 0.668222 0.833897
194 1 0.00403044 0.838461 0.823214
197 1 0.0804338 0.748889 0.748537
198 1 0.0867538 0.920526 0.911993
199 1 0.251786 0.756005 0.917874
200 1 0.250013 0.91168 0.74549
202 1 0.341222 0.835696 0.831574
205 1 0.422549 0.749156 0.754635
206 1 0.418546 0.918739 0.919326
207 1 0.588283 0.746725 0.918341
208 1 0.578962 0.91497 0.753108
210 1 0.660677 0.83508 0.833142
213 1 0.742565 0.748703 0.7557
214 1 0.757814 0.910332 0.913592
215 1 0.921344 0.756164 0.911194
216 1 0.916097 0.917924 0.748638
ITEM: TIMESTEP
2600
ITEM: NUMBER OF ATOMS
216
ITEM: BOX BOUNDS pp pp pp
0.0000000000000000e+00 1.6427280000000000e+01
0.0000000000000000e+00 1.6427280000000000e+01
0.0000000000000000e+00 1.6427280000000000e+01
ITEM: ATOMS id type xs ys zs
1 1 -0.00260419 -0.000954814 0.00118273
2 1 -0.00214088 0.173329 0.166152
3 1 0.160594 -0.00135386 0.158707
4 1 0.167757 0.173972 0.00900151
5 1 0.075984 0.0847678 0.0868079
9 1 0.336011 -0.00314339 -0.0042055
10 1 0.3378 0.163272 0.169823
13 1 0.420091 0.0812243 0.0818874
11 1 0.509879 -0.000310869 0.168583
12 1 0.493781 0.17405 -0.00383192
17 1 0.661797 0.0153118 -0.00275824
18 1 0.670639 0.171952 0.172981
19 1 0.835396 -0.00946808 0.164938
20 1 0.831463 0.166011 -0.00114298
21 1 0.751388 0.0827889 0.0887
25 1 -0.000717561 0.335227 -0.000178639
27 1 0.170339 0.336702 0.169863
29 1 0.0807344 0.417184 0.0847992
8 1 0.256018 0.258623 0.0859874
33 1 0.329348 0.33661 0.000740281
37 1 0.413327 0.413727 0.0875202
16 1 0.585956 0.245159 0.080451
35 1 0.498469 0.329491 0.162589
41 1 0.674747 0.326475 0.00151518
24 1 0.916816 0.244828 0.0828203
43 1 0.836134 0.333047 0.163044
45 1 0.750804 0.415858 0.0807438
26 1 0.00226293 0.506501 0.17541
28 1 0.166803 0.499847 -0.00228258
49 1 0.00204155 0.660461 0.00238354
51 1 0.167536 0.66383 0.172845
32 1 0.246062 0.579573 0.0836438
34 1 0.333829 0.498782 0.164519
57 1 0.332199 0.668549 0.00230678
36 1 0.498092 0.494928 0.000791793
40 1 0.587653 0.582101 0.0739913
42 1 0.661841 0.500466 0.162268
59 1 0.499949 0.660306 0.162907
65 1 0.66856 0.665519 0.000462412
44 1 0.833591 0.499444 -0.00120579
48 1 0.915041 0.586737 0.0887713
67 1 0.829727 0.669721 0.168118
50 1 -0.00138423 0.825702 0.165874
52 1 0.167469 0.835826 -0.00393982
53 1 0.08134 0.740427 0.0855942
56 1 0.242482 0.919577 0.0771362
58 1 0.336431 0.844509 0.157333
61 1 0.414313 0.7517 0.091011
60 1 0.500436 0.831097 0.00984891
64 1 0.588491 0.921089 0.0853393
66 1 0.666447 0.834664 0.168618
68 1 0.829197 0.830639 0.0045005
69 1 0.744739 0.75491 0.084349
72 1 0.918353 0.911709 0.0805122
73 1 -0.00385475 -0.00133203 0.334148
76 1 0.163928 0.160838 0.334502
77 1 0.0814728 0.0750814 0.42201
7 1 0.245636 0.083077 0.243352
81 1 0.331723 -0.00293392 0.325323
85 1 0.408485 0.0698075 0.417855
15 1 0.584503 0.0847022 0.25335
84 1 0.495558 0.157712 0.33832
89 1 0.660163 0.0050498 0.331259
23 1 0.916376 0.0819682 0.246662
92 1 0.828404 0.163803 0.325698
93 1 0.754036 0.0860507 0.411867
6 1 0.0889103 0.251022 0.254448
97 1 -8.45713e-05 0.327817 0.327159
101 1 0.0783039 0.413768 0.418875
14 1 0.417835 0.24451 0.253554
31 1 0.25083 0.41852 0.258749
80 1 0.247751 0.248158 0.418938
105 1 0.334978 0.331655 0.333996
109 1 0.413076 0.419063 0.422366
39 1 0.579526 0.420367 0.247642
88 1 0.585278 0.243915 0.414759
113 1 0.66296 0.334768 0.335798
22 1 0.751456 0.258195 0.253136
47 1 0.917367 0.41355 0.244415
96 1 0.913547 0.242694 0.414903
117 1 0.749322 0.413389 0.421948
30 1 0.0874527 0.585458 0.26665
100 1 0.16676 0.498987 0.342477
121 1 -0.0089633 0.666331 0.33363
38 1 0.416418 0.583543 0.255574
104 1 0.252901 0.58392 0.4215
129 1 0.330738 0.675801 0.326664
108 1 0.499125 0.501941 0.332205
112 1 0.58191 0.577677 0.416252
137 1 0.66135 0.670746 0.330752
46 1 0.745326 0.583105 0.248444
116 1 0.831424 0.493949 0.333215
120 1 0.914659 0.580385 0.413171
54 1 0.0742621 0.919288 0.245664
124 1 0.159782 0.834112 0.325829
125 1 0.0810803 0.747081 0.414753
55 1 0.247685 0.757717 0.244228
62 1 0.424755 0.922333 0.248832
128 1 0.251667 0.912366 0.40988
133 1 0.417246 0.74716 0.420034
63 1 0.582043 0.748679 0.243503
132 1 0.495632 0.829649 0.332203
136 1 0.575893 0.917618 0.410862
70 1 0.744942 0.920842 0.254079
71 1 0.916976 0.746821 0.246667
140 1 0.833556 0.836713 0.328505
141 1 0.751755 0.750014 0.413951
144 1 0.916194 0.918318 0.415812
74 1 0.0096533 0.174283 0.503138
75 1 0.167491 -0.00460688 0.499386
145 1 0.00319696 -0.00350896 0.670632
148 1 0.161821 0.165458 0.674052
79 1 0.242144 0.0870056 0.582704
82 1 0.338633 0.168223 0.499199
153 1 0.338266 0.00895476 0.671707
83 1 0.497557 0.000972328 0.501718
87 1 0.589233 0.0757884 0.583671
90 1 0.670106 0.16334 0.500009
156 1 0.513456 0.163766 0.664237
161 1 0.672164 -0.00803179 0.664578
91 1 0.837049 0.0030289 0.49347
95 1 0.92253 0.0823253 0.580642
164 1 0.834758 0.161244 0.663308
78 1 0.0863806 0.259557 0.592579
99 1 0.172819 0.335008 0.507283
169 1 0.000248573 0.338924 0.669236
86 1 0.424531 0.249594 0.584031
103 1 0.261367 0.412978 0.589539
177 1 0.340886 0.329862 0.673131
107 1 0.495534 0.329372 0.490783
111 1 0.582516 0.415309 0.578696
185 1 0.661343 0.332554 0.659791
94 1 0.756875 0.247285 0.585837
115 1 0.833538 0.329856 0.503209
119 1 0.914377 0.416023 0.574537
98 1 0.000877558 0.504203 0.499657
102 1 0.0875043 0.582401 0.583578
123 1 0.169557 0.667956 0.501385
172 1 0.1707 0.49958 0.665463
193 1 0.0111452 0.664532 0.668153
106 1 0.331927 0.49822 0.50398
110 1 0.416241 0.583538 0.58309
201 1 0.33218 0.662897 0.665145
114 1 0.666649 0.509251 0.505772
131 1 0.508032 0.670207 0.497622
180 1 0.499653 0.497386 0.664647
209 1 0.664898 0.674046 0.666522
118 1 0.748389 0.585858 0.583369
139 1 0.836201 0.668575 0.499834
188 1 0.836823 0.502644 0.663864
122 1 -0.00476258 0.83029 0.505063
126 1 0.082729 0.911744 0.585468
196 1 0.168168 0.832838 0.667184
127 1 0.255044 0.755875 0.578685
130 1 0.339405 0.834135 0.502958
134 1 0.415132 0.921375 0.588361
135 1 0.584374 0.749931 0.583599
138 1 0.667191 0.840257 0.491678
204 1 0.498449 0.829379 0.666399
142 1 0.758156 0.919413 0.574443
143 1 0.91582 0.741531 0.587591
212 1 0.839566 0.836935 0.660255
146 1 -0.00187698 0.162721 0.838832
147 1 0.167842 0.00547923 0.842658
149 1 0.0776017 0.0824877 0.755558
151 1 0.254428 0.0916705 0.917878
154 1 0.330945 0.17481 0.827426
157 1 0.425498 0.0959832 0.751449
155 1 0.497231 -0.0064081 0.828522
159 1 0.573258 0.0850444 0.912712
162 1 0.662783 0.165167 0.832585
163 1 0.829405 -0.00549989 0.831005
165 1 0.743814 0.0803743 0.755036
167 1 0.909686 0.0807968 0.920157
150 1 0.0835483 0.249007 0.920949
171 1 0.165692 0.336706 0.836498
173 1 0.0859862 0.419885 0.748597
152 1 0.246967 0.256293 0.748715
158 1 0.414075 0.256787 0.914064
175 1 0.250783 0.423344 0.916675
181 1 0.421526 0.420694 0.750343
160 1 0.585052 0.254041 0.747276
179 1 0.503767 0.338446 0.834408
183 1 0.59182 0.4136 0.913899
166 1 0.750752 0.247345 0.913842
168 1 0.918583 0.248529 0.744632
187 1 0.833439 0.327903 0.827628
189 1 0.748421 0.415571 0.743703
191 1 0.912474 0.410549 0.913505
170 1 0.00398726 0.495783 0.829466
174 1 0.0739212 0.574628 0.912951
195 1 0.159997 0.667449 0.834262
176 1 0.250057 0.587563 0.75196
178 1 0.331743 0.504313 0.832471
182 1 0.414127 0.582081 0.92184
184 1 0.575416 0.587428 0.742911
186 1 0.67167 0.503131 0.830094
203 1 0.49915 0.666583 0.839327
190 1 0.74996 0.585019 0.915422
192 1 0.92159 0.579885 0.752096
211 1 0.836105 0.668178 0.83506
194 1 -0.00223465 0.835343 0.838904
197 1 0.08554 0.752471 0.746456
198 1 0.0830036 0.913601 0.920529
199 1 0.247314 0.744475 0.91674
200 1 0.249442 0.922152 0.752394
202 1 0.326472 0.827872 0.836422
205 1 0.415351 0.747146 0.745213
206 1 0.420405 0.913 0.915193
207 1 0.578647 0.752426 0.914008
208 1 0.59005 0.913855 0.748136
210 1 0.668135 0.829622 0.834607
213 1 0.756602 0.754507 0.748692
214 1 0.741102 0.923419 0.92045
215 1 0.917901 0.7493 0.924243
216 1 0.919157 0.919116 0.748536
ITEM: TIMESTEP
2700
ITEM: NUMBER OF ATOMS
216
ITEM: BOX BOUNDS pp pp pp
0.0000000000000000e+00 1.6427280000000000e+01
0.0000000000000000e+00 1.6427280000000000e+01
0.0000000000000000e+00 1.6427280000000000e+01
ITEM: ATOMS id type xs ys zs
1 1 0.00179644 -0.00023897 -9.84055e-05
2 1 -0.000357054 0.167454 0.170807
3 1 0.17037 0.00233432 0.173516
4 1 0.16002 0.167791 -0.00172057
5 1 0.0799289 0.0844897 0.0843919
9 1 0.324734 0.000790234 0.00505666
10 1 0.327889 0.174183 0.164344
13 1 0.413171 0.0907319 0.0806839
11 1 0.489055 0.00438051 0.164625
12 1 0.509434 0.165474 0.000395855
17 1 0.663179 -0.00824345 0.00111157
18 1 0.659338 0.159206 0.161809
19 1 0.825753 0.00417462 0.166935
20 1 0.835034 0.175458 -0.00106043
21 1 0.751251 0.0836538 0.0735107
25 1 -0.000311024 0.331994 0.0032263
27 1 0.160614 0.327305 0.171155
29 1 0.0837706 0.415094 0.0854539
8 1 0.244748 0.251262 0.0836419
33 1 0.338078 0.337151 0.0021321
37 1 0.415213 0.417992 0.0835361
16 1 0.582301 0.258764 0.0832692
35 1 0.494995 0.335681 0.167829
41 1 0.658249 0.339533 -0.00423638
24 1 0.915637 0.253805 0.090268
43 1 0.833142 0.329905 0.171313
45 1 0.74545 0.416406 0.0867617
26 1 -0.00549816 0.494473 0.166328
28 1 0.164348 0.50283 0.00775187
49 1 -0.00432185 0.665927 0.00142527
51 1 0.158326 0.664927 0.168983
32 1 0.254914 0.584319 0.0836619
34 1 0.332336 0.498225 0.171751
57 1 0.335887 0.666038 -0.00391293
36 1 0.501381 0.505808 5.29412e-05
40 1 0.579337 0.590277 0.0906647
42 1 0.661856 0.502825 0.166614
59 1 0.495672 0.671899 0.168205
65 1 0.662159 0.66421 -0.00343698
44 1 0.827362 0.498061 -0.00520443
48 1 0.911874 0.582428 0.0787723
67 1 0.833076 0.667413 0.164488
50 1 -0.00765222 0.838011 0.1718
52 1 0.162291 0.832864 0.00360893
53 1 0.0765124 0.75791 0.0844915
56 1 0.246434 0.913073 0.0880027
58 1 0.325014 0.825564 0.170633
61 1 0.409348 0.754727 0.0745701
60 1 0.493811 0.840991 -0.00997235
64 1 0.571912 0.915901 0.0821884
66 1 0.664245 0.834498 0.154061
68 1 0.832203 0.830395 -0.000356402
69 1 0.750523 0.743369 0.0805007
72 1 0.912409 0.919128 0.0854602
73 1 0.00342317 0.000504033 0.330609
76 1 0.164664 0.170491 0.334969
77 1 0.0850782 0.08562 0.411458
7 1 0.253424 0.0884387 0.258062
81 1 0.337294 0.00776447 0.339124
85 1 0.426362 0.0892777 0.413485
15 1 0.576585 0.0759348 0.243882
84 1 0.505168 0.166509 0.324533
89 1 0.672144 -0.000290504 0.323433
23 1 0.917044 0.0844374 0.251774
92 1 0.835495 0.16596 0.339532
93 1 0.752258 0.072048 0.415983
6 1 0.0792128 0.245888 0.248419
97 1 0.00197571 0.33212 0.343911
101 1 0.0953135 0.416945 0.416192
14 1 0.416807 0.253062 0.249378
31 1 0.248514 0.412231 0.24777
80 1 0.254037 0.251466 0.41758
105 1 0.339283 0.334542 0.340146
109 1 0.422386 0.416915 0.414192
39 1 0.585977 0.412335 0.252305
88 1 0.581702 0.248233 0.416864
113 1 0.669739 0.327564 0.329182
22 1 0.75093 0.241564 0.248581
47 1 0.917536 0.407666 0.256788
96 1 0.916663 0.247192 0.42134
117 1 0.748693 0.411927 0.417267
30 1 0.0768826 0.581816 0.244851
100 1 0.166943 0.505102 0.328362
121 1 0.00174844 0.661679 0.329296
38 1 0.41398 0.583266 0.251243
104 1 0.250155 0.580175 0.419022
129 1 0.333424 0.661669 0.336885
108 1 0.50038 0.499702 0.332837
112 1 0.580472 0.586323 0.414861
137 1 0.662409 0.66488 0.330169
46 1 0.747172 0.583319 0.249839
116 1 0.835157 0.501807 0.336571
120 1 0.919673 0.587196 0.420787
54 1 0.0843004 0.91672 0.247337
124 1 0.170217 0.835928 0.334801
125 1 0.0825611 0.744742 0.418362
55 1 0.244142 0.739125 0.253867
62 1 0.408017 0.920325 0.247897
128 1 0.253324 0.921436 0.421493
133 1 0.414362 0.76026 0.414934
63 1 0.58106 0.755785 0.248146
132 1 0.497145 0.841635 0.333472
136 1 0.586704 0.920231 0.409308
70 1 0.745659 0.912933 0.237921
71 1 0.915948 0.748454 0.248619
140 1 0.835203 0.833162 0.334882
141 1 0.752877 0.749541 0.416027
144 1 0.918762 0.917092 0.416816
74 1 -0.00199879 0.155483 0.501391
75 1 0.161937 0.00267971 0.505184
145 1 0.000268132 -0.0012869 0.667904
148 1 0.172751 0.165181 0.670049
79 1 0.256506 0.0775386 0.592035
82 1 0.33613 0.161949 0.501152
153 1 0.337215 -0.00767299 0.670728
83 1 0.499702 -0.000408389 0.495854
87 1 0.580495 0.0850699 0.58388
90 1 0.671895 0.160783 0.498918
156 1 0.497082 0.162908 0.671709
161 1 0.66698 0.00347969 0.665521
91 1 0.833453 -0.00805774 0.502585
95 1 0.917321 0.0758799 0.58441
164 1 0.836717 0.168247 0.665918
78 1 0.0859767 0.239073 0.583031
99 1 0.16963 0.331475 0.502263
169 1 0.00466298 0.325756 0.66661
86 1 0.416042 0.252926 0.588422
103 1 0.248334 0.419575 0.580549
177 1 0.334339 0.337915 0.665048
107 1 0.503022 0.334851 0.502431
111 1 0.587416 0.417701 0.584692
185 1 0.677259 0.331126 0.664434
94 1 0.751444 0.251404 0.577192
115 1 0.836708 0.33078 0.496334
119 1 0.926544 0.408417 0.589174
98 1 0.0040736 0.498726 0.505895
102 1 0.0834321 0.585327 0.586631
123 1 0.169531 0.666221 0.503117
172 1 0.171358 0.49897 0.672027
193 1 -0.00303956 0.670363 0.665137
106 1 0.336693 0.499418 0.498586
110 1 0.417649 0.585517 0.578545
201 1 0.331924 0.669486 0.667696
114 1 0.66769 0.494565 0.493906
131 1 0.498382 0.671851 0.491478
180 1 0.499704 0.502676 0.663468
209 1 0.666255 0.66081 0.658112
118 1 0.751516 0.581308 0.571972
139 1 0.834288 0.666202 0.49828
188 1 0.830342 0.498283 0.660187
122 1 0.00305935 0.837038 0.49677
126 1 0.0876871 0.920156 0.59244
196 1 0.166912 0.828866 0.673105
127 1 0.246056 0.749554 0.592057
130 1 0.325415 0.832195 0.501967
134 1 0.414446 0.915052 0.573008
135 1 0.582071 0.75202 0.583192
138 1 0.668781 0.828871 0.501187
204 1 0.502203 0.844804 0.662715
142 1 0.750333 0.907411 0.588365
143 1 0.916565 0.752228 0.580083
212 1 0.834319 0.827982 0.666279
146 1 0.00381605 0.170511 0.833249
147 1 0.160267 -0.00237833 0.83401
149 1 0.0865215 0.0849114 0.751517
151 1 0.247382 0.0826094 0.916959
154 1 0.338078 0.163394 0.835415
157 1 0.416423 0.0817835 0.751477
155 1 0.503507 0.0107067 0.836487
159 1 0.592194 0.0876365 0.91866
162 1 0.672075 0.170034 0.832505
163 1 0.84116 0.00575032 0.830446
165 1 0.754624 0.0845597 0.74508
167 1 0.920353 0.0901892 0.914099
150 1 0.0818838 0.257242 0.911817
171 1 0.171241 0.33507 0.835194
173 1 0.0835998 0.413117 0.75084
152 1 0.253579 0.24847 0.752062
158 1 0.419534 0.248067 0.918945
175 1 0.252362 0.416001 0.922132
181 1 0.417166 0.415083 0.744835
160 1 0.587098 0.243321 0.743345
179 1 0.499841 0.330445 0.828184
183 1 0.579387 0.421122 0.91271
166 1 0.748818 0.2548 0.916325
168 1 0.921355 0.254474 0.752006
187 1 0.838269 0.339525 0.840369
189 1 0.75661 0.413899 0.749067
191 1 0.921981 0.42177 0.921317
170 1 0.00209432 0.501243 0.835672
174 1 0.0836241 0.58763 0.925631
195 1 0.17082 0.664694 0.836014
176 1 0.252227 0.584247 0.754019
178 1 0.335913 0.494645 0.831683
182 1 0.418131 0.585832 0.912965
184 1 0.592282 0.585176 0.747305
186 1 0.668824 0.498 0.83105
203 1 0.503928 0.665615 0.824683
190 1 0.74535 0.579647 0.920713
192 1 0.919297 0.584217 0.748967
211 1 0.825512 0.662775 0.832273
194 1 -0.000504217 0.828517 0.833488
197 1 0.0854898 0.744203 0.752997
198 1 0.0801914 0.91704 0.920675
199 1 0.25246 0.752011 0.920737
200 1 0.242602 0.909035 0.755971
202 1 0.335095 0.837414 0.840016
205 1 0.416267 0.7545 0.751798
206 1 0.411624 0.929201 0.915209
207 1 0.586731 0.74865 0.918314
208 1 0.578617 0.928072 0.747908
210 1 0.666167 0.837498 0.827804
213 1 0.744966 0.747807 0.740656
214 1 0.754842 0.912112 0.912893
215 1 0.91036 0.743843 0.914952
216 1 0.917866 0.912323 0.747779
ITEM: TIMESTEP
2800
ITEM: NUMBER OF ATOMS
216
ITEM: BOX BOUNDS pp pp pp
0.0000000000000000e+00 1.6427280000000000e+01
0.0000000000000000e+00 1.6427280000000000e+01
0.0000000000000000e+00 1.6427280000000000e+01
ITEM: ATOMS id type xs ys zs
1 1 -0.000466487 0.000964719 -0.00344284
2 1 0.00269 0.168884 0.167884
3 1 0.161029 -0.000878746 0.167672
4 1 0.169925 0.163459 0.00219123
5 1 0.0808076 0.084493 0.0857249
9 1 0.342074 -0.00158908 -0.00364626
10 1 0.338531 0.163318 0.171729
13 1 0.4214 0.0738028 0.08727
11 1 0.513566 -0.000665865 0.16515
12 1 0.493669 0.161874 -0.000771454
17 1 0.664657 0.00265273 -0.00273617
18 1 0.664505 0.167568 0.169983
19 1 0.837849 -0.00403327 0.165843
20 1 0.83698 0.161489 0.00179104
21 1 0.75016 0.082415 0.0863049
25 1 -0.00677804 0.332818 -0.00346249
27 1 0.169411 0.335863 0.164057
29 1 0.0871024 0.415563 0.0842549
8 1 0.254524 0.25212 0.0881516
33 1 0.334222 0.330071 0.000305653
37 1 0.420188 0.417618 0.0821626
16 1 0.576342 0.247237 0.0793352
35 1 0.505418 0.335001 0.166583
41 1 0.672345 0.329988 -0.00065501
24 1 0.917165 0.24804 0.0806321
43 1 0.834768 0.330655 0.161066
45 1 0.755426 0.418899 0.0822616
26 1 0.0107979 0.50683 0.168432
28 1 0.166264 0.496772 -0.00968438
49 1 0.00162857 0.667455 -0.00262909
51 1 0.169209 0.669224 0.16752
32 1 0.248142 0.586195 0.0839836
34 1 0.336721 0.5042 0.160284
57 1 0.324814 0.672068 0.00303844
36 1 0.500945 0.49667 0.00111775
40 1 0.58941 0.580094 0.0721958
42 1 0.669754 0.503042 0.167928
59 1 0.50308 0.657421 0.163046
65 1 0.670151 0.667658 -0.000664677
44 1 0.83662 0.506211 -0.00190742
48 1 0.916398 0.583321 0.0847231
67 1 0.831105 0.672376 0.167317
50 1 0.00697791 0.830303 0.162743
52 1 0.169579 0.834373 -0.000593306
53 1 0.0877027 0.748425 0.0821231
56 1 0.253535 0.920178 0.0787013
58 1 0.332927 0.842378 0.167612
61 1 0.420044 0.743664 0.0867935
60 1 0.504421 0.83233 0.00497003
64 1 0.592155 0.918289 0.0830476
66 1 0.668006 0.836615 0.171527
68 1 0.832242 0.832677 -0.000497124
69 1 0.745034 0.752691 0.0817423
72 1 0.922285 0.910218 0.0816721
73 1 -0.000812159 -0.00266323 0.345646
76 1 0.166827 0.166717 0.33275
77 1 0.0819451 0.0882951 0.42026
7 1 0.246319 0.080477 0.252226
81 1 0.33179 -0.00469234 0.332461
85 1 0.414292 0.081614 0.411514
15 1 0.581452 0.0866033 0.257563
84 1 0.495249 0.165802 0.332292
89 1 0.658773 0.00274517 0.336606
23 1 0.92196 0.0818769 0.248855
92 1 0.838083 0.167644 0.334135
93 1 0.747353 0.0871343 0.415755
6 1 0.0853594 0.249352 0.247733
97 1 -0.00394331 0.32867 0.324658
101 1 0.0769584 0.408695 0.415141
14 1 0.420649 0.251908 0.250743
31 1 0.251654 0.421818 0.249229
80 1 0.246098 0.251384 0.411415
105 1 0.333681 0.335718 0.328475
109 1 0.412771 0.418711 0.416061
39 1 0.581028 0.422621 0.248301
88 1 0.583705 0.251677 0.410601
113 1 0.668984 0.343357 0.335616
22 1 0.754908 0.255381 0.250492
47 1 0.913834 0.422006 0.241803
96 1 0.918671 0.252856 0.413937
117 1 0.752511 0.420029 0.418436
30 1 0.0879536 0.583516 0.25712
100 1 0.16298 0.497819 0.333654
121 1 0.00412433 0.668565 0.331213
38 1 0.416413 0.581868 0.245984
104 1 0.246915 0.583325 0.412027
129 1 0.329098 0.667694 0.332649
108 1 0.495371 0.501247 0.33806
112 1 0.589022 0.581244 0.420842
137 1 0.673841 0.666757 0.339788
46 1 0.751937 0.58769 0.244783
116 1 0.829353 0.500097 0.33211
120 1 0.914738 0.593154 0.413415
54 1 0.0764753 0.913032 0.253719
124 1 0.164786 0.829793 0.334283
125 1 0.0813164 0.748022 0.417035
55 1 0.255864 0.757129 0.24706
62 1 0.423191 0.916513 0.250066
128 1 0.255056 0.911889 0.421174
133 1 0.41174 0.740588 0.418866
63 1 0.586739 0.747072 0.251299
132 1 0.497568 0.824208 0.33146
136 1 0.581118 0.915632 0.422547
70 1 0.750152 0.920716 0.259932
71 1 0.921513 0.75026 0.252577
140 1 0.832314 0.830076 0.330394
141 1 0.751376 0.744149 0.422526
144 1 0.909752 0.913088 0.419071
74 1 -0.0020725 0.173694 0.497635
75 1 0.172078 -0.00372901 0.497681
145 1 -0.000895425 0.0023954 0.663549
148 1 0.1638 0.170248 0.663406
79 1 0.246223 0.088393 0.577592
82 1 0.331326 0.16823 0.496229
153 1 0.335547 0.00765908 0.662262
83 1 0.496268 0.000315876 0.504269
87 1 0.583317 0.0882453 0.586988
90 1 0.666951 0.175745 0.500915
156 1 0.497152 0.168919 0.672321
161 1 0.665731 -0.000955343 0.669868
91 1 0.83452 0.00639835 0.4995
95 1 0.918236 0.0852915 0.580505
164 1 0.832716 0.16684 0.667943
78 1 0.0783328 0.258522 0.585206
99 1 0.164954 0.33274 0.498436
169 1 0.00231245 0.339294 0.666689
86 1 0.422453 0.247315 0.583577
103 1 0.252533 0.41321 0.584221
177 1 0.331165 0.331536 0.668239
107 1 0.498099 0.340672 0.496849
111 1 0.588515 0.417116 0.576883
185 1 0.662062 0.33517 0.669342
94 1 0.746907 0.25343 0.587797
115 1 0.831561 0.331036 0.498653
119 1 0.909432 0.414894 0.587461
98 1 -0.00693504 0.496612 0.490105
102 1 0.0845376 0.583559 0.581557
123 1 0.171718 0.668559 0.501255
172 1 0.166518 0.498992 0.666376
193 1 -0.00313348 0.669445 0.667374
106 1 0.331551 0.497657 0.496321
110 1 0.41304 0.578704 0.58616
201 1 0.32813 0.668242 0.661233
114 1 0.67201 0.503132 0.502132
131 1 0.496903 0.658752 0.505996
180 1 0.503026 0.49487 0.671773
209 1 0.672263 0.666188 0.672647
118 1 0.751514 0.589373 0.589601
139 1 0.829043 0.663207 0.504085
188 1 0.830099 0.499165 0.67082
122 1 -0.0073314 0.829021 0.50672
126 1 0.0817834 0.910017 0.581636
196 1 0.170433 0.831912 0.657553
127 1 0.251911 0.752847 0.578079
130 1 0.3416 0.831749 0.50232
134 1 0.420301 0.914442 0.588579
135 1 0.588355 0.741339 0.582216
138 1 0.667499 0.835497 0.503222
204 1 0.503115 0.828026 0.665846
142 1 0.750884 0.924478 0.585242
143 1 0.907213 0.7482 0.587121
212 1 0.828385 0.834339 0.666037
146 1 0.00154792 0.16334 0.832831
147 1 0.168944 -0.00627729 0.829032
149 1 0.0841586 0.0794876 0.745953
151 1 0.250464 0.0775925 0.914739
154 1 0.334129 0.161811 0.830246
157 1 0.420024 0.0803275 0.74986
155 1 0.495206 -0.00584196 0.827565
159 1 0.575199 0.0810322 0.907948
162 1 0.662388 0.165428 0.835759
163 1 0.829663 -0.00101023 0.835568
165 1 0.745098 0.0845007 0.756343
167 1 0.919872 0.0785952 0.917589
150 1 0.0817941 0.244048 0.919718
171 1 0.162742 0.326535 0.8325
173 1 0.0811566 0.414764 0.75184
152 1 0.249824 0.247486 0.750107
158 1 0.410721 0.248021 0.91703
175 1 0.250232 0.412501 0.910008
181 1 0.413431 0.416304 0.754198
160 1 0.581869 0.252801 0.756114
179 1 0.49778 0.334997 0.838497
183 1 0.588656 0.417811 0.923376
166 1 0.750698 0.246701 0.916686
168 1 0.922385 0.24922 0.751453
187 1 0.830751 0.331984 0.826029
189 1 0.73939 0.419558 0.755411
191 1 0.911094 0.416775 0.914557
170 1 -0.00193087 0.498686 0.841286
174 1 0.0884804 0.586264 0.911471
195 1 0.167525 0.668401 0.832013
176 1 0.249033 0.583126 0.746507
178 1 0.335397 0.507322 0.83296
182 1 0.41222 0.589947 0.921313
184 1 0.581922 0.579975 0.753436
186 1 0.661415 0.504032 0.83778
203 1 0.496013 0.664713 0.835306
190 1 0.746079 0.586343 0.914747
192 1 0.911704 0.583901 0.751628
211 1 0.832966 0.666162 0.837509
194 1 0.00193234 0.837932 0.833363
197 1 0.0856191 0.754332 0.744794
198 1 0.0891055 0.921166 0.914044
199 1 0.248203 0.754141 0.914826
200 1 0.253897 0.918125 0.739759
202 1 0.333104 0.838587 0.828001
205 1 0.413006 0.751085 0.751415
206 1 0.416158 0.907411 0.916945
207 1 0.580892 0.747725 0.917635
208 1 0.582899 0.912112 0.752745
210 1 0.664489 0.829429 0.83236
213 1 0.753353 0.750699 0.751036
214 1 0.749577 0.920734 0.917558
215 1 0.918505 0.751393 0.919444
216 1 0.907306 0.916635 0.746598
ITEM: TIMESTEP
2900
ITEM: NUMBER OF ATOMS
216
ITEM: BOX BOUNDS pp pp pp
0.0000000000000000e+00 1.6427280000000000e+01
0.0000000000000000e+00 1.6427280000000000e+01
0.0000000000000000e+00 1.6427280000000000e+01
ITEM: ATOMS id type xs ys zs
1 1 -8.61465e-05 -0.00117646 -0.000699925
2 1 -0.000902916 0.164614 0.16014
3 1 0.176393 -0.00325246 0.16088
4 1 0.164615 0.166544 -0.00223409
5 1 0.0849151 0.0774825 0.0795349
9 1 0.335449 -0.00299957 -0.000507965
10 1 0.335139 0.166012 0.161971
13 1 0.419278 0.0810969 0.0809853
11 1 0.50004 -0.000776335 0.175075
12 1 0.498436 0.170536 0.00396838
17 1 0.672256 -0.00433702 0.0128397
18 1 0.672079 0.165473 0.17221
19 1 0.832597 -0.00119294 0.170694
20 1 0.83458 0.165657 -0.000212712
21 1 0.752428 0.0823302 0.0847734
25 1 0.00676033 0.327769 5.44482e-05
27 1 0.164607 0.327942 0.164882
29 1 0.0805853 0.416389 0.0792796
8 1 0.243676 0.249387 0.0722605
33 1 0.330766 0.33088 9.35366e-05
37 1 0.414471 0.410155 0.0879468
16 1 0.588652 0.24804 0.0922341
35 1 0.492452 0.326254 0.166323
41 1 0.662118 0.335398 0.00517917
24 1 0.918074 0.24649 0.0832284
43 1 0.837131 0.334779 0.161415
45 1 0.753435 0.414439 0.0814516
26 1 0.00212379 0.501644 0.162856
28 1 0.169719 0.507878 0.00298262
49 1 0.0104513 0.671863 -0.00103708
51 1 0.167926 0.666423 0.162988
32 1 0.255699 0.582664 0.0834964
34 1 0.332871 0.495853 0.167665
57 1 0.339815 0.657508 -0.00765377
36 1 0.496762 0.498334 0.00282816
40 1 0.580547 0.585757 0.0874996
42 1 0.665257 0.498092 0.165234
59 1 0.499549 0.672125 0.171807
65 1 0.672397 0.664356 0.00700088
44 1 0.83845 0.490439 -0.00229785
48 1 0.923414 0.585257 0.0810049
67 1 0.83829 0.662664 0.171143
50 1 -0.000354843 0.833372 0.169772
52 1 0.169319 0.830565 -0.00695241
53 1 0.0841467 0.753962 0.0860074
56 1 0.255032 0.908845 0.0815145
58 1 0.339814 0.825687 0.170059
61 1 0.414604 0.752292 0.0808347
60 1 0.50204 0.838537 0.00285062
64 1 0.582635 0.916523 0.094079
66 1 0.672146 0.832267 0.168424
68 1 0.841473 0.839788 0.0070818
69 1 0.757046 0.751708 0.0844455
72 1 0.920243 0.925274 0.0866127
73 1 -0.00288083 0.00476084 0.319309
76 1 0.166654 0.165504 0.325705
77 1 0.0829096 0.085076 0.410199
7 1 0.255222 0.0845159 0.248171
81 1 0.338222 0.00182787 0.336661
85 1 0.418878 0.0878166 0.418683
15 1 0.587634 0.0833461 0.253532
84 1 0.505347 0.165209 0.335297
89 1 0.671699 0.00215514 0.333181
23 1 0.909395 0.0901423 0.248246
92 1 0.828467 0.173704 0.335743
93 1 0.749886 0.0855905 0.419719
6 1 0.0843157 0.248523 0.252716
97 1 0.00628683 0.333688 0.338867
101 1 0.0888243 0.425373 0.409885
14 1 0.419562 0.241634 0.252399
31 1 0.244736 0.413161 0.247617
80 1 0.244838 0.24734 0.415521
105 1 0.333609 0.327623 0.335
109 1 0.41329 0.415793 0.41616
39 1 0.581845 0.40727 0.245995
88 1 0.580705 0.248438 0.421337
113 1 0.66291 0.330117 0.334846
22 1 0.748118 0.255872 0.249823
47 1 0.922117 0.416721 0.24939
96 1 0.915094 0.25268 0.418358
117 1 0.744579 0.417527 0.415917
30 1 0.0790991 0.588845 0.245268
100 1 0.165407 0.507077 0.327192
121 1 -0.00372562 0.662886 0.333635
38 1 0.41525 0.582867 0.255531
104 1 0.253549 0.585749 0.417547
129 1 0.342171 0.669336 0.335841
108 1 0.504302 0.49395 0.32397
112 1 0.58131 0.579084 0.413896
137 1 0.673741 0.666656 0.32845
46 1 0.752205 0.578849 0.256498
116 1 0.830453 0.499235 0.3363
120 1 0.91168 0.585263 0.415768
54 1 0.0891213 0.918761 0.245892
124 1 0.17018 0.833202 0.327736
125 1 0.0813155 0.750009 0.409038
55 1 0.251488 0.741168 0.254821
62 1 0.41583 0.916906 0.25387
128 1 0.249537 0.917534 0.410756
133 1 0.420225 0.7541 0.419509
63 1 0.588746 0.750551 0.250749
132 1 0.506791 0.842554 0.341238
136 1 0.594829 0.922803 0.414321
70 1 0.751498 0.917033 0.253054
71 1 0.919806 0.754357 0.255722
140 1 0.832734 0.838082 0.341312
141 1 0.750399 0.751522 0.416723
144 1 0.919862 0.928794 0.416768
74 1 -0.00568604 0.169904 0.496459
75 1 0.165173 0.00458168 0.492222
145 1 -0.00142544 0.00371199 0.667041
148 1 0.164603 0.16736 0.663571
79 1 0.248978 0.0778641 0.582455
82 1 0.33003 0.167573 0.499573
153 1 0.332656 -0.00252951 0.668737
83 1 0.501969 -0.000437497 0.495053
87 1 0.580555 0.0827687 0.580774
90 1 0.665133 0.164805 0.500705
156 1 0.497558 0.164494 0.661087
161 1 0.667536 -0.00394856 0.666067
91 1 0.830869 -0.00100507 0.503068
95 1 0.912247 0.0906353 0.579661
164 1 0.825795 0.168368 0.663378
78 1 0.0774132 0.248602 0.574752
99 1 0.163214 0.334748 0.501133
169 1 -0.0046906 0.325093 0.666704
86 1 0.405791 0.25444 0.581918
103 1 0.246693 0.41827 0.581194
177 1 0.325541 0.332075 0.665559
107 1 0.494335 0.3317 0.499894
111 1 0.575621 0.415381 0.594262
185 1 0.6617 0.33283 0.669858
94 1 0.749698 0.257027 0.580574
115 1 0.828468 0.339274 0.497359
119 1 0.914092 0.415345 0.580631
98 1 0.000190237 0.501196 0.503741
102 1 0.0868572 0.585188 0.584621
123 1 0.166879 0.67081 0.494692
172 1 0.163133 0.494569 0.667743
193 1 -0.00164148 0.670309 0.66322
106 1 0.33379 0.496543 0.497517
110 1 0.41478 0.585625 0.581533
201 1 0.327512 0.66313 0.667637
114 1 0.661586 0.496354 0.504475
131 1 0.504512 0.673492 0.496204
180 1 0.494634 0.501853 0.670865
209 1 0.663042 0.669807 0.672834
118 1 0.743671 0.582103 0.583086
139 1 0.832769 0.672464 0.504302
188 1 0.831282 0.506149 0.667234
122 1 0.00224269 0.836938 0.495669
126 1 0.0890667 0.923319 0.580542
196 1 0.167414 0.8332 0.6647
127 1 0.24642 0.748923 0.579089
130 1 0.323794 0.827006 0.498194
134 1 0.405803 0.9136 0.578653
135 1 0.575745 0.753707 0.592076
138 1 0.667653 0.831422 0.497515
204 1 0.494138 0.836497 0.67074
142 1 0.755379 0.911092 0.582352
143 1 0.916843 0.754111 0.578883
212 1 0.835625 0.831915 0.665044
146 1 -0.00759558 0.165676 0.836556
147 1 0.167279 0.00650871 0.835326
149 1 0.0790989 0.0920168 0.755644
151 1 0.254472 0.0852469 0.916894
154 1 0.334156 0.172275 0.829029
157 1 0.41736 0.0851796 0.747436
155 1 0.498046 0.0043882 0.835829
159 1 0.590864 0.0791971 0.925427
162 1 0.664189 0.161418 0.831313
163 1 0.831805 0.0026568 0.835962
165 1 0.747049 0.0786181 0.752106
167 1 0.911475 0.0836376 0.916759
150 1 0.0870646 0.246697 0.907865
171 1 0.1663 0.339071 0.827345
173 1 0.0818698 0.414405 0.742699
152 1 0.247261 0.257013 0.749219
158 1 0.42025 0.248941 0.917524
175 1 0.247517 0.417574 0.919294
181 1 0.407536 0.415725 0.748395
160 1 0.581128 0.242673 0.744204
179 1 0.500751 0.333166 0.831142
183 1 0.581321 0.419582 0.910671
166 1 0.74424 0.243071 0.917462
168 1 0.908905 0.251737 0.747287
187 1 0.833922 0.330722 0.846119
189 1 0.7548 0.417415 0.752014
191 1 0.923125 0.409209 0.919956
170 1 0.00408051 0.49731 0.824906
174 1 0.0768829 0.580929 0.910495
195 1 0.165276 0.663953 0.832749
176 1 0.245008 0.578057 0.75249
178 1 0.323104 0.496327 0.833251
182 1 0.417489 0.566604 0.912761
184 1 0.583411 0.579946 0.757738
186 1 0.672069 0.49701 0.836215
203 1 0.501883 0.66439 0.84007
190 1 0.753339 0.581262 0.916289
192 1 0.917269 0.583768 0.754754
211 1 0.833822 0.67237 0.833701
194 1 0.00196121 0.836809 0.831712
197 1 0.0871055 0.748709 0.748426
198 1 0.0853178 0.915575 0.917824
199 1 0.252104 0.740635 0.914008
200 1 0.249283 0.918158 0.755731
202 1 0.329588 0.827266 0.835378
205 1 0.418288 0.744391 0.745829
206 1 0.41887 0.922324 0.912478
207 1 0.587598 0.74768 0.921714
208 1 0.581589 0.921556 0.752843
210 1 0.671335 0.835757 0.837023
213 1 0.754401 0.752551 0.752669
214 1 0.750661 0.9215 0.921053
215 1 0.918609 0.756659 0.916424
216 1 0.917067 0.922243 0.751448
ITEM: TIMESTEP
3000
ITEM: NUMBER OF ATOMS
216
ITEM: BOX BOUNDS pp pp pp
0.0000000000000000e+00 1.6427280000000000e+01
0.0000000000000000e+00 1.6427280000000000e+01
0.0000000000000000e+00 1.6427280000000000e+01
ITEM: ATOMS id type xs ys zs
1 1 -1.37564e-05 0.000986272 -0.00148921
2 1 0.00350554 0.171221 0.169733
3 1 0.159171 0.00551161 0.170964
4 1 0.170598 0.168888 0.000867232
5 1 0.0850706 0.0893925 0.0785418
9 1 0.328695 0.00259447 0.000312041
10 1 0.326824 0.168698 0.166524
13 1 0.412255 0.0856201 0.0824602
11 1 0.497401 0.00170452 0.159629
12 1 0.503617 0.167711 -0.00509318
17 1 0.666625 -0.00157844 -0.0108567
18 1 0.659902 0.164088 0.162864
19 1 0.834374 0.00301775 0.161799
20 1 0.836772 0.168791 -0.0027007
21 1 0.748567 0.0875432 0.0773267
25 1 -0.0149836 0.339761 0.00107751
27 1 0.172125 0.332755 0.165278
29 1 0.0790849 0.417046 0.0884512
8 1 0.254101 0.248892 0.0862324
33 1 0.338226 0.338365 -0.000308443
37 1 0.418365 0.419879 0.077269
16 1 0.578149 0.257381 0.0842473
35 1 0.503611 0.344522 0.169629
41 1 0.672092 0.335678 -0.0028994
24 1 0.909214 0.260043 0.0849535
43 1 0.825079 0.330713 0.173661
45 1 0.745289 0.412619 0.0896577
26 1 -0.000783598 0.498389 0.17555
28 1 0.164225 0.491493 -0.0010817
49 1 -0.00395472 0.659653 0.00251641
51 1 0.163388 0.659598 0.171454
32 1 0.24722 0.580092 0.0835925
34 1 0.336668 0.501869 0.163578
57 1 0.331451 0.669219 0.00602898
36 1 0.501713 0.503573 -0.00683972
40 1 0.587762 0.577096 0.0808508
42 1 0.675522 0.496669 0.173112
59 1 0.506158 0.658039 0.165186
65 1 0.659246 0.664749 -0.00649916
44 1 0.8183 0.499784 0.00545591
48 1 0.916727 0.575685 0.0849004
67 1 0.828838 0.665247 0.167337
50 1 -0.00185791 0.835901 0.158981
52 1 0.164047 0.834328 0.00525165
53 1 0.0872213 0.746177 0.0828354
56 1 0.246553 0.922789 0.0850017
58 1 0.332187 0.837491 0.159595
61 1 0.41981 0.746805 0.0876669
60 1 0.497851 0.824245 -0.00293793
64 1 0.586483 0.912417 0.0731957
66 1 0.662476 0.83614 0.164816
68 1 0.825727 0.829348 -0.00668511
69 1 0.741915 0.749842 0.0846788
72 1 0.913469 0.913304 0.0793023
73 1 0.0110062 -0.00429746 0.340875
76 1 0.163907 0.169227 0.33712
77 1 0.0869727 0.0863324 0.4238
7 1 0.241796 0.0817654 0.25505
81 1 0.327069 -0.00402574 0.327589
85 1 0.411385 0.0780799 0.415726
15 1 0.577976 0.0806975 0.248419
84 1 0.494122 0.166464 0.334152
89 1 0.664992 -0.00498109 0.336614
23 1 0.926369 0.077491 0.248596
92 1 0.837696 0.160992 0.330043
93 1 0.750938 0.0746469 0.415109
6 1 0.0857037 0.25559 0.248375
97 1 -0.00492323 0.333913 0.332847
101 1 0.0810187 0.406917 0.420393
14 1 0.418141 0.257995 0.245753
31 1 0.254357 0.422148 0.250754
80 1 0.254079 0.246325 0.416849
105 1 0.337104 0.337382 0.336648
109 1 0.422299 0.41797 0.420407
39 1 0.586505 0.419228 0.257194
88 1 0.581802 0.24781 0.410308
113 1 0.669907 0.331714 0.336433
22 1 0.745192 0.242793 0.249142
47 1 0.907858 0.418807 0.252735
96 1 0.916585 0.249286 0.424787
117 1 0.756093 0.416711 0.419071
30 1 0.0839631 0.579317 0.25406
100 1 0.165373 0.49686 0.338172
121 1 0.00959394 0.665294 0.33273
38 1 0.418345 0.586259 0.247549
104 1 0.250267 0.58519 0.414825
129 1 0.327932 0.666652 0.326505
108 1 0.492528 0.504622 0.341942
112 1 0.578599 0.592555 0.41759
137 1 0.660033 0.666947 0.335645
46 1 0.744563 0.585483 0.258066
116 1 0.83151 0.506445 0.333937
120 1 0.919052 0.581638 0.40938
54 1 0.0854796 0.91161 0.247083
124 1 0.170803 0.840024 0.341328
125 1 0.08784 0.752275 0.420494
55 1 0.247175 0.75636 0.242586
62 1 0.417534 0.916494 0.243261
128 1 0.24861 0.919758 0.426524
133 1 0.407223 0.75106 0.415248
63 1 0.583556 0.747645 0.246312
132 1 0.491941 0.828062 0.332107
136 1 0.576564 0.913443 0.414759
70 1 0.745493 0.917642 0.244425
71 1 0.921731 0.742329 0.243533
140 1 0.835116 0.826415 0.327981
141 1 0.750678 0.751601 0.414148
144 1 0.912961 0.906114 0.416445
74 1 0.00708108 0.164334 0.504923
75 1 0.16575 -0.000803253 0.50751
145 1 -0.00312424 -0.00414349 0.667263
148 1 0.16873 0.169769 0.668065
79 1 0.25328 0.0826249 0.582125
82 1 0.337176 0.163344 0.501345
153 1 0.329938 0.002609 0.668784
83 1 0.501753 0.000727085 0.499899
87 1 0.583276 0.0864384 0.587671
90 1 0.664324 0.16384 0.498483
156 1 0.503478 0.167208 0.677063
161 1 0.665606 0.00862033 0.669598
91 1 0.834513 -0.00145067 0.49733
95 1 0.91868 0.0802837 0.578478
164 1 0.837118 0.157637 0.669926
78 1 0.0839721 0.249991 0.588492
99 1 0.169033 0.331989 0.496769
169 1 0.00827025 0.345948 0.666206
86 1 0.422518 0.244412 0.588686
103 1 0.249059 0.416024 0.584573
177 1 0.337606 0.334544 0.661964
107 1 0.505639 0.329391 0.502368
111 1 0.587042 0.419137 0.573761
185 1 0.664975 0.332584 0.661761
94 1 0.749085 0.243261 0.583464
115 1 0.833438 0.328931 0.499317
119 1 0.912414 0.414984 0.586423
98 1 -0.00028449 0.499818 0.494045
102 1 0.0819026 0.584956 0.583523
123 1 0.169112 0.672114 0.505776
172 1 0.167676 0.50055 0.667846
193 1 -0.00613901 0.665679 0.667017
106 1 0.328127 0.504825 0.504611
110 1 0.416934 0.582339 0.582601
201 1 0.3353 0.67412 0.668831
114 1 0.67287 0.497593 0.49823
131 1 0.489364 0.671858 0.503505
180 1 0.505788 0.501678 0.658786
209 1 0.671459 0.664236 0.663968
118 1 0.757855 0.582416 0.579556
139 1 0.840972 0.668164 0.493843
188 1 0.833665 0.497758 0.667654
122 1 -0.00260149 0.827663 0.501964
126 1 0.0812718 0.914937 0.583502
196 1 0.166605 0.830876 0.669649
127 1 0.254675 0.756135 0.587625
130 1 0.336006 0.837727 0.500222
134 1 0.422881 0.91551 0.594745
135 1 0.586973 0.75386 0.578876
138 1 0.667152 0.836549 0.499307
204 1 0.506768 0.829734 0.666554
142 1 0.74873 0.918788 0.58536
143 1 0.914656 0.753256 0.588353
212 1 0.832017 0.831564 0.669196
146 1 0.00241193 0.163594 0.83163
147 1 0.166711 -0.00703844 0.8323
149 1 0.0872461 0.0748279 0.748814
151 1 0.24502 0.0833615 0.919729
154 1 0.330373 0.161006 0.836227
157 1 0.41436 0.078119 0.75479
155 1 0.500036 -0.0082238 0.830224
159 1 0.581479 0.0831198 0.908591
162 1 0.673098 0.175965 0.827786
163 1 0.837862 0.00293689 0.833086
165 1 0.756415 0.0841413 0.754383
167 1 0.918679 0.0828397 0.914605
150 1 0.0794311 0.254551 0.924645
171 1 0.16497 0.335102 0.82873
173 1 0.0852177 0.426291 0.7557
152 1 0.255898 0.248299 0.748567
158 1 0.406973 0.251176 0.916749
175 1 0.257821 0.412398 0.908265
181 1 0.422443 0.417308 0.747291
160 1 0.585771 0.253204 0.753138
179 1 0.500323 0.327923 0.836179
183 1 0.583676 0.418482 0.918739
166 1 0.761922 0.254243 0.915122
168 1 0.923891 0.248184 0.747669
187 1 0.834147 0.341452 0.824113
189 1 0.74133 0.419336 0.745919
191 1 0.911326 0.431111 0.912369
170 1 -0.00240397 0.504023 0.831156
174 1 0.0864028 0.585131 0.917908
195 1 0.174363 0.66717 0.835324
176 1 0.25195 0.585064 0.749821
178 1 0.34333 0.505702 0.834941
182 1 0.41744 0.592613 0.918923
184 1 0.585433 0.588127 0.74643
186 1 0.660447 0.504593 0.830704
203 1 0.496498 0.663505 0.827251
190 1 0.747559 0.584201 0.91485
192 1 0.918791 0.585654 0.747889
211 1 0.829916 0.661922 0.824466
194 1 -0.000419867 0.830207 0.838754
197 1 0.0820561 0.746762 0.759564
198 1 0.0796488 0.917742 0.920465
199 1 0.247322 0.754136 0.921449
200 1 0.249632 0.912695 0.745056
202 1 0.339082 0.838122 0.838472
205 1 0.419708 0.757062 0.753147
206 1 0.418733 0.916279 0.926754
207 1 0.584749 0.748509 0.912092
208 1 0.58161 0.909224 0.745966
210 1 0.667885 0.831481 0.831503
213 1 0.748323 0.752703 0.747419
214 1 0.753121 0.912874 0.910769
215 1 0.91256 0.737264 0.913573
216 1 0.914578 0.909729 0.756213
ITEM: TIMESTEP
3100
ITEM: NUMBER OF ATOMS
216
ITEM: BOX BOUNDS pp pp pp
0.0000000000000000e+00 1.6427280000000000e+01
0.0000000000000000e+00 1.6427280000000000e+01
0.0000000000000000e+00 1.6427280000000000e+01
ITEM: ATOMS id type xs ys zs
1 1 -0.00435061 -0.000521693 0.000257881
2 1 -0.00465439 0.163006 0.171319
3 1 0.169612 -0.000913756 0.170138
4 1 0.168041 0.163436 0.00965532
5 1 0.082507 0.0788485 0.090882
9 1 0.329572 0.000280568 -0.00384461
10 1 0.331858 0.171837 0.164696
13 1 0.409499 0.0821053 0.0824237
11 1 0.498167 -0.00185953 0.167785
12 1 0.492446 0.16873 0.00442676
17 1 0.66799 0.000493536 0.0053894
18 1 0.67598 0.170901 0.164712
19 1 0.829096 -0.00837639 0.161553
20 1 0.830804 0.16431 0.00102135
21 1 0.755691 0.0838617 0.0857865
25 1 0.0123056 0.330074 0.00424968
27 1 0.160497 0.333675 0.169319
29 1 0.084348 0.417207 0.0878205
8 1 0.244615 0.253727 0.0854602
33 1 0.330398 0.329058 0.00646952
37 1 0.417667 0.414105 0.0882983
16 1 0.5897 0.245868 0.0815973
35 1 0.499284 0.323346 0.160705
41 1 0.666211 0.33713 0.00293831
24 1 0.916685 0.242233 0.0806061
43 1 0.835174 0.339116 0.158171
45 1 0.751808 0.420366 0.0822987
26 1 0.000788012 0.501538 0.166196
28 1 0.166981 0.506825 0.00355223
49 1 -0.00478161 0.671973 0.00180547
51 1 0.161588 0.668947 0.165588
32 1 0.255579 0.594172 0.0906237
34 1 0.334747 0.500491 0.171608
57 1 0.338208 0.667375 -0.00617243
36 1 0.49412 0.496962 0.00569879
40 1 0.56996 0.593022 0.0833262
42 1 0.66307 0.504514 0.160568
59 1 0.481251 0.680703 0.168157
65 1 0.666916 0.669356 -0.00107248
44 1 0.840449 0.498117 -0.00195777
48 1 0.909491 0.581224 0.0854463
67 1 0.830467 0.665721 0.169769
50 1 0.0019795 0.83057 0.173942
52 1 0.164205 0.835526 0.00175165
53 1 0.0777811 0.752994 0.0866571
56 1 0.247079 0.916701 0.0832616
58 1 0.325891 0.836328 0.169218
61 1 0.410464 0.757582 0.0771393
60 1 0.496305 0.842436 -0.000419594
64 1 0.577446 0.915822 0.0879838
66 1 0.663112 0.830557 0.164051
68 1 0.836354 0.838306 0.00299079
69 1 0.74698 0.753341 0.0793269
72 1 0.921177 0.916198 0.0869938
73 1 -0.00661629 0.00679291 0.334806
76 1 0.169601 0.15933 0.339068
77 1 0.0857824 0.0792083 0.416636
7 1 0.254573 0.0894884 0.244761
81 1 0.331557 0.00614743 0.339275
85 1 0.420309 0.0929194 0.417124
15 1 0.590091 0.0854716 0.245187
84 1 0.510526 0.16737 0.331183
89 1 0.664593 0.00112529 0.32364
23 1 0.900808 0.0814184 0.247998
92 1 0.822141 0.165696 0.336094
93 1 0.744958 0.079621 0.416986
6 1 0.0846636 0.241017 0.257378
97 1 0.00376203 0.33022 0.335991
101 1 0.0874984 0.419067 0.421054
14 1 0.41697 0.245116 0.252385
31 1 0.243694 0.414009 0.253375
80 1 0.245026 0.252286 0.422216
105 1 0.330073 0.331104 0.33052
109 1 0.41437 0.414955 0.416189
39 1 0.579847 0.414063 0.241365
88 1 0.588632 0.251626 0.42456
113 1 0.667315 0.332786 0.331761
22 1 0.754979 0.256853 0.245598
47 1 0.920864 0.414254 0.247161
96 1 0.923472 0.242202 0.414826
117 1 0.754434 0.412915 0.409221
30 1 0.0795449 0.582157 0.245114
100 1 0.160513 0.503462 0.33024
121 1 -0.00765535 0.660276 0.33262
38 1 0.414964 0.581981 0.251178
104 1 0.248109 0.576497 0.420129
129 1 0.339584 0.664076 0.34421
108 1 0.501257 0.501078 0.325165
112 1 0.592313 0.579082 0.409581
137 1 0.671105 0.670026 0.323299
46 1 0.75374 0.576536 0.246391
116 1 0.836906 0.491884 0.331847
120 1 0.916538 0.577632 0.419319
54 1 0.0758949 0.923781 0.251762
124 1 0.156063 0.830655 0.329988
125 1 0.0744086 0.746759 0.413989
55 1 0.248156 0.744812 0.2552
62 1 0.407809 0.917679 0.254482
128 1 0.247868 0.915043 0.410247
133 1 0.423207 0.748425 0.416103
63 1 0.579584 0.755528 0.249476
132 1 0.499814 0.836194 0.328622
136 1 0.586447 0.918692 0.412038
70 1 0.746474 0.914152 0.246808
71 1 0.911723 0.755447 0.259633
140 1 0.828054 0.843642 0.332015
141 1 0.743376 0.747181 0.414543
144 1 0.919855 0.921746 0.421251
74 1 -0.00143299 0.154446 0.498508
75 1 0.171797 -0.00297677 0.492761
145 1 0.00355616 0.00126221 0.666682
148 1 0.171125 0.161926 0.668975
79 1 0.248869 0.0820938 0.582422
82 1 0.331904 0.169498 0.505402
153 1 0.336666 0.00148266 0.668765
83 1 0.502359 0.000475398 0.498847
87 1 0.587574 0.0815782 0.578417
90 1 0.670754 0.166157 0.499248
156 1 0.504358 0.168708 0.655818
161 1 0.672939 -0.00469194 0.666053
91 1 0.838239 0.00621054 0.500608
95 1 0.920592 0.0823027 0.588803
164 1 0.836483 0.167849 0.66471
78 1 0.0859141 0.245548 0.578969
99 1 0.17143 0.337984 0.511926
169 1 0.00733951 0.330638 0.668328
86 1 0.420411 0.253175 0.579632
103 1 0.258513 0.42098 0.590579
177 1 0.331551 0.329759 0.669381
107 1 0.502861 0.33882 0.498182
111 1 0.585296 0.409312 0.586736
185 1 0.669659 0.332657 0.6691
94 1 0.757503 0.25328 0.580362
115 1 0.837743 0.33662 0.494566
119 1 0.925563 0.413767 0.577292
98 1 0.00451994 0.49928 0.501031
102 1 0.0883942 0.578946 0.591218
123 1 0.164761 0.659568 0.496699
172 1 0.171762 0.496039 0.674104
193 1 0.000956806 0.662907 0.671254
106 1 0.341931 0.495996 0.501186
110 1 0.420129 0.583302 0.58207
201 1 0.337543 0.661928 0.662506
114 1 0.661591 0.492221 0.49595
131 1 0.506954 0.661369 0.496462
180 1 0.501167 0.499151 0.664975
209 1 0.659533 0.67227 0.666047
118 1 0.745763 0.581409 0.584399
139 1 0.831106 0.666257 0.500634
188 1 0.844171 0.501495 0.665588
122 1 0.00506228 0.836111 0.503433
126 1 0.0888735 0.914032 0.583579
196 1 0.169275 0.836414 0.667954
127 1 0.245048 0.745652 0.581238
130 1 0.330623 0.827444 0.493706
134 1 0.417282 0.916798 0.57757
135 1 0.576585 0.752813 0.581859
138 1 0.659111 0.833085 0.493586
204 1 0.498757 0.838686 0.665801
142 1 0.754206 0.913235 0.57733
143 1 0.92549 0.744972 0.582269
212 1 0.839099 0.827323 0.664169
146 1 -0.00360075 0.168305 0.838933
147 1 0.166698 0.00425169 0.845606
149 1 0.0827394 0.0896128 0.752777
151 1 0.24906 0.092815 0.9205
154 1 0.338561 0.167203 0.840006
157 1 0.422669 0.0948337 0.745139
155 1 0.499198 0.00753381 0.834518
159 1 0.584995 0.086901 0.918504
162 1 0.664604 0.16075 0.830213
163 1 0.829719 -0.00247517 0.832901
165 1 0.751113 0.0855399 0.745256
167 1 0.912639 0.0832338 0.920106
150 1 0.0906513 0.24544 0.917
171 1 0.169398 0.339888 0.837494
173 1 0.0836318 0.415678 0.749618
152 1 0.251703 0.248152 0.757546
158 1 0.419513 0.259424 0.91315
175 1 0.250943 0.420244 0.931891
181 1 0.415307 0.416224 0.750999
160 1 0.584505 0.248431 0.742358
179 1 0.506039 0.332957 0.826139
183 1 0.585949 0.418734 0.916304
166 1 0.738143 0.247827 0.918956
168 1 0.912164 0.253373 0.750707
187 1 0.829893 0.328824 0.839657
189 1 0.760694 0.413188 0.744636
191 1 0.923854 0.406458 0.919256
170 1 0.000503682 0.492037 0.832716
174 1 0.0763044 0.582186 0.914394
195 1 0.156819 0.667341 0.836349
176 1 0.245508 0.586903 0.752312
178 1 0.32893 0.502524 0.838039
182 1 0.421968 0.582711 0.91306
184 1 0.578221 0.578372 0.747488
186 1 0.672089 0.496205 0.8248
203 1 0.503226 0.667529 0.833015
190 1 0.749839 0.579731 0.913485
192 1 0.916617 0.577569 0.7524
211 1 0.836105 0.663095 0.835878
194 1 -0.00133628 0.83526 0.831396
197 1 0.0823253 0.74929 0.743247
198 1 0.0814099 0.915681 0.913566
199 1 0.246833 0.746966 0.918135
200 1 0.250591 0.925732 0.753885
202 1 0.331431 0.834749 0.826694
205 1 0.421949 0.753085 0.746068
206 1 0.411912 0.920595 0.910696
207 1 0.575573 0.75739 0.916632
208 1 0.584914 0.919679 0.751462
210 1 0.663579 0.833249 0.832051
213 1 0.75179 0.746147 0.749276
214 1 0.746041 0.9214 0.9132
215 1 0.916834 0.756137 0.916321
216 1 0.911851 0.916688 0.743808
ITEM: TIMESTEP
3200
ITEM: NUMBER OF ATOMS
216
ITEM: BOX BOUNDS pp pp pp
0.0000000000000000e+00 1.6427280000000000e+01
0.0000000000000000e+00 1.6427280000000000e+01
0.0000000000000000e+00 1.6427280000000000e+01
ITEM: ATOMS id type xs ys zs
1 1 -0.000464961 -0.00373129 0.000463317
2 1 0.00311464 0.169927 0.15935
3 1 0.164948 -0.00848098 0.16537
4 1 0.171727 0.167328 -0.00774915
5 1 0.0846868 0.0807454 0.0773661
9 1 0.334026 0.00158144 0.00161908
10 1 0.335304 0.162569 0.172866
13 1 0.419716 0.0858331 0.0910807
11 1 0.508773 0.00184871 0.170987
12 1 0.503864 0.170742 -0.00161683
17 1 0.66505 0.000993499 0.00112875
18 1 0.655288 0.163421 0.168993
19 1 0.825291 0.00479672 0.174478
20 1 0.833607 0.162918 0.00124547
21 1 0.744715 0.0837292 0.0863289
25 1 -0.00715172 0.335875 0.00127457
27 1 0.174338 0.33296 0.159511
29 1 0.08095 0.41595 0.0828618
8 1 0.255145 0.2467 0.0793751
33 1 0.330681 0.334737 -0.000389359
37 1 0.412475 0.42364 0.0787011
16 1 0.584663 0.255995 0.0838922
35 1 0.492977 0.340283 0.164645
41 1 0.667326 0.325855 -0.0011521
24 1 0.911495 0.250724 0.0857396
43 1 0.832443 0.331388 0.169571
45 1 0.753914 0.408033 0.0730406
26 1 0.0044545 0.501398 0.165526
28 1 0.163262 0.491607 -0.00285422
49 1 0.0096792 0.669902 -0.00425617
51 1 0.159281 0.66802 0.167649
32 1 0.241262 0.579631 0.0785882
34 1 0.332674 0.498885 0.164565
57 1 0.328531 0.668253 0.00691972
36 1 0.495301 0.505546 -0.00637578
40 1 0.592662 0.574672 0.0786868
42 1 0.675674 0.493762 0.161733
59 1 0.510383 0.658015 0.166971
65 1 0.667953 0.672252 -0.00267231
44 1 0.831227 0.50211 0.00106014
48 1 0.928153 0.586389 0.0811249
67 1 0.8345 0.666353 0.156806
50 1 -0.00389067 0.832609 0.159248
52 1 0.164698 0.835518 0.00234141
53 1 0.0846672 0.752515 0.0837272
56 1 0.251966 0.918665 0.0825947
58 1 0.343576 0.83116 0.161959
61 1 0.419662 0.745605 0.0817316
60 1 0.502228 0.82638 0.00382214
64 1 0.582149 0.913109 0.0831327
66 1 0.666869 0.840616 0.174867
68 1 0.833159 0.830349 0.000679101
69 1 0.75046 0.752066 0.0895784
72 1 0.904962 0.921678 0.085632
73 1 0.0068953 -0.00730823 0.338782
76 1 0.163483 0.164904 0.327794
77 1 0.0802777 0.0847427 0.416797
7 1 0.247633 0.0748819 0.252237
81 1 0.335151 -0.00888912 0.331725
85 1 0.417188 0.0723848 0.41546
15 1 0.582754 0.0842012 0.258124
84 1 0.493253 0.169759 0.332161
89 1 0.672211 0.00290764 0.345062
23 1 0.928759 0.0806845 0.251927
92 1 0.845178 0.171762 0.334202
93 1 0.753905 0.0920316 0.414775
6 1 0.0864715 0.258826 0.244529
97 1 -0.00138926 0.343404 0.327672
101 1 0.0824408 0.419957 0.414648
14 1 0.412909 0.248874 0.245786
31 1 0.252329 0.419424 0.247023
80 1 0.253901 0.247604 0.40733
105 1 0.338667 0.335058 0.336478
109 1 0.418283 0.417583 0.421771
39 1 0.587471 0.422645 0.252761
88 1 0.579888 0.251353 0.414067
113 1 0.673113 0.332546 0.334827
22 1 0.747604 0.241705 0.248787
47 1 0.912584 0.425666 0.246814
96 1 0.916134 0.257474 0.418299
117 1 0.747203 0.423928 0.418279
30 1 0.0884464 0.585056 0.255024
100 1 0.170355 0.500356 0.33462
121 1 0.00598136 0.671224 0.333783
38 1 0.416861 0.585599 0.245466
104 1 0.254745 0.585015 0.414711
129 1 0.333882 0.664419 0.323703
108 1 0.498675 0.504875 0.333599
112 1 0.570952 0.58428 0.424335
137 1 0.660479 0.663017 0.338569
46 1 0.749008 0.588766 0.249109
116 1 0.829331 0.505909 0.331803
120 1 0.918199 0.582271 0.41374
54 1 0.0834021 0.905152 0.250337
124 1 0.174288 0.836514 0.339007
125 1 0.0840973 0.752738 0.426088
55 1 0.250558 0.751388 0.245997
62 1 0.428692 0.91492 0.250703
128 1 0.254063 0.921226 0.426305
133 1 0.418455 0.751169 0.414379
63 1 0.584977 0.746897 0.249525
132 1 0.507402 0.829556 0.336595
136 1 0.586245 0.914193 0.419647
70 1 0.753357 0.922771 0.255211
71 1 0.923905 0.746819 0.240686
140 1 0.828319 0.824271 0.333424
141 1 0.749075 0.746476 0.417928
144 1 0.91583 0.910643 0.413522
74 1 -0.00375203 0.170733 0.503725
75 1 0.159158 0.0093256 0.504411
145 1 -0.00711205 9.69984e-05 0.657022
148 1 0.167966 0.172214 0.663595
79 1 0.245134 0.0842324 0.585339
82 1 0.334523 0.166615 0.499078
153 1 0.331969 -0.000538914 0.660858
83 1 0.501741 -0.000770956 0.50149
87 1 0.576292 0.0946799 0.582038
90 1 0.666643 0.168978 0.493624
156 1 0.498855 0.16916 0.674877
161 1 0.654562 0.00495448 0.666931
91 1 0.83481 0.0015637 0.501186
95 1 0.911347 0.086882 0.578085
164 1 0.834538 0.161408 0.662912
78 1 0.0812373 0.252766 0.586915
99 1 0.166818 0.328552 0.493666
169 1 -0.00675889 0.333628 0.674866
86 1 0.421427 0.251856 0.584199
103 1 0.240804 0.418572 0.570893
177 1 0.333377 0.338762 0.659592
107 1 0.501918 0.332167 0.502542
111 1 0.580095 0.420488 0.585653
185 1 0.66014 0.337201 0.66863
94 1 0.740421 0.246456 0.591554
115 1 0.827934 0.335925 0.506743
119 1 0.912097 0.418734 0.59421
98 1 -0.0079645 0.497805 0.503666
102 1 0.0783535 0.582584 0.580972
123 1 0.168658 0.66996 0.501581
172 1 0.159914 0.491756 0.662155
193 1 -0.00069236 0.67099 0.663632
106 1 0.328845 0.500955 0.501445
110 1 0.414416 0.579047 0.58513
201 1 0.334282 0.662705 0.668768
114 1 0.667479 0.501411 0.49893
131 1 0.494082 0.668253 0.506374
180 1 0.502221 0.503124 0.66414
209 1 0.668335 0.66465 0.669554
118 1 0.754342 0.578009 0.58837
139 1 0.838684 0.66487 0.5001
188 1 0.830093 0.495396 0.680012
122 1 -0.00738141 0.830783 0.50192
126 1 0.0759037 0.916846 0.579452
196 1 0.158363 0.830322 0.665188
127 1 0.25247 0.751679 0.587722
130 1 0.338441 0.836466 0.507707
134 1 0.419827 0.916503 0.586416
135 1 0.584405 0.741607 0.585375
138 1 0.670537 0.82438 0.505415
204 1 0.501366 0.822963 0.66129
142 1 0.747825 0.920191 0.585494
143 1 0.91175 0.754222 0.584557
212 1 0.831868 0.838248 0.667742
146 1 0.00427475 0.162606 0.832879
147 1 0.175591 -0.00353106 0.822173
149 1 0.0885384 0.0769239 0.744975
151 1 0.255034 0.0741225 0.909705
154 1 0.331743 0.166031 0.83096
157 1 0.411717 0.0815433 0.751397
155 1 0.497216 -0.00772055 0.825779
159 1 0.584921 0.0818751 0.909298
162 1 0.670426 0.172852 0.83224
163 1 0.834572 0.00335073 0.832616
165 1 0.745207 0.0793441 0.754227
167 1 0.916613 0.0820008 0.918042
150 1 0.080713 0.250597 0.918536
171 1 0.160863 0.327865 0.83145
173 1 0.0836827 0.419155 0.754141
152 1 0.251183 0.250504 0.748966
158 1 0.41253 0.243384 0.918829
175 1 0.246978 0.410704 0.910054
181 1 0.425289 0.420792 0.749928
160 1 0.582092 0.250846 0.756269
179 1 0.498652 0.332814 0.840097
183 1 0.578651 0.413411 0.920304
166 1 0.758478 0.246744 0.914668
168 1 0.917958 0.240764 0.74975
187 1 0.837862 0.334533 0.829335
189 1 0.743533 0.416228 0.75954
191 1 0.913562 0.427416 0.915274
170 1 0.00403155 0.509008 0.82983
174 1 0.0882018 0.584471 0.911433
195 1 0.172645 0.664741 0.826415
176 1 0.248172 0.575827 0.742265
178 1 0.331225 0.50044 0.833437
182 1 0.408556 0.589863 0.922886
184 1 0.584524 0.589577 0.756462
186 1 0.665721 0.502197 0.843095
203 1 0.496642 0.670372 0.836993
190 1 0.756954 0.590572 0.918088
192 1 0.920599 0.584832 0.751857
211 1 0.83769 0.669026 0.828701
194 1 0.00460572 0.83144 0.830112
197 1 0.0856533 0.747368 0.749794
198 1 0.0884984 0.9197 0.916433
199 1 0.253297 0.754598 0.916755
200 1 0.247063 0.908001 0.744941
202 1 0.330704 0.833468 0.832492
205 1 0.413796 0.743525 0.749809
206 1 0.419741 0.91222 0.920416
207 1 0.582525 0.748955 0.915288
208 1 0.578396 0.911721 0.744135
210 1 0.662217 0.835483 0.830258
213 1 0.749337 0.753559 0.753731
214 1 0.750039 0.911871 0.91686
215 1 0.9172 0.752289 0.915986
216 1 0.923197 0.922301 0.754661
ITEM: TIMESTEP
3300
ITEM: NUMBER OF ATOMS
216
ITEM: BOX BOUNDS pp pp pp
0.0000000000000000e+00 1.6427280000000000e+01
0.0000000000000000e+00 1.6427280000000000e+01
0.0000000000000000e+00 1.6427280000000000e+01
ITEM: ATOMS id type xs ys zs
1 1 0.00293618 0.00454937 -0.00267206
2 1 -0.000845297 0.167997 0.171191
3 1 0.176989 0.00708839 0.168063
4 1 0.16092 0.16605 -0.0031849
5 1 0.0847179 0.0846008 0.0869505
9 1 0.328687 -0.00473114 -0.00403387
10 1 0.337007 0.170552 0.160211
13 1 0.414238 0.0760958 0.0803516
11 1 0.496549 -0.00339558 0.168165
12 1 0.501693 0.167813 0.00274717
17 1 0.670855 0.000393618 0.00860197
18 1 0.673818 0.163523 0.165137
19 1 0.843659 -0.00422381 0.159059
20 1 0.835906 0.173026 -0.00192934
21 1 0.759131 0.0870673 0.0854542
25 1 0.010259 0.323378 -0.00379492
27 1 0.158337 0.33468 0.167623
29 1 0.0867244 0.416889 0.0799947
8 1 0.250574 0.251212 0.0892651
33 1 0.340267 0.33206 -0.00381402
37 1 0.418437 0.408998 0.0824174
16 1 0.589126 0.244965 0.085868
35 1 0.503487 0.319919 0.170289
41 1 0.664549 0.341752 0.00505796
24 1 0.923969 0.255223 0.0794534
43 1 0.840433 0.335853 0.166662
45 1 0.743071 0.424069 0.0917132
26 1 -0.0031011 0.495909 0.164543
28 1 0.168861 0.504168 -8.92551e-05
49 1 -0.00208169 0.667698 0.00916556
51 1 0.174465 0.668402 0.164128
32 1 0.264661 0.582048 0.0832146
34 1 0.340937 0.498011 0.169202
57 1 0.348638 0.663169 -0.00803562
36 1 0.5068 0.492941 0.00407364
40 1 0.578175 0.58747 0.0869903
42 1 0.665764 0.505725 0.175468
59 1 0.496587 0.670114 0.170419
65 1 0.667236 0.659925 0.00258344
44 1 0.82714 0.498162 0.00332481
48 1 0.908825 0.582254 0.0849908
67 1 0.837481 0.66789 0.177001
50 1 0.0131794 0.834357 0.166823
52 1 0.17237 0.825629 0.000865662
53 1 0.0906219 0.748977 0.0845196
56 1 0.251044 0.90881 0.079707
58 1 0.33346 0.833066 0.167936
61 1 0.418932 0.748969 0.0802977
60 1 0.505392 0.827892 -0.00127225
64 1 0.586193 0.914889 0.0856757
66 1 0.675826 0.828343 0.160565
68 1 0.838208 0.83779 0.0026746
69 1 0.762384 0.746169 0.07766
72 1 0.932795 0.909192 0.0832869
73 1 0.00112919 0.00918714 0.325628
76 1 0.168777 0.16956 0.335877
77 1 0.0826871 0.0837989 0.415681
7 1 0.259388 0.0937723 0.249362
81 1 0.332073 0.0076158 0.329651
85 1 0.41608 0.0863118 0.41494
15 1 0.581651 0.0837958 0.243879
84 1 0.503053 0.165924 0.331499
89 1 0.664968 -0.0034496 0.321789
23 1 0.904144 0.0891374 0.24905
92 1 0.817914 0.165556 0.333862
93 1 0.744082 0.0806563 0.420875
6 1 0.0817964 0.247355 0.250637
97 1 -0.00157991 0.324313 0.33563
101 1 0.0805089 0.412725 0.412385
14 1 0.416187 0.24561 0.251875
31 1 0.247003 0.415209 0.247646
80 1 0.242928 0.257279 0.417764
105 1 0.329058 0.327585 0.322898
109 1 0.41461 0.41446 0.412056
39 1 0.583177 0.409428 0.250722
88 1 0.58173 0.250593 0.422894
113 1 0.661377 0.337771 0.34341
22 1 0.749385 0.25735 0.25221
47 1 0.922781 0.411759 0.254232
96 1 0.913571 0.244328 0.413831
117 1 0.74707 0.421577 0.418331
30 1 0.080241 0.58319 0.240477
100 1 0.166131 0.503783 0.326206
121 1 -0.000177224 0.659097 0.333553
38 1 0.420174 0.580372 0.256871
104 1 0.251041 0.577213 0.411113
129 1 0.331242 0.661901 0.335784
108 1 0.49788 0.500402 0.338468
112 1 0.592242 0.583868 0.411956
137 1 0.674549 0.668924 0.337976
46 1 0.757271 0.579597 0.256668
116 1 0.837165 0.493551 0.340028
120 1 0.908272 0.583351 0.420325
54 1 0.08477 0.930316 0.244298
124 1 0.160615 0.833495 0.324602
125 1 0.0797765 0.754362 0.406406
55 1 0.251739 0.745098 0.249358
62 1 0.414593 0.921109 0.256149
128 1 0.247993 0.915355 0.40664
133 1 0.41787 0.747081 0.424078
63 1 0.587337 0.751513 0.256695
132 1 0.495015 0.835743 0.333337
136 1 0.574674 0.919523 0.416626
70 1 0.752597 0.915595 0.245071
71 1 0.916602 0.751283 0.251331
140 1 0.839044 0.841685 0.336005
141 1 0.754886 0.755683 0.422212
144 1 0.92435 0.923811 0.421294
74 1 -0.00116276 0.158373 0.494791
75 1 0.168296 -0.00803275 0.494984
145 1 -0.00224665 0.00306579 0.668089
148 1 0.16249 0.160832 0.662457
79 1 0.250952 0.0774393 0.580527
82 1 0.327065 0.165852 0.495771
153 1 0.332692 -0.00215375 0.671406
83 1 0.491941 -0.00138875 0.505177
87 1 0.5858 0.0745849 0.588279
90 1 0.661384 0.166219 0.511664
156 1 0.497077 0.162378 0.664293
161 1 0.671343 -0.00448984 0.674028
91 1 0.833785 0.00682843 0.503017
95 1 0.918757 0.0888139 0.585926
164 1 0.836191 0.169672 0.6688
78 1 0.0779492 0.244709 0.578466
99 1 0.16449 0.341808 0.497288
169 1 -0.00442153 0.335808 0.653334
86 1 0.416347 0.245204 0.582281
103 1 0.248845 0.421061 0.585594
177 1 0.325858 0.325486 0.66531
107 1 0.493805 0.335249 0.501697
111 1 0.57714 0.416204 0.580866
185 1 0.666576 0.333111 0.67265
94 1 0.753987 0.252365 0.581098
115 1 0.833552 0.33643 0.491447
119 1 0.914619 0.423035 0.575033
98 1 0.00328773 0.503546 0.492005
102 1 0.08334 0.583989 0.582652
123 1 0.163399 0.664874 0.492479
172 1 0.171336 0.508181 0.664738
193 1 -0.00349796 0.669765 0.670487
106 1 0.32955 0.503641 0.50086
110 1 0.416613 0.585638 0.579339
201 1 0.331475 0.672456 0.665296
114 1 0.663058 0.499014 0.506262
131 1 0.511312 0.666276 0.503687
180 1 0.490893 0.498984 0.665931
209 1 0.660743 0.67229 0.668747
118 1 0.743241 0.591015 0.581124
139 1 0.831802 0.676364 0.501501
188 1 0.83166 0.502374 0.657888
122 1 0.0060867 0.833808 0.496465
126 1 0.0872597 0.919134 0.582811
196 1 0.175065 0.836809 0.67146
127 1 0.248602 0.752057 0.58152
130 1 0.328866 0.835531 0.495236
134 1 0.411777 0.915959 0.584168
135 1 0.583638 0.756939 0.58627
138 1 0.662213 0.834703 0.499804
204 1 0.500421 0.845436 0.67447
142 1 0.749493 0.911997 0.583478
143 1 0.922553 0.75358 0.57679
212 1 0.835776 0.825565 0.665926
146 1 -0.0113104 0.175111 0.832379
147 1 0.1649 0.0026874 0.836259
149 1 0.0788251 0.0867281 0.75192
151 1 0.247028 0.085336 0.914591
154 1 0.32789 0.161342 0.831057
157 1 0.4175 0.0814054 0.750337
155 1 0.50423 0.00220196 0.83452
159 1 0.579279 0.0806388 0.92587
162 1 0.657964 0.167987 0.8385
163 1 0.83487 0.00302364 0.831974
165 1 0.751695 0.0952584 0.75206
167 1 0.916815 0.0844164 0.913161
150 1 0.0857326 0.250205 0.905964
171 1 0.165627 0.334116 0.828496
173 1 0.0824267 0.413528 0.742511
152 1 0.238039 0.24069 0.750441
158 1 0.414952 0.248889 0.910721
175 1 0.247641 0.412416 0.916528
181 1 0.409832 0.409186 0.749552
160 1 0.581613 0.245475 0.747669
179 1 0.502259 0.328107 0.832036
183 1 0.586183 0.416024 0.918455
166 1 0.73855 0.252722 0.924023
168 1 0.911952 0.261065 0.745584
187 1 0.822577 0.331364 0.834369
189 1 0.752622 0.419764 0.743245
191 1 0.918156 0.409904 0.916775
170 1 -0.00544986 0.493915 0.830419
174 1 0.0742646 0.577878 0.923531
195 1 0.157375 0.67202 0.835117
176 1 0.249282 0.592898 0.751134
178 1 0.334664 0.500953 0.832834
182 1 0.426678 0.572376 0.914479
184 1 0.580491 0.57807 0.744909
186 1 0.669637 0.500295 0.833147
203 1 0.501594 0.660346 0.837453
190 1 0.749269 0.579227 0.918946
192 1 0.909409 0.586121 0.750898
211 1 0.827191 0.667493 0.840319
194 1 -0.00248368 0.831292 0.834116
197 1 0.0819288 0.75847 0.748474
198 1 0.0842309 0.915551 0.913449
199 1 0.254149 0.743586 0.915858
200 1 0.248644 0.922193 0.754191
202 1 0.338107 0.833635 0.834809
205 1 0.416888 0.752562 0.754925
206 1 0.422188 0.911971 0.918173
207 1 0.588609 0.748206 0.919809
208 1 0.588904 0.917583 0.759377
210 1 0.666688 0.829598 0.84215
213 1 0.745459 0.748868 0.750368
214 1 0.755122 0.918276 0.919498
215 1 0.912753 0.745061 0.918415
216 1 0.913757 0.914094 0.745827
ITEM: TIMESTEP
3400
ITEM: NUMBER OF ATOMS
216
ITEM: BOX BOUNDS pp pp pp
0.0000000000000000e+00 1.6427280000000000e+01
0.0000000000000000e+00 1.6427280000000000e+01
0.0000000000000000e+00 1.6427280000000000e+01
ITEM: ATOMS id type xs ys zs
1 1 -0.0118288 -0.00165525 0.00075554
2 1 -0.00232856 0.171819 0.164197
3 1 0.155064 -0.00512838 0.165462
4 1 0.164696 0.168921 -0.00889134
5 1 0.0777894 0.0856333 0.0805458
9 1 0.335291 0.00592905 -8.06788e-05
10 1 0.334476 0.166003 0.17941
13 1 0.41966 0.0910512 0.0903924
11 1 0.50307 0.000144688 0.169804
12 1 0.497813 0.165611 -0.00222509
17 1 0.669349 -0.000438656 -0.0114191
18 1 0.658946 0.165658 0.166125
19 1 0.829599 0.00443881 0.169495
20 1 0.83329 0.159977 0.000874815
21 1 0.741882 0.0827517 0.0806271
25 1 -0.00455332 0.339296 0.00397278
27 1 0.167243 0.335069 0.171626
29 1 0.079889 0.412346 0.0841006
8 1 0.25151 0.249839 0.0800356
33 1 0.33249 0.338387 -0.00329577
37 1 0.423388 0.424722 0.0815569
16 1 0.582125 0.251618 0.0802213
35 1 0.497945 0.336794 0.167385
41 1 0.666431 0.327551 -0.00778861
24 1 0.912346 0.244895 0.0837636
43 1 0.826761 0.332131 0.167391
45 1 0.749681 0.407499 0.077853
26 1 3.91122e-05 0.498057 0.17113
28 1 0.16519 0.491834 -0.00360881
49 1 0.00315027 0.663875 -0.00896621
51 1 0.160782 0.66594 0.16335
32 1 0.239885 0.585785 0.0844363
34 1 0.328445 0.500124 0.168795
57 1 0.324957 0.666359 0.00289725
36 1 0.496127 0.50789 -0.00402519
40 1 0.584197 0.576221 0.0811571
42 1 0.670274 0.496077 0.163669
59 1 0.495806 0.660359 0.161221
65 1 0.668219 0.667376 -0.00294644
44 1 0.829532 0.506956 0.000423115
48 1 0.919088 0.586393 0.0843896
67 1 0.829574 0.663354 0.162899
50 1 -0.00290296 0.834305 0.159301
52 1 0.160949 0.833179 0.00253268
53 1 0.0783829 0.749066 0.0796755
56 1 0.243221 0.91998 0.0855914
58 1 0.331065 0.835287 0.167527
61 1 0.416364 0.747612 0.0840693
60 1 0.499163 0.83769 0.000491763
64 1 0.580683 0.921385 0.0810611
66 1 0.662224 0.837501 0.170394
68 1 0.832549 0.827864 0.0033884
69 1 0.742441 0.74988 0.0876565
72 1 0.907815 0.919963 0.0800121
73 1 0.000692076 -0.00499746 0.334732
76 1 0.166211 0.16504 0.326884
77 1 0.0840468 0.0893492 0.419979
7 1 0.247573 0.0742253 0.245924
81 1 0.338364 -0.00754926 0.331711
85 1 0.415288 0.0803977 0.41481
15 1 0.583534 0.081633 0.249043
84 1 0.496718 0.163052 0.331004
89 1 0.663484 0.00442986 0.337307
23 1 0.925195 0.0798321 0.246292
92 1 0.849665 0.162227 0.333739
93 1 0.758186 0.0849566 0.410947
6 1 0.0795714 0.254542 0.251268
97 1 -0.000274824 0.338436 0.331337
101 1 0.083589 0.414505 0.421193
14 1 0.416644 0.252497 0.25295
31 1 0.253442 0.412062 0.254535
80 1 0.254348 0.245213 0.416984
105 1 0.33799 0.332601 0.340632
109 1 0.415332 0.417745 0.426373
39 1 0.58269 0.421063 0.255648
88 1 0.579954 0.245334 0.41133
113 1 0.670104 0.326001 0.332571
22 1 0.746619 0.23651 0.251948
47 1 0.909295 0.420055 0.254994
96 1 0.923196 0.251484 0.417709
117 1 0.753139 0.410594 0.413282
30 1 0.0907679 0.582704 0.255381
100 1 0.171181 0.494507 0.346238
121 1 0.00388734 0.677891 0.333789
38 1 0.411701 0.584741 0.247733
104 1 0.250458 0.589765 0.420967
129 1 0.331726 0.6665 0.331531
108 1 0.502668 0.504683 0.335109
112 1 0.580678 0.585648 0.423118
137 1 0.665531 0.667688 0.338334
46 1 0.745908 0.588407 0.249673
116 1 0.827848 0.503475 0.330005
120 1 0.920105 0.591701 0.413172
54 1 0.0842531 0.903309 0.252336
124 1 0.174365 0.830088 0.337483
125 1 0.0848371 0.759227 0.422239
55 1 0.246052 0.748861 0.249002
62 1 0.414631 0.918327 0.239785
128 1 0.256079 0.916155 0.418267
133 1 0.40879 0.755947 0.404986
63 1 0.577952 0.748513 0.246358
132 1 0.4982 0.841989 0.328426
136 1 0.592823 0.913131 0.420305
70 1 0.748296 0.918171 0.254705
71 1 0.916864 0.75453 0.246248
140 1 0.827929 0.829794 0.331156
141 1 0.745161 0.746827 0.417772
144 1 0.915283 0.91209 0.415054
74 1 -0.0046663 0.17119 0.506008
75 1 0.168237 0.0041949 0.496182
145 1 -0.00347192 -0.000355806 0.665244
148 1 0.167879 0.17608 0.675076
79 1 0.249547 0.086707 0.589791
82 1 0.338815 0.166653 0.503867
153 1 0.333565 -0.00124794 0.66773
83 1 0.506079 0.00201467 0.497955
87 1 0.577713 0.0870842 0.581381
90 1 0.666463 0.16127 0.487024
156 1 0.503325 0.16826 0.669953
161 1 0.6608 0.00357091 0.6646
91 1 0.834477 -0.00361874 0.499212
95 1 0.913187 0.0834534 0.582491
164 1 0.832475 0.162909 0.667101
78 1 0.0827031 0.25638 0.582811
99 1 0.168258 0.330149 0.505083
169 1 0.00303699 0.333068 0.678375
86 1 0.417242 0.250856 0.586006
103 1 0.251301 0.415395 0.584483
177 1 0.333133 0.339787 0.670232
107 1 0.508332 0.326703 0.497183
111 1 0.5865 0.416071 0.578581
185 1 0.660487 0.330925 0.662319
94 1 0.74954 0.243131 0.58341
115 1 0.834007 0.33281 0.502409
119 1 0.920168 0.410328 0.586265
98 1 -0.00334471 0.498037 0.504228
102 1 0.0865926 0.584131 0.586332
123 1 0.172846 0.669859 0.501786
172 1 0.16742 0.495667 0.669495
193 1 0.00161047 0.670084 0.661745
106 1 0.331974 0.500064 0.500606
110 1 0.409791 0.583056 0.58868
201 1 0.331046 0.658627 0.666687
114 1 0.667585 0.499783 0.489532
131 1 0.489982 0.666848 0.49771
180 1 0.505682 0.499677 0.66233
209 1 0.675121 0.667774 0.660637
118 1 0.75652 0.582576 0.579223
139 1 0.833753 0.665806 0.496659
188 1 0.834418 0.499271 0.665915
122 1 -0.00564973 0.828724 0.501414
126 1 0.0794044 0.9062 0.582107
196 1 0.162805 0.828784 0.666457
127 1 0.254497 0.74993 0.59027
130 1 0.336652 0.833623 0.5053
134 1 0.419686 0.921596 0.583039
135 1 0.58723 0.749398 0.578993
138 1 0.672425 0.83168 0.498835
204 1 0.50145 0.832998 0.660647
142 1 0.747892 0.922009 0.586889
143 1 0.910253 0.748324 0.584363
212 1 0.833046 0.837452 0.670624
146 1 0.0121645 0.167806 0.836785
147 1 0.170708 -0.00198247 0.833023
149 1 0.0868887 0.0835604 0.751304
151 1 0.250316 0.0845593 0.915051
154 1 0.335147 0.171754 0.835739
157 1 0.416073 0.0835655 0.751246
155 1 0.50015 0.00112939 0.836564
159 1 0.592346 0.0853087 0.908227
162 1 0.674515 0.166434 0.827066
163 1 0.835919 -0.0034499 0.843229
165 1 0.752862 0.0735312 0.745966
167 1 0.922059 0.0890092 0.918604
150 1 0.0760837 0.260724 0.91894
171 1 0.16715 0.332113 0.838273
173 1 0.0877578 0.415947 0.75726
152 1 0.255411 0.260805 0.757746
158 1 0.419736 0.252938 0.91656
175 1 0.251166 0.420209 0.912687
181 1 0.41987 0.421498 0.751843
160 1 0.579615 0.251874 0.752732
179 1 0.499158 0.335405 0.831343
183 1 0.580045 0.414647 0.919464
166 1 0.758217 0.251265 0.909321
168 1 0.918428 0.241537 0.749889
187 1 0.839814 0.335424 0.823762
189 1 0.746812 0.415604 0.748003
191 1 0.916105 0.418912 0.918532
170 1 0.00684126 0.506145 0.835842
174 1 0.0958662 0.58833 0.912324
195 1 0.179124 0.663196 0.833615
176 1 0.252738 0.575026 0.746351
178 1 0.336206 0.505335 0.83595
182 1 0.412357 0.590073 0.91829
184 1 0.586859 0.586631 0.749957
186 1 0.663845 0.49336 0.834091
203 1 0.501529 0.672393 0.837862
190 1 0.746904 0.584147 0.911243
192 1 0.916623 0.580589 0.745537
211 1 0.834484 0.659022 0.830637
194 1 0.000447817 0.830147 0.833858
197 1 0.0871778 0.742482 0.751975
198 1 0.0817103 0.915838 0.920382
199 1 0.245912 0.753747 0.924239
200 1 0.250803 0.913604 0.746266
202 1 0.325137 0.835028 0.831649
205 1 0.416185 0.748915 0.744396
206 1 0.413556 0.919358 0.913738
207 1 0.584075 0.754083 0.919625
208 1 0.581401 0.915799 0.750439
210 1 0.66885 0.832829 0.825545
213 1 0.757861 0.746492 0.752141
214 1 0.747619 0.910278 0.915164
215 1 0.918404 0.749503 0.917551
216 1 0.915331 0.914692 0.758196
ITEM: TIMESTEP
3500
ITEM: NUMBER OF ATOMS
216
ITEM: BOX BOUNDS pp pp pp
0.0000000000000000e+00 1.6427280000000000e+01
0.0000000000000000e+00 1.6427280000000000e+01
0.0000000000000000e+00 1.6427280000000000e+01
ITEM: ATOMS id type xs ys zs
1 1 0.00311346 -0.00383773 0.00254006
2 1 -0.000337494 0.159872 0.175858
3 1 0.174048 0.00180296 0.174136
4 1 0.166272 0.16625 0.00671749
5 1 0.0820246 0.0763901 0.0894084
9 1 0.331087 -0.00132957 -0.00361415
10 1 0.335532 0.162917 0.163152
13 1 0.414554 0.0799674 0.0819038
11 1 0.491092 -0.000420372 0.16771
12 1 0.502779 0.168751 -0.00137003
17 1 0.660609 0.00129428 0.000998444
18 1 0.668237 0.16971 0.167036
19 1 0.834764 -0.00287073 0.163092
20 1 0.833552 0.164586 -0.000712685
21 1 0.749445 0.0812927 0.0833279
25 1 0.00980317 0.329554 -0.000318473
27 1 0.158861 0.335782 0.171879
29 1 0.082519 0.418261 0.0828076
8 1 0.242193 0.25117 0.0927184
33 1 0.332779 0.333988 0.00173506
37 1 0.415522 0.419865 0.0866368
16 1 0.585823 0.252325 0.0831343
35 1 0.497578 0.330097 0.163691
41 1 0.664671 0.34131 0.00665515
24 1 0.927039 0.249699 0.0796961
43 1 0.841269 0.337363 0.164448
45 1 0.750694 0.423973 0.0789245
26 1 -0.00503224 0.497262 0.158738
28 1 0.166051 0.508816 0.00854251
49 1 -0.00382768 0.672401 0.00849456
51 1 0.165957 0.676486 0.171332
32 1 0.249287 0.59121 0.0855139
34 1 0.333071 0.505484 0.166973
57 1 0.331 0.667417 -0.00428431
36 1 0.50009 0.499826 -0.00213032
40 1 0.576455 0.589511 0.0793823
42 1 0.661646 0.504593 0.161365
59 1 0.499705 0.66913 0.167589
65 1 0.661905 0.667959 -0.00456578
44 1 0.836097 0.49562 -0.00439326
48 1 0.913476 0.582134 0.0815692
67 1 0.825139 0.664405 0.162608
50 1 -0.00507681 0.830864 0.174431
52 1 0.164544 0.830771 -0.00216201
53 1 0.0841061 0.751159 0.0865471
56 1 0.250452 0.91626 0.0820894
58 1 0.336045 0.8352 0.173389
61 1 0.409794 0.753819 0.0817555
60 1 0.494088 0.8319 -0.00357731
64 1 0.578448 0.917492 0.0818852
66 1 0.663518 0.831721 0.157283
68 1 0.829881 0.841021 -0.00902105
69 1 0.748324 0.74899 0.0758078
72 1 0.916312 0.914735 0.0836348
73 1 -0.00849482 0.00221299 0.335146
76 1 0.163852 0.168579 0.339911
77 1 0.0798264 0.0774141 0.416142
7 1 0.248869 0.0877973 0.257207
81 1 0.326634 0.000909396 0.336182
85 1 0.419042 0.0871919 0.417973
15 1 0.58205 0.0862282 0.248036
84 1 0.504223 0.176777 0.334283
89 1 0.666761 -0.00297258 0.333925
23 1 0.909862 0.0863548 0.252284
92 1 0.828929 0.171757 0.335147
93 1 0.745367 0.0791855 0.416415
6 1 0.0802837 0.245482 0.252168
97 1 0.00555281 0.330221 0.333958
101 1 0.0866541 0.412764 0.412385
14 1 0.413881 0.246346 0.247888
31 1 0.24661 0.424897 0.253632
80 1 0.250943 0.255719 0.418315
105 1 0.326996 0.333486 0.326156
109 1 0.418298 0.410417 0.406964
39 1 0.58573 0.414782 0.238161
88 1 0.591244 0.257742 0.415909
113 1 0.665858 0.338013 0.33187
22 1 0.752787 0.259238 0.246006
47 1 0.926183 0.415257 0.251334
96 1 0.919761 0.24747 0.416129
117 1 0.748773 0.420284 0.416161
30 1 0.0772511 0.587901 0.24838
100 1 0.165738 0.50464 0.33097
121 1 -0.00732667 0.662015 0.342459
38 1 0.418173 0.593222 0.252292
104 1 0.256263 0.580179 0.414957
129 1 0.333526 0.668603 0.335329
108 1 0.497441 0.496502 0.323932
112 1 0.588387 0.574869 0.402101
137 1 0.671147 0.659863 0.325883
46 1 0.750477 0.576452 0.244539
116 1 0.831723 0.496158 0.328098
120 1 0.906518 0.568298 0.42446
54 1 0.0813932 0.918774 0.25026
124 1 0.155862 0.837116 0.335863
125 1 0.0826804 0.741924 0.419265
55 1 0.251537 0.755763 0.26169
62 1 0.412757 0.920672 0.257174
128 1 0.241266 0.914061 0.412867
133 1 0.418537 0.74419 0.422526
63 1 0.586209 0.747277 0.2472
132 1 0.496659 0.832138 0.333825
136 1 0.580655 0.917919 0.416635
70 1 0.750415 0.913337 0.244438
71 1 0.910831 0.740708 0.254966
140 1 0.828803 0.826832 0.339108
141 1 0.745706 0.746469 0.412712
144 1 0.914258 0.90929 0.41854
74 1 0.00492968 0.165045 0.499091
75 1 0.167996 -0.000924168 0.508358
145 1 0.00434219 -0.0012691 0.672195
148 1 0.173192 0.164933 0.668272
79 1 0.261678 0.0814968 0.581154
82 1 0.334341 0.170001 0.497044
153 1 0.336667 -0.00294408 0.665251
83 1 0.498333 -0.000818773 0.499608
87 1 0.58991 0.0792662 0.58335
90 1 0.667987 0.172084 0.505125
156 1 0.506816 0.166288 0.659283
161 1 0.672325 -0.00334359 0.658747
91 1 0.836939 -0.000336673 0.502952
95 1 0.919894 0.0847055 0.581271
164 1 0.843887 0.165473 0.665634
78 1 0.0876894 0.242045 0.581848
99 1 0.169972 0.335594 0.503039
169 1 0.00199036 0.328671 0.660492
86 1 0.421577 0.252256 0.580028
103 1 0.254777 0.419385 0.582591
177 1 0.338737 0.331504 0.665562
107 1 0.500702 0.337189 0.502147
111 1 0.588966 0.415704 0.586632
185 1 0.676394 0.336895 0.671449
94 1 0.760296 0.255179 0.586747
115 1 0.840418 0.331914 0.49556
119 1 0.914562 0.415149 0.587251
98 1 0.00598464 0.491824 0.502218
102 1 0.0848476 0.580352 0.587297
123 1 0.166597 0.666725 0.500446
172 1 0.172749 0.498484 0.670995
193 1 -0.00245565 0.66449 0.671206
106 1 0.338762 0.503494 0.500509
110 1 0.421501 0.58465 0.582428
201 1 0.334282 0.672714 0.663244
114 1 0.666709 0.500542 0.502897
131 1 0.508697 0.659305 0.496588
180 1 0.498029 0.498894 0.666519
209 1 0.670386 0.665551 0.669715
118 1 0.753749 0.578445 0.587136
139 1 0.829942 0.66606 0.503727
188 1 0.836943 0.498033 0.671337
122 1 0.00446872 0.832751 0.500911
126 1 0.0858241 0.917593 0.587281
196 1 0.175417 0.836496 0.670695
127 1 0.247933 0.748195 0.580176
130 1 0.328092 0.83328 0.498406
134 1 0.414035 0.913713 0.583926
135 1 0.58634 0.753058 0.5794
138 1 0.665694 0.830788 0.491605
204 1 0.500935 0.83168 0.664473
142 1 0.751021 0.907173 0.570858
143 1 0.924803 0.745955 0.579257
212 1 0.833007 0.824967 0.659081
146 1 -0.00602342 0.165591 0.839072
147 1 0.170152 0.00306498 0.832772
149 1 0.0820416 0.0863186 0.761296
151 1 0.248866 0.0842286 0.918117
154 1 0.33357 0.168596 0.836824
157 1 0.417647 0.0871903 0.745244
155 1 0.498955 -0.000893852 0.827555
159 1 0.57347 0.0780951 0.919676
162 1 0.65741 0.164206 0.8331
163 1 0.827156 -0.000685392 0.8216
165 1 0.74777 0.0856492 0.744698
167 1 0.911437 0.0740414 0.916259
150 1 0.0862416 0.241366 0.920199
171 1 0.168006 0.327726 0.836848
173 1 0.090431 0.415859 0.748983
152 1 0.257292 0.252001 0.750441
158 1 0.420225 0.251368 0.912824
175 1 0.248089 0.418146 0.918556
181 1 0.418676 0.416255 0.75324
160 1 0.587749 0.252015 0.746294
179 1 0.507492 0.335184 0.833358
183 1 0.58388 0.425044 0.912676
166 1 0.743859 0.248608 0.925049
168 1 0.917598 0.245635 0.75476
187 1 0.829983 0.325758 0.839897
189 1 0.754277 0.419519 0.758902
191 1 0.917552 0.404976 0.92258
170 1 -0.00100773 0.49706 0.832557
174 1 0.074988 0.586551 0.923287
195 1 0.160104 0.665089 0.83308
176 1 0.251428 0.590377 0.752968
178 1 0.327427 0.49754 0.833788
182 1 0.413137 0.577715 0.920393
184 1 0.588428 0.580906 0.754724
186 1 0.675875 0.506981 0.838269
203 1 0.494009 0.661641 0.832353
190 1 0.753444 0.590617 0.91585
192 1 0.915268 0.588671 0.754594
211 1 0.829 0.67509 0.829439
194 1 -0.000606492 0.837071 0.83219
197 1 0.0826718 0.754132 0.749247
198 1 0.0818425 0.91763 0.917677
199 1 0.24433 0.749685 0.909041
200 1 0.251008 0.924301 0.751478
202 1 0.331468 0.839537 0.839912
205 1 0.414254 0.748378 0.748574
206 1 0.42023 0.921996 0.915484
207 1 0.581707 0.750008 0.90956
208 1 0.583415 0.921243 0.742192
210 1 0.663857 0.836504 0.832255
213 1 0.745013 0.755857 0.748462
214 1 0.743511 0.924043 0.910337
215 1 0.915434 0.752365 0.913281
216 1 0.916016 0.915131 0.744032
ITEM: TIMESTEP
3600
ITEM: NUMBER OF ATOMS
216
ITEM: BOX BOUNDS pp pp pp
0.0000000000000000e+00 1.6427280000000000e+01
0.0000000000000000e+00 1.6427280000000000e+01
0.0000000000000000e+00 1.6427280000000000e+01
ITEM: ATOMS id type xs ys zs
1 1 0.000921201 0.00349155 -0.000272807
2 1 0.00211596 0.16847 0.165467
3 1 0.15849 0.00378457 0.166738
4 1 0.167662 0.162242 -0.00515907
5 1 0.0842395 0.0896822 0.080185
9 1 0.337256 -0.00166442 0.00564945
10 1 0.329989 0.166325 0.169553
13 1 0.415937 0.081023 0.0811348
11 1 0.502948 -0.000950975 0.162793
12 1 0.498645 0.16486 0.00297157
17 1 0.669173 -0.000391896 0.00199412
18 1 0.668184 0.167394 0.159643
19 1 0.832369 0.00363257 0.171308
20 1 0.832662 0.166042 0.000842431
21 1 0.748869 0.0777527 0.085653
25 1 -0.00216189 0.333931 0.000196728
27 1 0.168334 0.332019 0.160103
29 1 0.0804574 0.41503 0.0840112
8 1 0.256337 0.244614 0.0796255
33 1 0.333214 0.330457 -0.00155221
37 1 0.415874 0.41583 0.07843
16 1 0.57761 0.247962 0.0838078
35 1 0.503789 0.336051 0.168352
41 1 0.666073 0.323403 -0.00535908
24 1 0.913251 0.251678 0.0869324
43 1 0.828775 0.332612 0.170109
45 1 0.746106 0.414073 0.0857841
26 1 0.00213678 0.499755 0.16778
28 1 0.16178 0.49489 -0.00137136
49 1 0.00492536 0.666425 -0.00235607
51 1 0.168063 0.659179 0.159876
32 1 0.253016 0.574614 0.0769918
34 1 0.331613 0.498473 0.167762
57 1 0.336875 0.667896 0.00285651
36 1 0.502562 0.499275 0.00062537
40 1 0.587565 0.581303 0.0859294
42 1 0.673559 0.501271 0.169146
59 1 0.501381 0.665683 0.164695
65 1 0.667395 0.66536 0.00467749
44 1 0.832101 0.503452 0.0050843
48 1 0.922095 0.585223 0.0823765
67 1 0.840497 0.665153 0.173889
50 1 0.00507226 0.83637 0.159037
52 1 0.164017 0.835511 0.00159038
53 1 0.0824118 0.748843 0.0798741
56 1 0.250524 0.917935 0.0848513
58 1 0.330038 0.832673 0.165353
61 1 0.422332 0.750346 0.0866901
60 1 0.503394 0.841585 -0.000969288
64 1 0.588152 0.920245 0.0816935
66 1 0.665659 0.83268 0.172663
68 1 0.831704 0.833656 0.00723095
69 1 0.750335 0.750593 0.089746
72 1 0.917675 0.923668 0.0876963
73 1 0.00650131 -1.08078e-05 0.331885
76 1 0.170619 0.168732 0.32935
77 1 0.084214 0.0910951 0.420743
7 1 0.253084 0.0801419 0.245213
81 1 0.336438 -0.00116038 0.326954
85 1 0.413914 0.0834741 0.416939
15 1 0.582619 0.0803648 0.251478
84 1 0.498767 0.165723 0.332186
89 1 0.665599 -0.00134058 0.331972
23 1 0.91889 0.0787354 0.248468
92 1 0.834276 0.164939 0.327725
93 1 0.753394 0.0844171 0.416427
6 1 0.0869589 0.253647 0.246677
97 1 -0.00534089 0.332329 0.336508
101 1 0.0814541 0.415095 0.416133
14 1 0.420062 0.258189 0.252479
31 1 0.251915 0.407472 0.247862
80 1 0.252 0.250538 0.414665
105 1 0.337719 0.334683 0.337289
109 1 0.419049 0.423212 0.421199
39 1 0.585093 0.41633 0.255752
88 1 0.578036 0.247979 0.415266
113 1 0.665381 0.333186 0.331411
22 1 0.745441 0.247299 0.253865
47 1 0.917135 0.417071 0.248542
96 1 0.918272 0.251456 0.420039
117 1 0.753162 0.415625 0.418532
30 1 0.0854726 0.57376 0.250252
100 1 0.169837 0.492256 0.335322
121 1 0.00892045 0.671949 0.326097
38 1 0.415202 0.576843 0.249298
104 1 0.244479 0.585414 0.412893
129 1 0.330425 0.66021 0.326732
108 1 0.501624 0.507176 0.336608
112 1 0.584997 0.591982 0.429034
137 1 0.667361 0.672539 0.335321
46 1 0.750204 0.586964 0.255894
116 1 0.8358 0.503547 0.330165
120 1 0.924998 0.58798 0.406727
54 1 0.0868396 0.917883 0.255931
124 1 0.172649 0.827004 0.337354
125 1 0.0845002 0.758307 0.414922
55 1 0.246816 0.743904 0.243546
62 1 0.420211 0.917266 0.244334
128 1 0.255371 0.916673 0.418642
133 1 0.412752 0.747256 0.414325
63 1 0.582557 0.744997 0.253155
132 1 0.505455 0.834453 0.331635
136 1 0.59076 0.912403 0.418017
70 1 0.750514 0.916813 0.255834
71 1 0.912676 0.759927 0.244129
140 1 0.839735 0.837826 0.334936
141 1 0.753755 0.754383 0.418909
144 1 0.918429 0.923318 0.418083
74 1 -0.00325751 0.169413 0.500814
75 1 0.168234 -0.00424216 0.495388
145 1 -0.00573921 0.00119825 0.657798
148 1 0.161519 0.162492 0.658516
79 1 0.245452 0.0823219 0.579131
82 1 0.330167 0.170107 0.506011
153 1 0.325673 0.000994214 0.666089
83 1 0.506642 -0.00174976 0.501997
87 1 0.580764 0.08582 0.583206
90 1 0.66232 0.165104 0.49914
156 1 0.49738 0.172886 0.667716
161 1 0.662838 0.00364401 0.673585
91 1 0.828583 -0.000834013 0.49726
95 1 0.915279 0.0865733 0.581923
164 1 0.824128 0.166991 0.668638
78 1 0.0786015 0.254925 0.5817
99 1 0.162799 0.331054 0.490944
169 1 -0.00421214 0.33523 0.669276
86 1 0.413827 0.249078 0.584953
103 1 0.243681 0.410684 0.585876
177 1 0.334254 0.331006 0.667089
107 1 0.500777 0.331347 0.497609
111 1 0.580578 0.415733 0.581188
185 1 0.660489 0.332622 0.669568
94 1 0.741403 0.248222 0.583712
115 1 0.833241 0.332265 0.507795
119 1 0.915249 0.423072 0.584674
98 1 -0.000829599 0.503005 0.496675
102 1 0.0831197 0.587172 0.582566
123 1 0.163233 0.669662 0.498701
172 1 0.165686 0.502242 0.661352
193 1 -0.00178669 0.664215 0.668665
106 1 0.326456 0.499611 0.503466
110 1 0.412645 0.5819 0.581424
201 1 0.330954 0.655293 0.666227
114 1 0.667452 0.498446 0.504618
131 1 0.492971 0.66926 0.50578
180 1 0.497829 0.500686 0.664416
209 1 0.663916 0.666626 0.66799
118 1 0.748994 0.57713 0.584855
139 1 0.834675 0.67087 0.49685
188 1 0.833472 0.498987 0.668353
122 1 -0.00529289 0.830337 0.494252
126 1 0.078705 0.916476 0.575193
196 1 0.165237 0.83308 0.659906
127 1 0.252552 0.74746 0.586712
130 1 0.337052 0.830421 0.503682
134 1 0.419319 0.923595 0.583609
135 1 0.580431 0.752053 0.582625
138 1 0.669719 0.833396 0.502398
204 1 0.495407 0.840933 0.667582
142 1 0.741627 0.922751 0.587813
143 1 0.913776 0.751752 0.590985
212 1 0.830303 0.839048 0.673454
146 1 0.00325197 0.167588 0.829446
147 1 0.167603 -0.00439249 0.835055
149 1 0.084198 0.0731392 0.741738
151 1 0.254417 0.0798348 0.914551
154 1 0.328591 0.161854 0.831212
157 1 0.415663 0.0790915 0.753203
155 1 0.503627 -0.00273845 0.839886
159 1 0.583293 0.0851222 0.919369
162 1 0.671756 0.169117 0.834585
163 1 0.837402 0.00159142 0.843664
165 1 0.755334 0.0822664 0.754171
167 1 0.924034 0.0881434 0.912089
150 1 0.0801009 0.253099 0.915248
171 1 0.167095 0.332616 0.832593
173 1 0.0824184 0.413821 0.749021
152 1 0.243098 0.243701 0.748791
158 1 0.412024 0.245623 0.91747
175 1 0.249746 0.418295 0.914327
181 1 0.414118 0.412679 0.74885
160 1 0.580045 0.254864 0.753016
179 1 0.493809 0.330826 0.837852
183 1 0.583508 0.411441 0.91929
166 1 0.758038 0.253273 0.910361
168 1 0.916354 0.250752 0.748071
187 1 0.837805 0.344388 0.830649
189 1 0.745979 0.415425 0.738735
191 1 0.9166 0.423329 0.920663
170 1 -0.00494956 0.501067 0.834027
174 1 0.0890102 0.584027 0.916382
195 1 0.171619 0.674489 0.832574
176 1 0.245906 0.581462 0.750726
178 1 0.340013 0.504248 0.829722
182 1 0.420252 0.586844 0.91444
184 1 0.577911 0.580119 0.750237
186 1 0.65938 0.491766 0.828061
203 1 0.502718 0.671167 0.832991
190 1 0.747636 0.574528 0.915258
192 1 0.916394 0.582246 0.745976
211 1 0.83705 0.661782 0.831096
194 1 0.00217547 0.835363 0.83706
197 1 0.0826458 0.749174 0.751304
198 1 0.0841615 0.923056 0.912689
199 1 0.254664 0.749676 0.922616
200 1 0.246709 0.916956 0.745833
202 1 0.338848 0.828951 0.827753
205 1 0.416803 0.750053 0.744077
206 1 0.412551 0.915619 0.919805
207 1 0.586056 0.756795 0.920911
208 1 0.584457 0.912658 0.754558
210 1 0.672166 0.829075 0.833811
213 1 0.752753 0.744245 0.754653
214 1 0.750502 0.915143 0.920614
215 1 0.915386 0.745696 0.916025
216 1 0.917993 0.923015 0.755132
ITEM: TIMESTEP
3700
ITEM: NUMBER OF ATOMS
216
ITEM: BOX BOUNDS pp pp pp
0.0000000000000000e+00 1.6427280000000000e+01
0.0000000000000000e+00 1.6427280000000000e+01
0.0000000000000000e+00 1.6427280000000000e+01
ITEM: ATOMS id type xs ys zs
1 1 0.00363982 -0.00389661 -0.00663883
2 1 -0.000875684 0.163607 0.158681
3 1 0.179297 0.0021927 0.158934
4 1 0.164295 0.171676 -0.00211179
5 1 0.0861127 0.0803778 0.0806048
9 1 0.335392 0.00478325 -0.0112546
10 1 0.336178 0.166375 0.160806
13 1 0.420139 0.0847857 0.07998
11 1 0.503361 -0.0062679 0.167347
12 1 0.500253 0.169579 0.00241851
17 1 0.673757 -0.00274601 0.00519921
18 1 0.671039 0.16712 0.172579
19 1 0.836097 0.00660644 0.164547
20 1 0.830747 0.164446 0.00114985
21 1 0.752782 0.0849845 0.0854659
25 1 0.00298369 0.344214 -0.00660135
27 1 0.171803 0.339536 0.162212
29 1 0.0894055 0.419779 0.0795978
8 1 0.247311 0.256864 0.0791702
33 1 0.335756 0.330983 -0.00208705
37 1 0.42137 0.411666 0.0887256
16 1 0.586946 0.25032 0.0826919
35 1 0.503693 0.330123 0.167407
41 1 0.661711 0.340686 0.0037989
24 1 0.919057 0.25382 0.0797586
43 1 0.832468 0.333066 0.171903
45 1 0.755521 0.41967 0.0854258
26 1 0.00263364 0.498134 0.163255
28 1 0.172344 0.494067 -0.00120581
49 1 -0.00112336 0.659378 0.00431205
51 1 0.171082 0.669165 0.165337
32 1 0.252514 0.583546 0.0825642
34 1 0.339318 0.501513 0.16649
57 1 0.331478 0.657943 -0.0018172
36 1 0.501043 0.500067 0.000751491
40 1 0.581516 0.579519 0.0922455
42 1 0.664499 0.500446 0.177995
59 1 0.50453 0.664399 0.177101
65 1 0.667744 0.667268 0.00659438
44 1 0.841211 0.4946 -0.00279919
48 1 0.917195 0.579383 0.085324
67 1 0.835263 0.664371 0.165819
50 1 0.00499411 0.828809 0.167796
52 1 0.167071 0.829756 -0.00599307
53 1 0.0827751 0.746441 0.080844
56 1 0.258509 0.914814 0.0768952
58 1 0.342334 0.82746 0.162807
61 1 0.420345 0.740081 0.0805874
60 1 0.503895 0.825077 0.00551649
64 1 0.585425 0.909978 0.0846145
66 1 0.669587 0.837318 0.171334
68 1 0.843312 0.831574 -0.00238702
69 1 0.756429 0.750373 0.0882242
72 1 0.921955 0.913499 0.0844398
73 1 -0.00791106 -0.00312901 0.331511
76 1 0.171216 0.161969 0.333441
77 1 0.0809714 0.0776246 0.416689
7 1 0.252357 0.0848565 0.247917
81 1 0.332075 -0.000831039 0.332552
85 1 0.417317 0.0810728 0.416793
15 1 0.588039 0.0816246 0.248572
84 1 0.502843 0.167759 0.337038
89 1 0.665309 -0.00636964 0.339051
23 1 0.915377 0.0829556 0.246927
92 1 0.833601 0.164315 0.339063
93 1 0.742926 0.0878201 0.419434
6 1 0.0818283 0.254675 0.250009
97 1 0.000224734 0.343268 0.332708
101 1 0.084043 0.423752 0.416686
14 1 0.416516 0.244243 0.246286
31 1 0.251272 0.423126 0.244852
80 1 0.248082 0.246852 0.420265
105 1 0.327722 0.328101 0.331715
109 1 0.408339 0.404941 0.418123
39 1 0.580923 0.4146 0.251312
88 1 0.584081 0.250566 0.424349
113 1 0.664342 0.327909 0.337751
22 1 0.750409 0.251803 0.251636
47 1 0.911115 0.423696 0.248648
96 1 0.915043 0.247897 0.411675
117 1 0.739731 0.420124 0.413664
30 1 0.0830491 0.586439 0.244742
100 1 0.161467 0.504623 0.328988
121 1 0.00157473 0.667347 0.33712
38 1 0.418028 0.585451 0.247379
104 1 0.249788 0.583205 0.415617
129 1 0.338747 0.668114 0.336359
108 1 0.495238 0.491068 0.335564
112 1 0.576049 0.586489 0.414734
137 1 0.668688 0.669793 0.337337
46 1 0.751139 0.589816 0.250225
116 1 0.830394 0.503323 0.335958
120 1 0.918178 0.58691 0.424381
54 1 0.084701 0.916402 0.241084
124 1 0.164831 0.832842 0.323977
125 1 0.0869565 0.750519 0.416197
55 1 0.25873 0.753359 0.251044
62 1 0.414618 0.910039 0.250244
128 1 0.243738 0.918772 0.411269
133 1 0.423339 0.749978 0.420143
63 1 0.587554 0.755688 0.250803
132 1 0.504657 0.83273 0.338517
136 1 0.580069 0.919294 0.422241
70 1 0.760711 0.924071 0.245503
71 1 0.924844 0.750045 0.253765
140 1 0.829937 0.836257 0.332347
141 1 0.740922 0.761041 0.414975
144 1 0.918102 0.915018 0.410774
74 1 -0.00542764 0.166155 0.500388
75 1 0.165811 0.00728054 0.503206
145 1 0.000233324 7.07075e-05 0.672884
148 1 0.169361 0.166431 0.668527
79 1 0.248588 0.0816138 0.586802
82 1 0.329905 0.163541 0.4996
153 1 0.335282 -0.00446911 0.657036
83 1 0.496335 -0.00368464 0.503424
87 1 0.581132 0.0805282 0.585538
90 1 0.665438 0.167105 0.502591
156 1 0.493308 0.161156 0.663534
161 1 0.665409 -0.000161422 0.669241
91 1 0.838025 -0.00111844 0.504824
95 1 0.918261 0.0804 0.586909
164 1 0.834171 0.168983 0.664509
78 1 0.0803225 0.24986 0.577629
99 1 0.164053 0.335456 0.50001
169 1 -0.00478364 0.336618 0.659513
86 1 0.408614 0.247159 0.582299
103 1 0.248801 0.420958 0.580339
177 1 0.328685 0.335752 0.662943
107 1 0.493464 0.326827 0.506367
111 1 0.581286 0.41877 0.589723
185 1 0.667581 0.335751 0.661148
94 1 0.746451 0.250762 0.586391
115 1 0.829452 0.335458 0.494051
119 1 0.912456 0.418909 0.580437
98 1 0.00085731 0.498949 0.503877
102 1 0.0773763 0.58532 0.58242
123 1 0.164956 0.664573 0.497023
172 1 0.163578 0.509681 0.667761
193 1 0.00281472 0.66408 0.665537
106 1 0.338687 0.501609 0.49969
110 1 0.41828 0.592115 0.588737
201 1 0.335457 0.676962 0.670408
114 1 0.656823 0.503174 0.497988
131 1 0.499239 0.664342 0.503824
180 1 0.495614 0.504142 0.668608
209 1 0.666909 0.669579 0.668399
118 1 0.751519 0.586419 0.586874
139 1 0.833132 0.671279 0.499857
188 1 0.831208 0.503873 0.668213
122 1 0.0106451 0.841845 0.496177
126 1 0.0837054 0.920806 0.588943
196 1 0.160789 0.831203 0.67091
127 1 0.247999 0.749481 0.579462
130 1 0.330921 0.839317 0.49586
134 1 0.418183 0.903108 0.585492
135 1 0.580542 0.749155 0.581834
138 1 0.66174 0.840623 0.50304
204 1 0.504694 0.826073 0.673082
142 1 0.752346 0.918083 0.587493
143 1 0.927395 0.755074 0.580988
212 1 0.83053 0.832644 0.67051
146 1 -0.00420098 0.171168 0.833291
147 1 0.156064 -0.000825109 0.830835
149 1 0.0787807 0.0896661 0.7521
151 1 0.240955 0.0782337 0.914386
154 1 0.332107 0.172094 0.835771
157 1 0.407177 0.081133 0.749166
155 1 0.496054 -0.00365169 0.836492
159 1 0.593827 0.0806628 0.92315
162 1 0.666447 0.165015 0.834072
163 1 0.832838 8.0364e-05 0.829832
165 1 0.748324 0.082195 0.750625
167 1 0.91226 0.0802839 0.918796
150 1 0.0815489 0.253642 0.91263
171 1 0.160994 0.332956 0.829909
173 1 0.077374 0.419759 0.744613
152 1 0.252988 0.256381 0.747994
158 1 0.420648 0.247934 0.918352
175 1 0.250368 0.412417 0.91895
181 1 0.415343 0.418849 0.745076
160 1 0.582933 0.247938 0.745783
179 1 0.498567 0.33716 0.825705
183 1 0.581326 0.414577 0.913243
166 1 0.739135 0.253248 0.920843
168 1 0.912025 0.25599 0.748209
187 1 0.825232 0.330852 0.828589
189 1 0.750572 0.418994 0.749601
191 1 0.912586 0.413385 0.907763
170 1 -0.00672657 0.505534 0.831707
174 1 0.0859893 0.581377 0.919121
195 1 0.165791 0.655805 0.828754
176 1 0.255597 0.583902 0.74171
178 1 0.328575 0.497507 0.829437
182 1 0.413809 0.580597 0.916372
184 1 0.582777 0.585294 0.745662
186 1 0.665905 0.500362 0.832061
203 1 0.501623 0.660871 0.834126
190 1 0.756684 0.589508 0.919755
192 1 0.908061 0.586556 0.743725
211 1 0.835949 0.665984 0.832607
194 1 0.00116399 0.826692 0.832931
197 1 0.0809864 0.743702 0.746717
198 1 0.0860821 0.908593 0.915741
199 1 0.250018 0.744695 0.912866
200 1 0.248377 0.91624 0.754761
202 1 0.331931 0.836305 0.838729
205 1 0.421448 0.748219 0.758538
206 1 0.420593 0.911861 0.924025
207 1 0.583363 0.741674 0.916095
208 1 0.584688 0.913704 0.752611
210 1 0.663663 0.837409 0.83917
213 1 0.748818 0.755237 0.75745
214 1 0.751755 0.91721 0.91814
215 1 0.924398 0.744092 0.920977
216 1 0.916291 0.914135 0.751264
ITEM: TIMESTEP
3800
ITEM: NUMBER OF ATOMS
216
ITEM: BOX BOUNDS pp pp pp
0.0000000000000000e+00 1.6427280000000000e+01
0.0000000000000000e+00 1.6427280000000000e+01
0.0000000000000000e+00 1.6427280000000000e+01
ITEM: ATOMS id type xs ys zs
1 1 0.00212609 0.00202597 0.00234427
2 1 -0.00573051 0.160286 0.168844
3 1 0.158672 -0.00197018 0.172072
4 1 0.171723 0.16898 0.0033774
5 1 0.0844325 0.0843271 0.0809613
9 1 0.333298 -0.00664754 0.00754239
10 1 0.328487 0.162531 0.170524
13 1 0.414674 0.0849259 0.0864126
11 1 0.500083 0.0059259 0.164096
12 1 0.494791 0.169533 -0.00288966
17 1 0.664407 0.00236886 -0.000460668
18 1 0.670805 0.169613 0.159376
19 1 0.830182 -0.00444238 0.167105
20 1 0.831079 0.164511 0.00145519
21 1 0.74971 0.0792513 0.0839582
25 1 0.00160209 0.328962 0.00466784
27 1 0.163696 0.333412 0.162185
29 1 0.0807715 0.415666 0.0868481
8 1 0.250719 0.247825 0.0875312
33 1 0.327027 0.331377 -0.00157978
37 1 0.407424 0.415406 0.084606
16 1 0.580116 0.249162 0.0817945
35 1 0.496034 0.332857 0.165285
41 1 0.670244 0.324726 0.00218551
24 1 0.910503 0.249069 0.0855709
43 1 0.836407 0.335504 0.168441
45 1 0.747824 0.411805 0.0801551
26 1 -0.00304925 0.501391 0.167436
28 1 0.161757 0.503885 0.00607358
49 1 -0.00568266 0.675677 -0.000668873
51 1 0.164979 0.667814 0.172512
32 1 0.247438 0.578304 0.0869104
34 1 0.32806 0.497871 0.166865
57 1 0.339703 0.671569 0.00721303
36 1 0.502179 0.495483 0.00171332
40 1 0.583232 0.587961 0.0817472
42 1 0.66083 0.497245 0.160607
59 1 0.49459 0.667728 0.15801
65 1 0.662885 0.669966 -0.00736895
44 1 0.837121 0.505234 0.00658834
48 1 0.915366 0.589616 0.0830623
67 1 0.830201 0.662016 0.165247
50 1 0.000198887 0.832296 0.16906
52 1 0.164664 0.836071 0.00169429
53 1 0.0818089 0.751723 0.0840512
56 1 0.242639 0.917151 0.0872012
58 1 0.328876 0.836318 0.172056
61 1 0.412452 0.761943 0.0848184
60 1 0.497242 0.839144 -0.00269621
64 1 0.584564 0.920603 0.0804233
66 1 0.66351 0.830026 0.161463
68 1 0.82611 0.832058 -0.00478042
69 1 0.74572 0.748122 0.0809374
72 1 0.915427 0.919368 0.0865325
73 1 0.00208662 0.00499239 0.334713
76 1 0.169906 0.165682 0.332317
77 1 0.0876676 0.0868438 0.415553
7 1 0.24442 0.0769297 0.251536
81 1 0.324554 0.00480339 0.333603
85 1 0.40974 0.0842842 0.423645
15 1 0.582805 0.0913074 0.25144
84 1 0.495662 0.169221 0.335536
89 1 0.668752 0.000359405 0.329142
23 1 0.913659 0.0842019 0.254495
92 1 0.836223 0.174108 0.322644
93 1 0.754289 0.0883626 0.413021
6 1 0.0842721 0.244857 0.244809
97 1 -0.00104576 0.331187 0.337721
101 1 0.0806411 0.415992 0.417932
14 1 0.411321 0.249786 0.250956
31 1 0.246694 0.41445 0.25614
80 1 0.251338 0.251707 0.41619
105 1 0.332452 0.335486 0.334181
109 1 0.421559 0.422097 0.411725
39 1 0.585453 0.414141 0.245798
88 1 0.589812 0.248068 0.411886
113 1 0.667928 0.33586 0.330193
22 1 0.754003 0.2543 0.248859
47 1 0.922319 0.409621 0.251166
96 1 0.917291 0.249203 0.41877
117 1 0.755255 0.41021 0.414221
30 1 0.0815319 0.585301 0.261366
100 1 0.167962 0.494838 0.337913
121 1 -0.00261862 0.670578 0.334778
38 1 0.41792 0.584424 0.246634
104 1 0.247606 0.585487 0.417556
129 1 0.334179 0.67204 0.328992
108 1 0.505241 0.508267 0.329428
112 1 0.58737 0.584457 0.417281
137 1 0.666891 0.657531 0.327361
46 1 0.747645 0.570546 0.244743
116 1 0.835041 0.493626 0.330948
120 1 0.916025 0.574518 0.410937
54 1 0.0817584 0.914317 0.252976
124 1 0.166919 0.835908 0.340072
125 1 0.0786294 0.74792 0.417971
55 1 0.246464 0.755739 0.253109
62 1 0.415317 0.924301 0.254047
128 1 0.252897 0.918545 0.418136
133 1 0.421491 0.753371 0.416422
63 1 0.577771 0.741507 0.251004
132 1 0.497387 0.836971 0.329511
136 1 0.580618 0.915898 0.414983
70 1 0.748232 0.907775 0.250409
71 1 0.914432 0.748431 0.248039
140 1 0.83813 0.832068 0.338368
141 1 0.75316 0.739617 0.413136
144 1 0.92257 0.914389 0.420064
74 1 0.00374542 0.166835 0.49884
75 1 0.169161 -0.00362103 0.502963
145 1 0.00468764 0.00147161 0.663824
148 1 0.163865 0.164537 0.667867
79 1 0.250541 0.0861021 0.580641
82 1 0.328137 0.166997 0.500494
153 1 0.329234 0.0107361 0.669624
83 1 0.498525 -0.000161181 0.496305
87 1 0.589494 0.0823697 0.581258
90 1 0.663971 0.169357 0.498953
156 1 0.505319 0.169708 0.664712
161 1 0.668863 -0.00509498 0.665729
91 1 0.840287 0.00165976 0.496033
95 1 0.920491 0.0881828 0.583488
164 1 0.834249 0.163675 0.667647
78 1 0.0845742 0.250008 0.587405
99 1 0.164565 0.331401 0.495602
169 1 -0.00218963 0.327971 0.664635
86 1 0.41899 0.250706 0.580443
103 1 0.254401 0.408374 0.582429
177 1 0.340915 0.325342 0.670187
107 1 0.502774 0.336992 0.492697
111 1 0.581141 0.414524 0.580642
185 1 0.669542 0.333313 0.669284
94 1 0.746674 0.247056 0.578411
115 1 0.83544 0.329681 0.506088
119 1 0.924082 0.425174 0.588701
98 1 0.00306997 0.501709 0.494581
102 1 0.0812574 0.582745 0.575478
123 1 0.160321 0.669206 0.503335
172 1 0.166849 0.497534 0.661068
193 1 0.00157786 0.66489 0.669718
106 1 0.335375 0.501981 0.497979
110 1 0.422804 0.577306 0.580568
201 1 0.335811 0.653426 0.666519
114 1 0.674297 0.497406 0.498502
131 1 0.503842 0.669747 0.496147
180 1 0.50327 0.498436 0.666678
209 1 0.662299 0.669263 0.667247
118 1 0.748219 0.578656 0.587705
139 1 0.830125 0.654706 0.49946
188 1 0.835092 0.49885 0.668352
122 1 -0.00449231 0.831299 0.500862
126 1 0.0815606 0.917969 0.579332
196 1 0.166367 0.838724 0.667717
127 1 0.251233 0.747257 0.587776
130 1 0.340756 0.834407 0.50451
134 1 0.413983 0.933066 0.586361
135 1 0.578654 0.753543 0.582734
138 1 0.665818 0.827164 0.495282
204 1 0.49563 0.837185 0.66274
142 1 0.749322 0.912858 0.577857
143 1 0.912816 0.742396 0.587886
212 1 0.834498 0.838272 0.666448
146 1 0.00393529 0.162355 0.831895
147 1 0.172526 0.00716603 0.841236
149 1 0.0889251 0.0779035 0.752907
151 1 0.26016 0.0854153 0.92058
154 1 0.337565 0.171461 0.832261
157 1 0.423232 0.0890031 0.744418
155 1 0.503103 -0.00591202 0.825589
159 1 0.576915 0.0900582 0.914831
162 1 0.67002 0.166038 0.831362
163 1 0.829134 -0.00215966 0.830734
165 1 0.747851 0.0809677 0.7492
167 1 0.916305 0.0835974 0.91467
150 1 0.0860604 0.244313 0.921338
171 1 0.175233 0.330717 0.839192
173 1 0.0883562 0.410274 0.750594
152 1 0.248658 0.245894 0.748416
158 1 0.415796 0.256024 0.916318
175 1 0.249043 0.41919 0.918365
181 1 0.420429 0.41624 0.750247
160 1 0.586374 0.251271 0.755524
179 1 0.501628 0.334164 0.846595
183 1 0.587048 0.411844 0.924975
166 1 0.757233 0.247027 0.912211
168 1 0.917794 0.247381 0.753026
187 1 0.836408 0.335808 0.837355
189 1 0.755736 0.414822 0.748459
191 1 0.915238 0.413581 0.924771
170 1 -0.00126991 0.494002 0.831838
174 1 0.074916 0.58434 0.918046
195 1 0.165402 0.673959 0.82909
176 1 0.247807 0.580671 0.756538
178 1 0.335189 0.499386 0.837165
182 1 0.424029 0.588351 0.917313
184 1 0.575628 0.585731 0.753718
186 1 0.665598 0.500165 0.835564
203 1 0.497291 0.673977 0.833241
190 1 0.749786 0.583827 0.913571
192 1 0.919168 0.582507 0.748861
211 1 0.837487 0.670578 0.831829
194 1 0.00231181 0.844089 0.835505
197 1 0.0794342 0.757737 0.74968
198 1 0.085373 0.925018 0.919254
199 1 0.251652 0.750732 0.919865
200 1 0.252401 0.922066 0.75603
202 1 0.338816 0.824789 0.834524
205 1 0.416359 0.743296 0.742585
206 1 0.411026 0.912559 0.912623
207 1 0.580738 0.759032 0.911042
208 1 0.587252 0.911828 0.742837
210 1 0.668051 0.828686 0.829199
213 1 0.750882 0.748206 0.745525
214 1 0.745161 0.91883 0.90929
215 1 0.914916 0.754591 0.910282
216 1 0.918501 0.923303 0.746681
ITEM: TIMESTEP
3900
ITEM: NUMBER OF ATOMS
216
ITEM: BOX BOUNDS pp pp pp
0.0000000000000000e+00 1.6427280000000000e+01
0.0000000000000000e+00 1.6427280000000000e+01
0.0000000000000000e+00 1.6427280000000000e+01
ITEM: ATOMS id type xs ys zs
1 1 -0.00122924 -0.00586084 0.000997896
2 1 -0.00105959 0.168563 0.172255
3 1 0.168623 0.00104107 0.174448
4 1 0.159181 0.162269 0.00208291
5 1 0.0823097 0.0798655 0.0907383
9 1 0.331615 0.0044831 0.00306805
10 1 0.329242 0.170127 0.171129
13 1 0.41538 0.0877028 0.0826322
11 1 0.491997 -0.00770183 0.168339
12 1 0.505087 0.1675 0.00181276
17 1 0.667364 -0.00172755 0.000264965
18 1 0.665507 0.164658 0.163483
19 1 0.829689 0.0103595 0.170329
20 1 0.829881 0.170028 -0.000134606
21 1 0.746466 0.0818055 0.0804738
25 1 0.000698518 0.333022 8.16632e-05
27 1 0.168278 0.336637 0.173866
29 1 0.083889 0.415599 0.0802379
8 1 0.248409 0.249477 0.0825817
33 1 0.337239 0.335694 0.00111848
37 1 0.415257 0.426209 0.0783087
16 1 0.584663 0.250839 0.0793437
35 1 0.504857 0.338168 0.164722
41 1 0.659625 0.334989 -0.0120587
24 1 0.922126 0.248315 0.0817254
43 1 0.831523 0.325259 0.161207
45 1 0.749128 0.41875 0.0820276
26 1 -0.0059438 0.497421 0.159937
28 1 0.170109 0.493099 0.00213541
49 1 -0.00255569 0.666221 0.00259446
51 1 0.165044 0.670851 0.161938
32 1 0.247584 0.590495 0.0812553
34 1 0.329357 0.510242 0.169368
57 1 0.323455 0.675871 -0.00427747
36 1 0.495697 0.50813 -0.00559397
40 1 0.583083 0.584153 0.0801526
42 1 0.674465 0.504982 0.163671
59 1 0.497277 0.669807 0.163373
65 1 0.664202 0.668339 0.00193257
44 1 0.829761 0.498457 -0.00808843
48 1 0.91536 0.583123 0.0738336
67 1 0.835193 0.669713 0.161542
50 1 -0.0080513 0.836273 0.169211
52 1 0.16143 0.836877 0.00296005
53 1 0.0758678 0.756055 0.0842551
56 1 0.249739 0.917309 0.0869996
58 1 0.328954 0.827531 0.16178
61 1 0.414768 0.745136 0.0854268
60 1 0.494985 0.828309 -0.00502073
64 1 0.575327 0.916253 0.0782486
66 1 0.666788 0.837945 0.163455
68 1 0.828919 0.831336 -0.00103071
69 1 0.74611 0.7511 0.0821023
72 1 0.91157 0.91737 0.085319
73 1 -0.00625035 -0.00830712 0.331381
76 1 0.169068 0.16697 0.341969
77 1 0.0759999 0.0784986 0.422718
7 1 0.256895 0.0855712 0.255226
81 1 0.341575 -0.00116443 0.333922
85 1 0.422248 0.0819413 0.410464
15 1 0.576054 0.0735193 0.245046
84 1 0.505226 0.168886 0.332501
89 1 0.661768 -0.00128458 0.333085
23 1 0.914699 0.0791591 0.251795
92 1 0.833568 0.158918 0.329822
93 1 0.751103 0.085312 0.419771
6 1 0.0851794 0.253647 0.259637
97 1 -0.00158602 0.339479 0.339729
101 1 0.0855229 0.420979 0.422116
14 1 0.41919 0.258891 0.248586
31 1 0.254137 0.419467 0.247204
80 1 0.256643 0.248165 0.418427
105 1 0.335165 0.334496 0.333918
109 1 0.416871 0.417314 0.421028
39 1 0.586363 0.423277 0.251146
88 1 0.58528 0.254188 0.415204
113 1 0.667602 0.33297 0.327698
22 1 0.748329 0.24135 0.253684
47 1 0.909359 0.417687 0.250145
96 1 0.915332 0.243477 0.411207
117 1 0.748894 0.418565 0.412344
30 1 0.0825764 0.580382 0.248395
100 1 0.168597 0.495606 0.337835
121 1 -0.00368707 0.662949 0.336824
38 1 0.414558 0.583627 0.252546
104 1 0.246697 0.58022 0.419548
129 1 0.326058 0.66626 0.335747
108 1 0.497299 0.494449 0.334005
112 1 0.579006 0.580558 0.413153
137 1 0.660404 0.66792 0.337863
46 1 0.750227 0.59469 0.25314
116 1 0.833879 0.506017 0.332141
120 1 0.924907 0.580629 0.422144
54 1 0.084659 0.915762 0.254196
124 1 0.164109 0.827769 0.336532
125 1 0.0854793 0.744884 0.418995
55 1 0.244754 0.748665 0.24757
62 1 0.415523 0.908072 0.252268
128 1 0.248682 0.91954 0.414098
133 1 0.41401 0.744032 0.413525
63 1 0.582619 0.754536 0.247852
132 1 0.498461 0.827114 0.340885
136 1 0.582928 0.91154 0.414046
70 1 0.747265 0.918802 0.247346
71 1 0.908718 0.748334 0.249316
140 1 0.830501 0.833031 0.328499
141 1 0.749115 0.752047 0.416698
144 1 0.907502 0.910172 0.418365
74 1 0.00149379 0.171054 0.507128
75 1 0.167352 0.000706513 0.503542
145 1 -0.00218705 -0.00035772 0.670022
148 1 0.176369 0.167746 0.671401
79 1 0.261904 0.0850199 0.583728
82 1 0.346173 0.170735 0.50137
153 1 0.344249 -0.00645605 0.661401
83 1 0.507082 0.00256917 0.498402
87 1 0.583012 0.0893191 0.576531
90 1 0.669744 0.173115 0.499648
156 1 0.501676 0.168686 0.66468
161 1 0.667589 0.00982188 0.665118
91 1 0.824515 -0.00956822 0.501277
95 1 0.917225 0.0752226 0.58126
164 1 0.835138 0.165738 0.668083
78 1 0.0918429 0.249534 0.587865
99 1 0.168844 0.33583 0.501124
169 1 0.00680198 0.334866 0.676386
86 1 0.417108 0.253253 0.589249
103 1 0.250476 0.419988 0.590362
177 1 0.33439 0.341047 0.671888
107 1 0.507924 0.332093 0.499548
111 1 0.586268 0.423805 0.585299
185 1 0.672308 0.330342 0.665305
94 1 0.759356 0.245026 0.580228
115 1 0.834889 0.334259 0.492686
119 1 0.916111 0.411311 0.583989
98 1 0.00476258 0.498344 0.510082
102 1 0.0868 0.579472 0.59097
123 1 0.165627 0.656335 0.504597
172 1 0.170624 0.505874 0.674746
193 1 0.00557025 0.663202 0.66777
106 1 0.333999 0.497861 0.506907
110 1 0.414643 0.584751 0.585982
201 1 0.33608 0.671155 0.670344
114 1 0.665496 0.50389 0.498564
131 1 0.498082 0.661438 0.498946
180 1 0.49761 0.502392 0.663067
209 1 0.674532 0.658545 0.657918
118 1 0.759877 0.577854 0.576446
139 1 0.837886 0.670592 0.496468
188 1 0.835224 0.496128 0.666609
122 1 0.00200007 0.831246 0.497331
126 1 0.0813496 0.914248 0.587053
196 1 0.163241 0.829359 0.664108
127 1 0.247943 0.747042 0.581577
130 1 0.331899 0.831101 0.490174
134 1 0.428087 0.910266 0.576229
135 1 0.591118 0.741308 0.577181
138 1 0.665463 0.831973 0.503204
204 1 0.505343 0.830513 0.664915
142 1 0.742868 0.917591 0.589204
143 1 0.918885 0.751256 0.582799
212 1 0.832117 0.827539 0.665225
146 1 0.00566707 0.166786 0.835234
147 1 0.157416 -0.00762894 0.824639
149 1 0.082732 0.0843419 0.746078
151 1 0.237867 0.0850231 0.912322
154 1 0.331525 0.167652 0.834039
157 1 0.411558 0.0802966 0.751213
155 1 0.500789 0.00730102 0.832574
159 1 0.587949 0.0835996 0.915602
162 1 0.671897 0.167879 0.830787
163 1 0.835941 -0.000326469 0.829119
165 1 0.752358 0.0830173 0.747103
167 1 0.920458 0.0808339 0.915663
150 1 0.0844764 0.253846 0.917592
171 1 0.171183 0.335122 0.837586
173 1 0.0856085 0.415326 0.758341
152 1 0.251814 0.256973 0.755034
158 1 0.41976 0.250505 0.922404
175 1 0.250907 0.419605 0.918265
181 1 0.416834 0.420705 0.754336
160 1 0.582211 0.248704 0.75114
179 1 0.494981 0.32702 0.828016
183 1 0.576385 0.420135 0.908154
166 1 0.748531 0.250318 0.915452
168 1 0.922184 0.248938 0.753913
187 1 0.83724 0.327162 0.836273
189 1 0.756643 0.41357 0.754319
191 1 0.921088 0.418332 0.911034
170 1 0.000372648 0.505115 0.837327
174 1 0.0924443 0.587554 0.923375
195 1 0.17368 0.67096 0.836176
176 1 0.256567 0.590839 0.751522
178 1 0.328572 0.500489 0.831774
182 1 0.407029 0.585386 0.907759
184 1 0.584296 0.583353 0.746868
186 1 0.66788 0.49522 0.827883
203 1 0.498388 0.664617 0.829736
190 1 0.750869 0.584628 0.918491
192 1 0.917062 0.586439 0.753567
211 1 0.829613 0.669922 0.831284
194 1 -0.00345441 0.820632 0.833147
197 1 0.0856246 0.744657 0.754961
198 1 0.0787477 0.909262 0.911527
199 1 0.244068 0.762848 0.913363
200 1 0.251097 0.916323 0.740212
202 1 0.332021 0.839364 0.830961
205 1 0.418629 0.756648 0.759647
206 1 0.417002 0.922368 0.918363
207 1 0.580408 0.746556 0.914175
208 1 0.584332 0.922149 0.746226
210 1 0.662116 0.837732 0.828883
213 1 0.746891 0.752138 0.749856
214 1 0.748196 0.913877 0.915819
215 1 0.916408 0.744778 0.917387
216 1 0.917038 0.907085 0.751679
ITEM: TIMESTEP
4000
ITEM: NUMBER OF ATOMS
216
ITEM: BOX BOUNDS pp pp pp
0.0000000000000000e+00 1.6427280000000000e+01
0.0000000000000000e+00 1.6427280000000000e+01
0.0000000000000000e+00 1.6427280000000000e+01
ITEM: ATOMS id type xs ys zs
1 1 0.00494566 0.00544055 -0.000375674
2 1 -0.00530121 0.161678 0.162237
3 1 0.167849 0.00478943 0.159401
4 1 0.16879 0.173407 -0.00217634
5 1 0.084622 0.0906385 0.0808149
9 1 0.332849 -0.00390101 -0.000599498
10 1 0.340539 0.160823 0.166257
13 1 0.422557 0.082891 0.0847146
11 1 0.504067 0.00643609 0.165534
12 1 0.492135 0.166826 -0.00271199
17 1 0.66324 0.00340876 -0.00416837
18 1 0.668497 0.170534 0.169077
19 1 0.839547 -0.000110171 0.170538
20 1 0.833516 0.170461 0.00428287
21 1 0.753618 0.0849742 0.0860321
25 1 -0.00125546 0.334435 0.00133998
27 1 0.16836 0.335054 0.168099
29 1 0.0849711 0.414866 0.0819636
8 1 0.252884 0.251255 0.0860473
33 1 0.330703 0.334215 -0.00813498
37 1 0.420967 0.409441 0.0865914
16 1 0.580399 0.246605 0.0807703
35 1 0.500365 0.329675 0.169334
41 1 0.675254 0.331662 0.00906284
24 1 0.919049 0.251202 0.0845382
43 1 0.835967 0.3383 0.171304
45 1 0.754794 0.42243 0.0854541
26 1 0.00322846 0.49833 0.16707
28 1 0.166574 0.501523 -0.00389884
49 1 -0.00273165 0.664346 0.00279041
51 1 0.172773 0.666403 0.16502
32 1 0.251148 0.576656 0.087105
34 1 0.331663 0.487595 0.165763
57 1 0.338663 0.659287 0.00403758
36 1 0.507951 0.497014 0.00330351
40 1 0.583032 0.585683 0.0827466
42 1 0.6541 0.499728 0.171832
59 1 0.501675 0.664033 0.167793
65 1 0.668559 0.665035 0.000513951
44 1 0.838998 0.501523 0.00382633
48 1 0.912239 0.58227 0.0936554
67 1 0.830237 0.669535 0.171242
50 1 0.00944091 0.828024 0.167821
52 1 0.172257 0.828916 -0.00776809
53 1 0.0888258 0.739996 0.0781625
56 1 0.246063 0.913381 0.0829039
58 1 0.334677 0.837169 0.168735
61 1 0.416939 0.756585 0.0825568
60 1 0.503237 0.834998 0.00764704
64 1 0.589208 0.919538 0.0893077
66 1 0.667262 0.827803 0.166287
68 1 0.840063 0.828496 0.000389338
69 1 0.753649 0.745831 0.0837549
72 1 0.920561 0.914673 0.0797812
73 1 -0.00252149 0.00855268 0.332809
76 1 0.170365 0.171054 0.324633
77 1 0.091983 0.0870879 0.410168
7 1 0.246104 0.0830189 0.246491
81 1 0.329228 0.00124361 0.332623
85 1 0.413366 0.0843666 0.416871
15 1 0.588839 0.0919407 0.247182
84 1 0.496904 0.165513 0.336525
89 1 0.668087 -0.00278947 0.333571
23 1 0.914148 0.0872351 0.250887
92 1 0.835387 0.167603 0.3399
93 1 0.750592 0.0876581 0.415481
6 1 0.079936 0.247318 0.24213
97 1 0.0070476 0.322572 0.331511
101 1 0.0836067 0.410536 0.411276
14 1 0.411871 0.241609 0.255442
31 1 0.249164 0.415835 0.25335
80 1 0.247706 0.254284 0.418321
105 1 0.328955 0.33704 0.331812
109 1 0.416798 0.416261 0.410095
39 1 0.577072 0.415902 0.256026
88 1 0.585097 0.247381 0.419622
113 1 0.663065 0.331125 0.340657
22 1 0.752777 0.254974 0.253078
47 1 0.922521 0.413452 0.253404
96 1 0.915337 0.251518 0.418592
117 1 0.749292 0.415481 0.423568
30 1 0.0871218 0.583246 0.24774
100 1 0.168335 0.496271 0.331062
121 1 -0.00361805 0.674697 0.334163
38 1 0.417366 0.578723 0.24859
104 1 0.251822 0.585034 0.415565
129 1 0.338871 0.665232 0.33518
108 1 0.504475 0.50439 0.33749
112 1 0.588338 0.581597 0.42043
137 1 0.67406 0.664557 0.332929
46 1 0.750929 0.576658 0.243229
116 1 0.831701 0.498456 0.334772
120 1 0.907787 0.58648 0.417365
54 1 0.0824651 0.920409 0.248096
124 1 0.168321 0.837006 0.326291
125 1 0.0865093 0.755537 0.416883
55 1 0.255821 0.750219 0.253199
62 1 0.412496 0.924764 0.245523
128 1 0.252891 0.910013 0.410283
133 1 0.420317 0.752628 0.415575
63 1 0.58166 0.749775 0.252501
132 1 0.496052 0.839387 0.326253
136 1 0.579172 0.916719 0.420458
70 1 0.758064 0.913994 0.248613
71 1 0.918288 0.754698 0.251557
140 1 0.835324 0.835557 0.335659
141 1 0.750549 0.753585 0.415348
144 1 0.922877 0.923443 0.411642
74 1 -0.00190114 0.164403 0.49373
75 1 0.168515 -0.00576218 0.495373
145 1 0.00697057 -0.00339687 0.667465
148 1 0.156749 0.161447 0.667204
79 1 0.239883 0.0813757 0.58644
82 1 0.326615 0.160987 0.494156
153 1 0.324376 0.00235864 0.674304
83 1 0.495217 0.00284888 0.500206
87 1 0.586531 0.0718477 0.593574
90 1 0.660284 0.157522 0.501428
156 1 0.500643 0.160272 0.667619
161 1 0.672191 -0.00801526 0.66784
91 1 0.83509 0.00575239 0.499742
95 1 0.91489 0.086508 0.585405
164 1 0.828936 0.170254 0.669192
78 1 0.0791501 0.246865 0.579051
99 1 0.163656 0.333222 0.500315
169 1 0.000833552 0.330042 0.658929
86 1 0.415387 0.244066 0.576985
103 1 0.250854 0.417668 0.579236
177 1 0.329113 0.32718 0.665311
107 1 0.491281 0.329895 0.496979
111 1 0.584833 0.416453 0.57624
185 1 0.662835 0.334403 0.664498
94 1 0.744552 0.249285 0.584877
115 1 0.835053 0.331588 0.506623
119 1 0.92252 0.42046 0.57929
98 1 0.00228846 0.501055 0.488671
102 1 0.0830847 0.587166 0.573638
123 1 0.167769 0.671966 0.491873
172 1 0.163245 0.503494 0.66248
193 1 -0.00140726 0.669616 0.663827
106 1 0.332091 0.503005 0.493564
110 1 0.416481 0.583137 0.581171
201 1 0.331295 0.664972 0.666514
114 1 0.668193 0.50245 0.499172
131 1 0.500825 0.667927 0.49784
180 1 0.498049 0.497852 0.668673
209 1 0.665526 0.671842 0.672125
118 1 0.740448 0.586869 0.586844
139 1 0.829596 0.6646 0.505526
188 1 0.828718 0.506118 0.663291
122 1 -0.000758411 0.835428 0.500776
126 1 0.0843749 0.913775 0.581808
196 1 0.168518 0.837114 0.674057
127 1 0.246933 0.749087 0.582237
130 1 0.334847 0.834217 0.503856
134 1 0.405039 0.92367 0.589709
135 1 0.578989 0.758779 0.582924
138 1 0.671938 0.841594 0.494386
204 1 0.49584 0.83683 0.671394
142 1 0.757355 0.916747 0.579514
143 1 0.913349 0.751835 0.57871
212 1 0.831417 0.837517 0.666467
146 1 -0.00204974 0.167105 0.829261
147 1 0.168942 0.00316216 0.835875
149 1 0.0789796 0.0837378 0.7508
151 1 0.255217 0.082357 0.92068
154 1 0.334904 0.165263 0.830499
157 1 0.418206 0.0810953 0.747447
155 1 0.497711 -0.000482616 0.836676
159 1 0.58113 0.0844464 0.918233
162 1 0.66376 0.165491 0.839726
163 1 0.829086 0.00221518 0.833733
165 1 0.744749 0.0868722 0.750188
167 1 0.911956 0.0890905 0.919605
150 1 0.0810756 0.248783 0.915307
171 1 0.160501 0.328344 0.832328
173 1 0.0861156 0.41581 0.746033
152 1 0.244373 0.244731 0.745643
158 1 0.417745 0.249297 0.908615
175 1 0.24894 0.418158 0.913706
181 1 0.417101 0.413804 0.750581
160 1 0.583782 0.251649 0.752764
179 1 0.504273 0.340023 0.831749
183 1 0.58825 0.410925 0.919447
166 1 0.749038 0.254322 0.915664
168 1 0.911472 0.254205 0.748887
187 1 0.829927 0.337795 0.828907
189 1 0.746895 0.420357 0.747373
191 1 0.908528 0.410057 0.922916
170 1 -7.97768e-05 0.491133 0.832252
174 1 0.0780712 0.583352 0.914223
195 1 0.162738 0.664334 0.831505
176 1 0.248146 0.57986 0.751798
178 1 0.336439 0.499143 0.83464
182 1 0.426832 0.579667 0.921265
184 1 0.582893 0.583134 0.748052
186 1 0.667311 0.501004 0.837645
203 1 0.502343 0.672796 0.832638
190 1 0.747358 0.581837 0.92016
192 1 0.91088 0.576036 0.748433
211 1 0.834761 0.659477 0.838753
194 1 0.00185707 0.843151 0.835986
197 1 0.0808019 0.75861 0.749796
198 1 0.0852131 0.917436 0.921601
199 1 0.248704 0.740467 0.912744
200 1 0.249595 0.914409 0.756811
202 1 0.326432 0.828046 0.833472
205 1 0.410615 0.749683 0.744509
206 1 0.417772 0.911068 0.912231
207 1 0.58693 0.750397 0.92028
208 1 0.584362 0.917777 0.75803
210 1 0.672235 0.830122 0.839402
213 1 0.755613 0.747029 0.752115
214 1 0.750167 0.918289 0.922916
215 1 0.919173 0.751308 0.915232
216 1 0.918193 0.920972 0.747785
ITEM: TIMESTEP
4100
ITEM: NUMBER OF ATOMS
216
ITEM: BOX BOUNDS pp pp pp
0.0000000000000000e+00 1.6427280000000000e+01
0.0000000000000000e+00 1.6427280000000000e+01
0.0000000000000000e+00 1.6427280000000000e+01
ITEM: ATOMS id type xs ys zs
1 1 0.00233394 -0.00252427 -0.00184615
2 1 0.00741788 0.169971 0.167074
3 1 0.167143 -0.00437794 0.160788
4 1 0.160007 0.159658 -0.00705366
5 1 0.0830668 0.0818758 0.0817931
9 1 0.341458 0.00696607 0.00158745
10 1 0.331871 0.166043 0.162253
13 1 0.419929 0.0849785 0.0851764
11 1 0.49703 -0.00415777 0.161706
12 1 0.510336 0.156191 0.00245906
17 1 0.665941 -0.000745975 0.00169664
18 1 0.664473 0.166698 0.168472
19 1 0.833846 0.00193919 0.168083
20 1 0.835127 0.167809 -0.00176234
21 1 0.748202 0.082248 0.0865999
25 1 -0.00171337 0.335636 -0.00708747
27 1 0.166164 0.336048 0.167527
29 1 0.0793166 0.417389 0.0846221
8 1 0.242643 0.245879 0.0764885
33 1 0.336115 0.332429 0.00296123
37 1 0.415964 0.423264 0.0858262
16 1 0.585771 0.248588 0.0881475
35 1 0.503383 0.335723 0.168273
41 1 0.657677 0.333732 -0.0028937
24 1 0.917022 0.250224 0.0815394
43 1 0.834208 0.330114 0.163434
45 1 0.748923 0.41344 0.0802644
26 1 0.000573546 0.504108 0.164848
28 1 0.168491 0.498707 0.00138475
49 1 0.0073723 0.667703 -0.00614189
51 1 0.16782 0.664609 0.164937
32 1 0.249321 0.579965 0.0816011
34 1 0.332609 0.502389 0.1681
57 1 0.330987 0.666524 -0.00442908
36 1 0.498529 0.499089 0.00403544
40 1 0.5936 0.57689 0.0855383
42 1 0.672873 0.499483 0.170887
59 1 0.509513 0.663155 0.165186
65 1 0.672301 0.663269 0.00460524
44 1 0.83333 0.502058 -0.00198037
48 1 0.919355 0.583114 0.0794325
67 1 0.83909 0.66098 0.164707
50 1 -0.00333098 0.831547 0.16344
52 1 0.164129 0.833085 0.0046787
53 1 0.0882833 0.751585 0.0847344
56 1 0.259206 0.916096 0.0784253
58 1 0.340043 0.83142 0.167984
61 1 0.420829 0.742062 0.08381
60 1 0.506791 0.832476 -0.00323479
64 1 0.584355 0.916534 0.0796153
66 1 0.671059 0.838578 0.170103
68 1 0.826684 0.833756 0.00199561
69 1 0.754641 0.747254 0.0868467
72 1 0.91174 0.923103 0.0839165
73 1 0.00309302 -0.00238875 0.325156
76 1 0.159377 0.160854 0.33004
77 1 0.0724292 0.0817313 0.413012
7 1 0.25294 0.0780929 0.244704
81 1 0.333418 -0.00283429 0.332432
85 1 0.413662 0.0811279 0.420533
15 1 0.575149 0.0815429 0.254311
84 1 0.495631 0.16314 0.337234
89 1 0.671532 0.00732831 0.339867
23 1 0.926025 0.0850995 0.244916
92 1 0.841184 0.163615 0.328465
93 1 0.755477 0.0848567 0.422654
6 1 0.0847533 0.253322 0.250104
97 1 -0.00459653 0.343522 0.334731
101 1 0.0792619 0.42403 0.418075
14 1 0.418804 0.250101 0.247201
31 1 0.253986 0.416319 0.246328
80 1 0.247153 0.245945 0.410516
105 1 0.330488 0.329906 0.328915
109 1 0.413813 0.413898 0.417207
39 1 0.58633 0.416776 0.250573
88 1 0.574052 0.248216 0.417272
113 1 0.664378 0.338169 0.331532
22 1 0.749315 0.2448 0.253984
47 1 0.920239 0.423251 0.248976
96 1 0.919108 0.256481 0.409898
117 1 0.740477 0.421748 0.420446
30 1 0.0896826 0.581628 0.248835
100 1 0.177845 0.49798 0.33304
121 1 0.00667542 0.666965 0.330616
38 1 0.418813 0.584824 0.25445
104 1 0.247507 0.588749 0.415665
129 1 0.329864 0.671189 0.334005
108 1 0.49989 0.496077 0.334511
112 1 0.575357 0.579777 0.422708
137 1 0.660989 0.668198 0.337358
46 1 0.755133 0.590173 0.253497
116 1 0.831665 0.502783 0.341028
120 1 0.919363 0.584135 0.419039
54 1 0.090947 0.914817 0.249592
124 1 0.172888 0.829248 0.33867
125 1 0.0862651 0.751275 0.41856
55 1 0.250424 0.752622 0.24462
62 1 0.423718 0.910666 0.251591
128 1 0.247328 0.922625 0.418995
133 1 0.413115 0.754374 0.417432
63 1 0.586435 0.750663 0.249929
132 1 0.505845 0.831258 0.337658
136 1 0.588595 0.915384 0.423092
70 1 0.752763 0.918088 0.254783
71 1 0.91161 0.748989 0.246887
140 1 0.83656 0.830198 0.331876
141 1 0.753892 0.756054 0.420792
144 1 0.915127 0.910956 0.417007
74 1 -0.00126596 0.174895 0.497822
75 1 0.162832 0.00253482 0.504032
145 1 -0.00337086 0.00468687 0.669732
148 1 0.162225 0.172452 0.663176
79 1 0.251977 0.0841231 0.587748
82 1 0.331101 0.167429 0.503372
153 1 0.330464 -0.00442039 0.668854
83 1 0.498955 -0.0013478 0.502168
87 1 0.577189 0.089968 0.579588
90 1 0.669183 0.171339 0.500724
156 1 0.490698 0.166353 0.669647
161 1 0.660747 0.00288568 0.663567
91 1 0.829459 -0.00643893 0.502805
95 1 0.915781 0.0845106 0.586219
164 1 0.832448 0.166515 0.666592
78 1 0.0857919 0.258543 0.586507
99 1 0.16157 0.331968 0.49244
169 1 -0.013856 0.332625 0.66478
86 1 0.412474 0.251425 0.58639
103 1 0.243739 0.413786 0.574399
177 1 0.33795 0.341574 0.665766
107 1 0.503633 0.336934 0.504999
111 1 0.582608 0.418149 0.587757
185 1 0.666924 0.334349 0.672333
94 1 0.749042 0.253464 0.586065
115 1 0.827213 0.3305 0.493174
119 1 0.904669 0.419829 0.587531
98 1 -0.00797872 0.501575 0.505308
102 1 0.0876137 0.579546 0.579863
123 1 0.168122 0.665584 0.50195
172 1 0.166138 0.48906 0.661394
193 1 -0.00189982 0.66894 0.663955
106 1 0.333087 0.503437 0.496621
110 1 0.41368 0.58642 0.584135
201 1 0.334434 0.668946 0.664915
114 1 0.665114 0.503983 0.504369
131 1 0.495577 0.666854 0.498114
180 1 0.499886 0.501739 0.670836
209 1 0.671326 0.661802 0.669063
118 1 0.749665 0.584301 0.580146
139 1 0.832194 0.666725 0.498337
188 1 0.823888 0.499597 0.66916
122 1 0.00198141 0.834444 0.49937
126 1 0.0789121 0.921278 0.588675
196 1 0.166432 0.837912 0.662853
127 1 0.249469 0.752316 0.58547
130 1 0.327798 0.835246 0.498962
134 1 0.418851 0.912406 0.582473
135 1 0.587609 0.742117 0.585985
138 1 0.671826 0.834754 0.509843
204 1 0.495609 0.826183 0.671903
142 1 0.740523 0.91873 0.589985
143 1 0.914954 0.753556 0.584055
212 1 0.832224 0.837653 0.664517
146 1 0.00274385 0.172226 0.832186
147 1 0.166329 -0.00465389 0.826793
149 1 0.0874156 0.0875159 0.746917
151 1 0.249655 0.0826535 0.909222
154 1 0.336986 0.166023 0.834297
157 1 0.416287 0.076465 0.754604
155 1 0.506142 0.00343759 0.834023
159 1 0.582159 0.0793418 0.915933
162 1 0.663382 0.160454 0.830584
163 1 0.835827 -0.00342136 0.835574
165 1 0.75027 0.0814139 0.746478
167 1 0.925192 0.0848083 0.914838
150 1 0.0828037 0.254616 0.914618
171 1 0.167409 0.339319 0.827961
173 1 0.0760898 0.417473 0.743237
152 1 0.247684 0.247585 0.749107
158 1 0.423805 0.248226 0.920344
175 1 0.249678 0.413908 0.908148
181 1 0.415904 0.41894 0.751179
160 1 0.579454 0.246362 0.75051
179 1 0.493764 0.334435 0.835359
183 1 0.577247 0.421781 0.91396
166 1 0.750223 0.246082 0.914802
168 1 0.912915 0.246295 0.751358
187 1 0.83086 0.334807 0.837948
189 1 0.749727 0.415287 0.752404
191 1 0.914095 0.420514 0.915542
170 1 -0.00140308 0.507 0.831006
174 1 0.0913157 0.581304 0.913631
195 1 0.172286 0.663716 0.832397
176 1 0.245851 0.57926 0.741309
178 1 0.32921 0.495017 0.824865
182 1 0.408929 0.575102 0.915432
184 1 0.587409 0.583871 0.754764
186 1 0.665898 0.506202 0.83438
203 1 0.498922 0.658817 0.838279
190 1 0.751842 0.58605 0.91663
192 1 0.913662 0.592387 0.747315
211 1 0.830438 0.675169 0.834951
194 1 0.00172972 0.827369 0.831331
197 1 0.0913725 0.745767 0.75163
198 1 0.0842847 0.910841 0.913754
199 1 0.252285 0.752425 0.91852
200 1 0.252849 0.912699 0.748649
202 1 0.335504 0.832814 0.830714
205 1 0.416152 0.744529 0.756369
206 1 0.417363 0.911842 0.916764
207 1 0.589805 0.744914 0.923621
208 1 0.5792 0.919184 0.74709
210 1 0.66505 0.832999 0.83479
213 1 0.747642 0.751864 0.74831
214 1 0.752145 0.913726 0.918454
215 1 0.919126 0.753702 0.917969
216 1 0.920247 0.912877 0.752224
ITEM: TIMESTEP
4200
ITEM: NUMBER OF ATOMS
216
ITEM: BOX BOUNDS pp pp pp
0.0000000000000000e+00 1.6427280000000000e+01
0.0000000000000000e+00 1.6427280000000000e+01
0.0000000000000000e+00 1.6427280000000000e+01
ITEM: ATOMS id type xs ys zs
1 1 0.000235105 0.00309913 0.00434596
2 1 -0.00473553 0.156701 0.166459
3 1 0.165209 0.00614579 0.170449
4 1 0.167843 0.167532 0.0112943
5 1 0.082845 0.0818553 0.0862006
9 1 0.329803 -0.00317929 0.00708025
10 1 0.338085 0.160816 0.167823
13 1 0.415636 0.0777986 0.0811852
11 1 0.497431 2.78307e-05 0.168563
12 1 0.494382 0.1682 -0.000465237
17 1 0.66402 -0.00303474 -5.71997e-05
18 1 0.670601 0.165344 0.161033
19 1 0.833456 -0.00315453 0.16977
20 1 0.834396 0.163132 0.00155478
21 1 0.751291 0.0786576 0.0791735
25 1 0.00236594 0.3258 0.0029963
27 1 0.170151 0.333603 0.1698
29 1 0.0862463 0.420288 0.0802923
8 1 0.256339 0.248683 0.0930367
33 1 0.332658 0.338418 -0.000102927
37 1 0.415835 0.4164 0.0819396
16 1 0.579655 0.2486 0.0846892
35 1 0.496201 0.333486 0.166045
41 1 0.670667 0.330961 0.00442085
24 1 0.922826 0.244776 0.0829279
43 1 0.834747 0.330563 0.166041
45 1 0.749761 0.425709 0.0859124
26 1 -0.00175515 0.498916 0.164378
28 1 0.1651 0.508031 -0.0011042
49 1 -0.00145895 0.666343 0.00755017
51 1 0.16511 0.669997 0.166789
32 1 0.25087 0.590821 0.0871487
34 1 0.32796 0.496663 0.163557
57 1 0.330924 0.667444 0.00405712
36 1 0.5003 0.501636 0.000563686
40 1 0.574363 0.589482 0.0793073
42 1 0.659288 0.498635 0.1591
59 1 0.497588 0.671849 0.171637
65 1 0.661083 0.670521 -0.000597332
44 1 0.834374 0.500037 -0.00189273
48 1 0.914248 0.584115 0.0884988
67 1 0.83553 0.676286 0.167497
50 1 -2.65659e-05 0.836099 0.167634
52 1 0.167505 0.833014 -0.00552756
53 1 0.0852805 0.752167 0.0823284
56 1 0.239402 0.913246 0.0889521
58 1 0.324867 0.832926 0.170167
61 1 0.414816 0.753892 0.0879528
60 1 0.500038 0.834961 0.00557231
64 1 0.580883 0.918459 0.088766
66 1 0.663571 0.82915 0.166304
68 1 0.840922 0.836512 -0.0033634
69 1 0.748096 0.75154 0.0802902
72 1 0.920215 0.91372 0.0804571
73 1 -0.00344364 0.00517147 0.337779
76 1 0.168198 0.177519 0.340274
77 1 0.0877617 0.081464 0.421077
7 1 0.248358 0.0886239 0.258801
81 1 0.337938 -7.61884e-06 0.336628
85 1 0.426743 0.0855065 0.407243
15 1 0.590085 0.0815993 0.247676
84 1 0.506 0.17026 0.328677
89 1 0.662673 -0.00957355 0.327566
23 1 0.909277 0.0808653 0.256207
92 1 0.823482 0.170077 0.336356
93 1 0.741861 0.0835484 0.412261
6 1 0.0785242 0.246715 0.247372
97 1 -0.00472426 0.322834 0.330879
101 1 0.083093 0.41032 0.413146
14 1 0.420589 0.253435 0.253877
31 1 0.246128 0.420023 0.250103
80 1 0.253568 0.256506 0.425419
105 1 0.333949 0.339466 0.332703
109 1 0.422304 0.420086 0.414995
39 1 0.582129 0.415391 0.243773
88 1 0.588663 0.252299 0.412994
113 1 0.669669 0.335883 0.3285
22 1 0.746397 0.251304 0.241886
47 1 0.918652 0.411624 0.248072
96 1 0.908273 0.247122 0.418698
117 1 0.756927 0.416279 0.4115
30 1 0.072793 0.586135 0.244271
100 1 0.157865 0.507641 0.328678
121 1 -0.0066324 0.664835 0.337273
38 1 0.412999 0.57892 0.243773
104 1 0.247771 0.577187 0.416305
129 1 0.329407 0.6641 0.337278
108 1 0.505403 0.496999 0.328115
112 1 0.587348 0.579281 0.414006
137 1 0.665941 0.665443 0.331249
46 1 0.747921 0.580735 0.237909
116 1 0.83617 0.496445 0.32293
120 1 0.915533 0.579773 0.419494
54 1 0.0799484 0.923182 0.256089
124 1 0.163181 0.833191 0.332416
125 1 0.0834463 0.747455 0.415672
55 1 0.244472 0.744526 0.253645
62 1 0.414981 0.918762 0.251984
128 1 0.251964 0.908798 0.416385
133 1 0.418268 0.743304 0.418677
63 1 0.579468 0.754187 0.252862
132 1 0.493263 0.827883 0.334651
136 1 0.575298 0.917498 0.410751
70 1 0.750517 0.912285 0.247758
71 1 0.911593 0.750189 0.257691
140 1 0.831231 0.836797 0.334459
141 1 0.752226 0.750389 0.415918
144 1 0.912606 0.919458 0.418651
74 1 0.00525662 0.165982 0.505298
75 1 0.171886 -0.00139157 0.496825
145 1 0.00321051 -0.00329786 0.662042
148 1 0.170015 0.162202 0.663449
79 1 0.251951 0.0888629 0.578119
82 1 0.3409 0.167373 0.495543
153 1 0.339776 0.00538738 0.662582
83 1 0.502701 0.00476201 0.497305
87 1 0.589612 0.0785474 0.584682
90 1 0.665414 0.165642 0.501261
156 1 0.506824 0.172339 0.660478
161 1 0.679162 -0.00696912 0.664332
91 1 0.823837 0.00158135 0.500701
95 1 0.915005 0.0810611 0.582341
164 1 0.832915 0.170667 0.664365
78 1 0.0883534 0.244924 0.5858
99 1 0.166681 0.332232 0.510998
169 1 0.0169124 0.333386 0.671319
86 1 0.420926 0.250056 0.579724
103 1 0.246276 0.421071 0.597491
177 1 0.334124 0.335911 0.668137
107 1 0.499087 0.327258 0.496163
111 1 0.58376 0.41833 0.578595
185 1 0.666354 0.336002 0.659332
94 1 0.751138 0.246247 0.582261
115 1 0.836733 0.33955 0.504602
119 1 0.927498 0.417469 0.582295
98 1 0.00639315 0.498201 0.498574
102 1 0.0815974 0.583458 0.587494
123 1 0.168372 0.665602 0.496643
172 1 0.170139 0.513709 0.676325
193 1 0.00267912 0.665999 0.67264
106 1 0.325871 0.494853 0.507357
110 1 0.418806 0.579935 0.5849
201 1 0.332743 0.667582 0.670144
114 1 0.669563 0.497838 0.498865
131 1 0.50429 0.662991 0.502141
180 1 0.495512 0.492949 0.667
209 1 0.663411 0.66159 0.664185
118 1 0.751651 0.578562 0.585961
139 1 0.834485 0.665191 0.506191
188 1 0.83798 0.495711 0.663157
122 1 0.00210164 0.830514 0.499906
126 1 0.0877705 0.912694 0.576614
196 1 0.172363 0.830516 0.664033
127 1 0.253915 0.743149 0.57952
130 1 0.335513 0.827929 0.496187
134 1 0.416317 0.920515 0.575993
135 1 0.586457 0.751791 0.579569
138 1 0.664644 0.833657 0.497687
204 1 0.502322 0.840296 0.661245
142 1 0.753009 0.914075 0.575532
143 1 0.91683 0.751966 0.582736
212 1 0.833519 0.833722 0.667244
146 1 -0.0089317 0.159689 0.833974
147 1 0.167769 0.00431028 0.832464
149 1 0.0775145 0.0815361 0.748292
151 1 0.246604 0.0864488 0.923268
154 1 0.327344 0.164623 0.827901
157 1 0.417843 0.0907418 0.747084
155 1 0.499637 0.00866437 0.831313
159 1 0.579631 0.0838571 0.920901
162 1 0.664921 0.168646 0.842715
163 1 0.832148 0.00027648 0.829417
165 1 0.749746 0.0866953 0.749064
167 1 0.910839 0.0753824 0.918467
150 1 0.0835671 0.240093 0.9205
171 1 0.163793 0.331947 0.842293
173 1 0.0920224 0.415973 0.754271
152 1 0.245098 0.25255 0.749704
158 1 0.409055 0.249798 0.914945
175 1 0.250292 0.426179 0.924264
181 1 0.415918 0.415419 0.756182
160 1 0.586305 0.25532 0.749887
179 1 0.497579 0.331656 0.829051
183 1 0.58304 0.413691 0.919098
166 1 0.754303 0.253932 0.918565
168 1 0.922422 0.250314 0.745877
187 1 0.841489 0.330425 0.825133
189 1 0.750781 0.41614 0.747757
191 1 0.923875 0.413088 0.913868
170 1 0.00635715 0.494786 0.839073
174 1 0.079172 0.585493 0.919966
195 1 0.161423 0.669906 0.837817
176 1 0.257865 0.58732 0.761131
178 1 0.340113 0.500479 0.839975
182 1 0.420546 0.586723 0.915043
184 1 0.580392 0.580288 0.745031
186 1 0.667808 0.492052 0.83132
203 1 0.498399 0.672964 0.82345
190 1 0.746198 0.582347 0.919416
192 1 0.91884 0.572503 0.757481
211 1 0.832163 0.659371 0.832978
194 1 -0.00297108 0.838321 0.835323
197 1 0.0756239 0.756526 0.752208
198 1 0.0832596 0.922152 0.915414
199 1 0.248889 0.752786 0.911715
200 1 0.249928 0.921911 0.746782
202 1 0.333167 0.833972 0.826497
205 1 0.414191 0.754649 0.744181
206 1 0.41779 0.922008 0.916951
207 1 0.577131 0.753861 0.910902
208 1 0.589332 0.920713 0.749432
210 1 0.669386 0.836822 0.832456
213 1 0.750055 0.746311 0.747544
214 1 0.749787 0.916459 0.917395
215 1 0.914148 0.748314 0.91153
216 1 0.91674 0.919962 0.747068
ITEM: TIMESTEP
4300
ITEM: NUMBER OF ATOMS
216
ITEM: BOX BOUNDS pp pp pp
0.0000000000000000e+00 1.6427280000000000e+01
0.0000000000000000e+00 1.6427280000000000e+01
0.0000000000000000e+00 1.6427280000000000e+01
ITEM: ATOMS id type xs ys zs
1 1 -0.00260403 0.003187 0.00286517
2 1 0.002032 0.171439 0.165634
3 1 0.161019 -0.00225018 0.165759
4 1 0.163124 0.163016 -0.000993196
5 1 0.0806031 0.0859056 0.0835056
9 1 0.328541 0.00587767 -0.00129791
10 1 0.32911 0.175768 0.168516
13 1 0.413589 0.093487 0.0862595
11 1 0.496316 0.0027754 0.160661
12 1 0.500499 0.165109 0.00130742
17 1 0.66526 0.00391663 -0.0106439
18 1 0.662857 0.17098 0.168041
19 1 0.828451 -0.000906454 0.164667
20 1 0.835549 0.166821 -0.00292564
21 1 0.746276 0.0891346 0.0812543
25 1 -0.00453854 0.337089 0.00274299
27 1 0.16221 0.328186 0.168604
29 1 0.0763094 0.413042 0.0906257
8 1 0.240961 0.251521 0.0747887
33 1 0.330963 0.332072 0.00739643
37 1 0.419089 0.416043 0.0873621
16 1 0.58101 0.255582 0.0790007
35 1 0.505462 0.342091 0.165303
41 1 0.667434 0.335998 -0.0061901
24 1 0.90993 0.248562 0.0869872
43 1 0.829146 0.341128 0.172655
45 1 0.744515 0.409615 0.0842694
26 1 -0.00570579 0.501104 0.176056
28 1 0.1673 0.49514 0.00110969
49 1 -0.00479433 0.665603 -0.00414542
51 1 0.164959 0.661478 0.171695
32 1 0.243262 0.578942 0.0878641
34 1 0.334947 0.499764 0.161793
57 1 0.329433 0.670676 0.000660587
36 1 0.495873 0.502392 -0.00109403
40 1 0.586703 0.578988 0.0855339
42 1 0.665351 0.496966 0.169675
59 1 0.49778 0.665253 0.154308
65 1 0.664525 0.660789 -0.00895416
44 1 0.827409 0.499556 0.0029769
48 1 0.914521 0.579588 0.0821231
67 1 0.828984 0.658213 0.161904
50 1 -0.00718172 0.83201 0.170601
52 1 0.166405 0.841141 0.00835186
53 1 0.0799869 0.744539 0.0881784
56 1 0.249685 0.926335 0.082031
58 1 0.332 0.836768 0.164951
61 1 0.413152 0.754444 0.0773387
60 1 0.49402 0.832629 -0.00661743
64 1 0.583073 0.91756 0.0747132
66 1 0.658302 0.833581 0.163803
68 1 0.823714 0.831949 -0.000808376
69 1 0.746259 0.747997 0.0848693
72 1 0.910201 0.919821 0.0789614
73 1 0.0018718 -0.00336006 0.337039
76 1 0.168651 0.158921 0.335491
77 1 0.0888071 0.0810159 0.416023
7 1 0.249861 0.0799416 0.244333
81 1 0.333866 0.00140515 0.337346
85 1 0.407716 0.0861443 0.428997
15 1 0.576344 0.0849872 0.245741
84 1 0.492004 0.167746 0.338653
89 1 0.667701 0.00241425 0.332665
23 1 0.92103 0.0823437 0.246647
92 1 0.839215 0.16163 0.326339
93 1 0.758073 0.0798093 0.418516
6 1 0.0870127 0.251757 0.260307
97 1 0.00455276 0.3452 0.331975
101 1 0.0840917 0.419392 0.428277
14 1 0.416494 0.253091 0.242341
31 1 0.254067 0.416877 0.24929
80 1 0.252794 0.245166 0.415817
105 1 0.335189 0.32957 0.333065
109 1 0.41621 0.414148 0.417175
39 1 0.584805 0.420351 0.251271
88 1 0.584322 0.253081 0.417677
113 1 0.663937 0.329307 0.330103
22 1 0.753235 0.249135 0.25671
47 1 0.912679 0.416101 0.252629
96 1 0.924804 0.248448 0.414585
117 1 0.749625 0.407666 0.418225
30 1 0.0898445 0.580196 0.255088
100 1 0.169847 0.492573 0.338169
121 1 0.00341908 0.667068 0.328175
38 1 0.416841 0.589189 0.251393
104 1 0.24809 0.590639 0.421113
129 1 0.333497 0.672918 0.333193
108 1 0.502102 0.505521 0.331126
112 1 0.581972 0.585125 0.419901
137 1 0.660847 0.66747 0.327435
46 1 0.751374 0.575926 0.254114
116 1 0.837827 0.496504 0.34137
120 1 0.923032 0.584452 0.411351
54 1 0.0844317 0.911401 0.251798
124 1 0.168 0.831624 0.338448
125 1 0.0792117 0.749273 0.418988
55 1 0.245235 0.752747 0.250819
62 1 0.418217 0.91429 0.250377
128 1 0.249604 0.920585 0.421307
133 1 0.41633 0.75795 0.413319
63 1 0.576125 0.746907 0.240319
132 1 0.502258 0.832619 0.325625
136 1 0.585105 0.910116 0.413813
70 1 0.742542 0.913619 0.250725
71 1 0.917468 0.743836 0.246172
140 1 0.831624 0.83004 0.325574
141 1 0.748711 0.746671 0.413217
144 1 0.922136 0.910255 0.414442
74 1 0.0061939 0.164969 0.499362
75 1 0.163731 0.00155019 0.504205
145 1 -0.00256389 -0.00456443 0.674829
148 1 0.166973 0.170138 0.665308
79 1 0.246344 0.0823021 0.583603
82 1 0.330669 0.169442 0.506396
153 1 0.332002 -0.000268424 0.667779
83 1 0.499292 -0.00125999 0.494922
87 1 0.581565 0.0882987 0.580636
90 1 0.668994 0.169515 0.494992
156 1 0.495404 0.162243 0.669983
161 1 0.659842 0.00491857 0.662961
91 1 0.841859 -0.00591468 0.502101
95 1 0.918625 0.0843179 0.584385
164 1 0.840878 0.166497 0.672138
78 1 0.0829955 0.252782 0.583671
99 1 0.173512 0.329659 0.501917
169 1 -0.00525608 0.327245 0.666361
86 1 0.417225 0.252305 0.584477
103 1 0.261747 0.409505 0.578019
177 1 0.340672 0.329843 0.668705
107 1 0.502724 0.335977 0.503966
111 1 0.587933 0.415884 0.587335
185 1 0.675121 0.327988 0.6697
94 1 0.755635 0.248418 0.582379
115 1 0.836036 0.325824 0.49873
119 1 0.91714 0.410274 0.58113
98 1 -0.00670999 0.504787 0.50561
102 1 0.0851196 0.577677 0.584161
123 1 0.161712 0.668503 0.507731
172 1 0.166612 0.485976 0.660671
193 1 0.00355535 0.665196 0.660769
106 1 0.339031 0.505051 0.496098
110 1 0.42072 0.586941 0.586641
201 1 0.336485 0.671684 0.668998
114 1 0.670733 0.499477 0.497209
131 1 0.499325 0.674921 0.491185
180 1 0.508022 0.501704 0.669352
209 1 0.669734 0.670792 0.661425
118 1 0.749257 0.582612 0.584473
139 1 0.835807 0.659335 0.493388
188 1 0.833666 0.504832 0.668756
122 1 -0.00230686 0.832654 0.505257
126 1 0.0797191 0.922932 0.586216
196 1 0.159647 0.835631 0.671017
127 1 0.251661 0.7591 0.583508
130 1 0.337671 0.836138 0.503711
134 1 0.417627 0.914655 0.584633
135 1 0.577653 0.74436 0.582945
138 1 0.669557 0.834361 0.500851
204 1 0.502756 0.822335 0.667703
142 1 0.749658 0.917581 0.590489
143 1 0.917091 0.741471 0.581377
212 1 0.829219 0.834783 0.662174
146 1 0.0126745 0.171162 0.834873
147 1 0.164821 -0.00321883 0.841116
149 1 0.0913214 0.0813098 0.748332
151 1 0.251308 0.0834042 0.915462
154 1 0.343984 0.163787 0.841998
157 1 0.418933 0.0785968 0.750742
155 1 0.50119 -0.00667508 0.831707
159 1 0.586174 0.0845613 0.909955
162 1 0.671315 0.163992 0.823274
163 1 0.8393 -0.00163428 0.835775
165 1 0.756281 0.0757844 0.746374
167 1 0.922296 0.0883127 0.915812
150 1 0.0896511 0.254689 0.921403
171 1 0.172154 0.331925 0.828337
173 1 0.074421 0.418581 0.756414
152 1 0.263203 0.242502 0.746762
158 1 0.424254 0.253482 0.918634
175 1 0.256436 0.416155 0.916073
181 1 0.416594 0.421859 0.746217
160 1 0.581709 0.250856 0.747157
179 1 0.503896 0.340721 0.830113
183 1 0.584095 0.42183 0.911292
166 1 0.748624 0.244021 0.914902
168 1 0.916266 0.250142 0.758108
187 1 0.830052 0.33426 0.840057
189 1 0.75522 0.413659 0.751546
191 1 0.912562 0.418269 0.918718
170 1 -0.000920677 0.504797 0.833904
174 1 0.082386 0.579396 0.919228
195 1 0.170264 0.668289 0.833101
176 1 0.249629 0.582116 0.743878
178 1 0.330771 0.500441 0.829639
182 1 0.415055 0.586914 0.914844
184 1 0.582501 0.590127 0.747347
186 1 0.66984 0.506102 0.831135
203 1 0.501147 0.668457 0.835589
190 1 0.753935 0.583962 0.908886
192 1 0.918971 0.585241 0.748074
211 1 0.836999 0.670522 0.832963
194 1 -0.00231777 0.83367 0.82871
197 1 0.086672 0.748948 0.748916
198 1 0.0778792 0.913474 0.925317
199 1 0.244253 0.759603 0.923831
200 1 0.252717 0.914111 0.75284
202 1 0.33087 0.830449 0.838142
205 1 0.420168 0.746993 0.752265
206 1 0.412261 0.920621 0.915247
207 1 0.583894 0.751361 0.911563
208 1 0.582217 0.915695 0.748696
210 1 0.662941 0.831369 0.830777
213 1 0.748812 0.750391 0.750862
214 1 0.74686 0.922774 0.910829
215 1 0.912864 0.756823 0.916621
216 1 0.914364 0.911421 0.750662
ITEM: TIMESTEP
4400
ITEM: NUMBER OF ATOMS
216
ITEM: BOX BOUNDS pp pp pp
0.0000000000000000e+00 1.6427280000000000e+01
0.0000000000000000e+00 1.6427280000000000e+01
0.0000000000000000e+00 1.6427280000000000e+01
ITEM: ATOMS id type xs ys zs
1 1 0.00391982 -0.000720986 -0.0040935
2 1 0.00455292 0.163166 0.168098
3 1 0.170628 -0.00352243 0.156477
4 1 0.17254 0.171018 0.000580533
5 1 0.0888007 0.0812997 0.0785728
9 1 0.335043 -0.00708756 -0.00507188
10 1 0.336389 0.164794 0.160585
13 1 0.419187 0.0785642 0.0787406
11 1 0.502285 0.000280912 0.170438
12 1 0.500973 0.168395 -0.00561837
17 1 0.669277 -0.0033069 0.00850876
18 1 0.671509 0.169019 0.171403
19 1 0.835551 -2.94303e-05 0.168371
20 1 0.82576 0.173882 -0.00130017
21 1 0.753386 0.0811373 0.0808776
25 1 0.00224127 0.33395 -0.0062615
27 1 0.175326 0.33603 0.163791
29 1 0.0928636 0.42144 0.0788354
8 1 0.257481 0.252055 0.0838063
33 1 0.33541 0.335746 -0.00462311
37 1 0.412186 0.412813 0.0830612
16 1 0.584303 0.251608 0.0877311
35 1 0.493052 0.328183 0.170373
41 1 0.668119 0.333651 0.00551241
24 1 0.916024 0.252874 0.079245
43 1 0.838093 0.330186 0.165344
45 1 0.757109 0.419559 0.0847865
26 1 0.00234825 0.496242 0.169654
28 1 0.16993 0.5061 -0.00194771
49 1 -0.00147397 0.659217 -0.00199357
51 1 0.168525 0.668597 0.168114
32 1 0.249515 0.584859 0.0843827
34 1 0.335795 0.500088 0.167661
57 1 0.337867 0.663975 -0.00227747
36 1 0.501801 0.493213 0.00405787
40 1 0.581553 0.585608 0.0904147
42 1 0.665028 0.496656 0.165452
59 1 0.504882 0.671746 0.177622
65 1 0.668156 0.671684 0.00369568
44 1 0.839492 0.501677 -0.00313986
48 1 0.91939 0.583806 0.0865727
67 1 0.840756 0.67297 0.172489
50 1 0.00149173 0.830977 0.168739
52 1 0.171442 0.828251 -0.00766691
53 1 0.0871474 0.753309 0.078237
56 1 0.252895 0.909418 0.0748089
58 1 0.336264 0.829719 0.159579
61 1 0.421988 0.740716 0.0892091
60 1 0.503593 0.829946 0.001562
64 1 0.585264 0.914276 0.0907174
66 1 0.675139 0.837931 0.17622
68 1 0.840205 0.833212 -0.00254492
69 1 0.753309 0.755808 0.0856371
72 1 0.923781 0.916048 0.0865514
73 1 0.00117749 -0.000113115 0.331555
76 1 0.159974 0.170818 0.334186
77 1 0.0755486 0.0828413 0.414512
7 1 0.24649 0.0883197 0.248502
81 1 0.328164 0.000186763 0.328917
85 1 0.416174 0.0785884 0.412764
15 1 0.588553 0.0785748 0.254706
84 1 0.5071 0.163014 0.334564
89 1 0.670615 0.000292145 0.334792
23 1 0.915201 0.0873221 0.252094
92 1 0.827196 0.170215 0.337748
93 1 0.745537 0.0867559 0.414867
6 1 0.0865406 0.24594 0.239815
97 1 -0.00436782 0.331817 0.330679
101 1 0.0844856 0.414708 0.409507
14 1 0.411014 0.250874 0.253519
31 1 0.253338 0.417425 0.254512
80 1 0.25022 0.24532 0.419841
105 1 0.329895 0.329858 0.340663
109 1 0.41788 0.414769 0.419696
39 1 0.583747 0.40802 0.246974
88 1 0.58425 0.246753 0.422547
113 1 0.665481 0.33379 0.336878
22 1 0.752931 0.255557 0.252261
47 1 0.91674 0.415934 0.248842
96 1 0.911741 0.251604 0.42258
117 1 0.745749 0.422424 0.415121
30 1 0.0801023 0.59543 0.251727
100 1 0.165708 0.510463 0.331698
121 1 -0.00312133 0.662562 0.340907
38 1 0.41951 0.581582 0.248201
104 1 0.2582 0.580464 0.410242
129 1 0.342212 0.671556 0.33413
108 1 0.498684 0.49297 0.336774
112 1 0.579524 0.588913 0.414521
137 1 0.662329 0.669075 0.334754
46 1 0.745114 0.588374 0.247666
116 1 0.836115 0.502095 0.332184
120 1 0.913032 0.580449 0.4233
54 1 0.0816986 0.920468 0.24194
124 1 0.165085 0.834927 0.324327
125 1 0.0835005 0.746505 0.409955
55 1 0.256952 0.748303 0.244552
62 1 0.419067 0.914391 0.247481
128 1 0.244663 0.917511 0.416889
133 1 0.422504 0.754421 0.417728
63 1 0.586975 0.760998 0.256752
132 1 0.499107 0.836087 0.338839
136 1 0.580921 0.924643 0.411791
70 1 0.751708 0.920693 0.24783
71 1 0.920322 0.752045 0.259279
140 1 0.836656 0.837698 0.334109
141 1 0.75293 0.752676 0.415981
144 1 0.911493 0.915708 0.417103
74 1 0.000787989 0.162152 0.499679
75 1 0.163943 0.00321371 0.499269
145 1 0.00258261 -0.00141421 0.662963
148 1 0.167877 0.169806 0.671905
79 1 0.253889 0.0797124 0.582462
82 1 0.335061 0.160224 0.495905
153 1 0.33361 0.00156211 0.670855
83 1 0.496627 0.000806302 0.50556
87 1 0.585895 0.0772273 0.587432
90 1 0.666756 0.164358 0.507655
156 1 0.503042 0.168474 0.664361
161 1 0.673533 -0.0087469 0.671262
91 1 0.83259 0.00217318 0.491751
95 1 0.916316 0.0784882 0.584
164 1 0.824083 0.164298 0.661255
78 1 0.0876573 0.247011 0.583727
99 1 0.165268 0.333489 0.498068
169 1 0.00247417 0.331886 0.663107
86 1 0.409864 0.245507 0.583209
103 1 0.24417 0.416685 0.583175
177 1 0.330971 0.338861 0.662177
107 1 0.499017 0.330885 0.496682
111 1 0.576797 0.416984 0.579344
185 1 0.660705 0.33524 0.665015
94 1 0.742687 0.253615 0.582981
115 1 0.825749 0.338162 0.504154
119 1 0.917876 0.416858 0.584806
98 1 0.00551075 0.502747 0.493973
102 1 0.079173 0.592514 0.576671
123 1 0.170236 0.66174 0.495711
172 1 0.163873 0.510764 0.663273
193 1 -0.00437097 0.664697 0.670309
106 1 0.333165 0.494877 0.502853
110 1 0.415591 0.585509 0.57947
201 1 0.333494 0.664903 0.66613
114 1 0.661203 0.506357 0.501397
131 1 0.499211 0.669495 0.503207
180 1 0.493308 0.500938 0.666036
209 1 0.662928 0.669574 0.669216
118 1 0.747216 0.593045 0.57965
139 1 0.834811 0.670369 0.502985
188 1 0.832239 0.498312 0.664539
122 1 0.00400468 0.837918 0.492529
126 1 0.088969 0.910582 0.583344
196 1 0.165984 0.826233 0.665304
127 1 0.247021 0.743526 0.586216
130 1 0.327989 0.830603 0.491605
134 1 0.41172 0.912705 0.585233
135 1 0.58484 0.752874 0.585058
138 1 0.660586 0.834728 0.501577
204 1 0.49529 0.835691 0.67
142 1 0.754235 0.916976 0.577104
143 1 0.919987 0.757941 0.587113
212 1 0.846651 0.839254 0.673052
146 1 -0.0186952 0.167139 0.83721
147 1 0.169109 0.00662376 0.837471
149 1 0.0767173 0.0894402 0.754314
151 1 0.25095 0.0893842 0.922977
154 1 0.324901 0.168882 0.826276
157 1 0.41772 0.0905748 0.751981
155 1 0.499474 0.00585997 0.833704
159 1 0.58195 0.0816278 0.91989
162 1 0.668494 0.171782 0.838399
163 1 0.827377 -0.00198762 0.832913
165 1 0.7445 0.0852664 0.751481
167 1 0.903859 0.0782214 0.924906
150 1 0.0767564 0.245516 0.918886
171 1 0.16071 0.33826 0.837662
173 1 0.0821512 0.42115 0.740571
152 1 0.245963 0.260909 0.749307
158 1 0.412342 0.250798 0.911444
175 1 0.247138 0.415069 0.916178
181 1 0.417154 0.412344 0.744493
160 1 0.586763 0.242997 0.749468
179 1 0.499097 0.329353 0.83019
183 1 0.585774 0.410289 0.922246
166 1 0.753091 0.259795 0.918267
168 1 0.912299 0.251673 0.739999
187 1 0.831624 0.331308 0.83032
189 1 0.747844 0.416287 0.750481
191 1 0.918885 0.418462 0.906505
170 1 -0.00417685 0.495922 0.826345
174 1 0.0770969 0.576825 0.911137
195 1 0.159034 0.659592 0.8328
176 1 0.251036 0.582672 0.753171
178 1 0.334763 0.491558 0.83105
182 1 0.416515 0.580975 0.908935
184 1 0.584581 0.585312 0.756328
186 1 0.662526 0.497679 0.836605
203 1 0.498983 0.668097 0.831874
190 1 0.74807 0.582428 0.922777
192 1 0.91713 0.584243 0.752841
211 1 0.831237 0.663244 0.837009
194 1 0.000717087 0.83066 0.836801
197 1 0.0768731 0.743936 0.749854
198 1 0.0849007 0.913903 0.915312
199 1 0.25335 0.738617 0.912156
200 1 0.245211 0.913623 0.752516
202 1 0.336165 0.828278 0.835637
205 1 0.415937 0.749187 0.751871
206 1 0.415605 0.906569 0.918058
207 1 0.579461 0.74905 0.919015
208 1 0.581542 0.914231 0.751426
210 1 0.667089 0.833125 0.837161
213 1 0.754326 0.754581 0.748084
214 1 0.75136 0.909026 0.919151
215 1 0.922255 0.740812 0.918627
216 1 0.919319 0.922789 0.756329
ITEM: TIMESTEP
4500
ITEM: NUMBER OF ATOMS
216
ITEM: BOX BOUNDS pp pp pp
0.0000000000000000e+00 1.6427280000000000e+01
0.0000000000000000e+00 1.6427280000000000e+01
0.0000000000000000e+00 1.6427280000000000e+01
ITEM: ATOMS id type xs ys zs
1 1 0.00170923 -0.000900033 -0.000840093
2 1 -0.000934332 0.171872 0.162365
3 1 0.167305 -0.000680658 0.169081
4 1 0.164297 0.163982 -0.00505177
5 1 0.0844515 0.0859879 0.0807642
9 1 0.32882 0.000506892 0.00311923
10 1 0.329422 0.166252 0.165016
13 1 0.413125 0.0770077 0.0842023
11 1 0.504022 -0.000958367 0.166726
12 1 0.500177 0.165212 0.00809001
17 1 0.6687 0.00152781 0.00105481
18 1 0.667049 0.160862 0.165327
19 1 0.831642 -0.00297553 0.172674
20 1 0.83813 0.162989 -0.00365849
21 1 0.760197 0.0840343 0.0853948
25 1 -0.00497499 0.331371 -0.00357162
27 1 0.161374 0.324325 0.162743
29 1 0.0775186 0.412209 0.0799377
8 1 0.244282 0.242614 0.0806583
33 1 0.331106 0.332964 0.00323473
37 1 0.419943 0.410944 0.0855413
16 1 0.583528 0.251781 0.0804873
35 1 0.505994 0.336786 0.165223
41 1 0.669147 0.326553 -0.0101335
24 1 0.914404 0.250978 0.0862282
43 1 0.830853 0.335674 0.171631
45 1 0.74191 0.412436 0.0830219
26 1 0.00250753 0.506736 0.160003
28 1 0.165596 0.494646 -0.00700492
49 1 0.0065521 0.675009 -0.00264387
51 1 0.172877 0.659232 0.160287
32 1 0.260203 0.577742 0.078638
34 1 0.335273 0.495999 0.164794
57 1 0.330502 0.66984 0.00409212
36 1 0.50343 0.498813 0.00322227
40 1 0.588096 0.585796 0.0803879
42 1 0.671627 0.502158 0.172572
59 1 0.499297 0.664275 0.166612
65 1 0.670379 0.663694 0.000533277
44 1 0.828115 0.494974 0.001979
48 1 0.917406 0.583747 0.0727344
67 1 0.836736 0.667919 0.16561
50 1 0.00473082 0.838133 0.163141
52 1 0.169114 0.83666 0.000603821
53 1 0.0855995 0.749584 0.0863957
56 1 0.250495 0.916753 0.0885597
58 1 0.331622 0.835217 0.170325
61 1 0.418165 0.756808 0.082955
60 1 0.50273 0.834267 -0.00185949
64 1 0.587777 0.915654 0.0872397
66 1 0.668196 0.829233 0.1676
68 1 0.833948 0.832527 0.00307814
69 1 0.74747 0.746505 0.0868049
72 1 0.914845 0.918081 0.0837297
73 1 0.00443763 0.00296468 0.334638
76 1 0.172411 0.168691 0.333329
77 1 0.0920166 0.0886257 0.416089
7 1 0.252174 0.0801465 0.252909
81 1 0.343692 -0.00411398 0.338247
85 1 0.416701 0.0888522 0.42013
15 1 0.584458 0.0795329 0.259067
84 1 0.494125 0.16817 0.331421
89 1 0.668817 -0.000253961 0.332447
23 1 0.921169 0.0814595 0.252234
92 1 0.829625 0.165211 0.331888
93 1 0.750036 0.0821021 0.42043
6 1 0.0844481 0.251881 0.256426
97 1 0.00272971 0.333224 0.331702
101 1 0.0809236 0.423064 0.420674
14 1 0.422192 0.250692 0.246417
31 1 0.24677 0.409168 0.242916
80 1 0.248194 0.25642 0.409025
105 1 0.339833 0.338508 0.32626
109 1 0.411589 0.418806 0.411187
39 1 0.583874 0.420454 0.255432
88 1 0.581564 0.252569 0.412798
113 1 0.669035 0.331731 0.330392
22 1 0.748659 0.251556 0.245699
47 1 0.916582 0.419998 0.247705
96 1 0.911075 0.251 0.407821
117 1 0.752203 0.416043 0.416888
30 1 0.0838159 0.575657 0.248365
100 1 0.163822 0.491723 0.329938
121 1 0.000437276 0.67107 0.31975
38 1 0.413449 0.585403 0.250058
104 1 0.24054 0.579981 0.420475
129 1 0.325489 0.662916 0.333951
108 1 0.501043 0.504123 0.337071
112 1 0.586536 0.580426 0.424379
137 1 0.668653 0.67014 0.338491
46 1 0.755225 0.582785 0.25792
116 1 0.836654 0.500246 0.336158
120 1 0.920474 0.597128 0.40687
54 1 0.0837813 0.918467 0.251496
124 1 0.173104 0.835384 0.336135
125 1 0.0797092 0.752443 0.417605
55 1 0.250188 0.746434 0.249145
62 1 0.42395 0.914214 0.254299
128 1 0.257474 0.917577 0.41894
133 1 0.413668 0.739883 0.418133
63 1 0.584121 0.743931 0.249768
132 1 0.502132 0.820486 0.335784
136 1 0.584793 0.91655 0.414528
70 1 0.751417 0.918027 0.260003
71 1 0.920871 0.75595 0.245526
140 1 0.842024 0.83758 0.33283
141 1 0.755055 0.753228 0.420309
144 1 0.919182 0.928532 0.419345
74 1 -0.00286952 0.169387 0.493998
75 1 0.164276 -0.00327772 0.49509
145 1 -0.0105264 -0.00140287 0.663839
148 1 0.161031 0.164471 0.653386
79 1 0.242713 0.088426 0.574464
82 1 0.323884 0.173402 0.497976
153 1 0.331286 0.00402338 0.66193
83 1 0.502091 0.000625853 0.497327
87 1 0.578376 0.0952542 0.583186
90 1 0.668294 0.170249 0.49619
156 1 0.492982 0.16595 0.674576
161 1 0.657994 0.0134997 0.670665
91 1 0.830774 0.00536127 0.507154
95 1 0.914346 0.0921751 0.581082
164 1 0.829907 0.174886 0.672501
78 1 0.0687837 0.257871 0.579517
99 1 0.164013 0.329197 0.496384
169 1 -0.00806884 0.340705 0.671507
86 1 0.415071 0.25159 0.585232
103 1 0.252255 0.412085 0.582599
177 1 0.327975 0.330134 0.671889
107 1 0.492877 0.33617 0.497407
111 1 0.585734 0.412974 0.58394
185 1 0.66567 0.327022 0.66424
94 1 0.749041 0.245216 0.584189
115 1 0.83006 0.327461 0.498398
119 1 0.910608 0.41889 0.577849
98 1 -0.00762504 0.505219 0.497042
102 1 0.0812501 0.578686 0.588003
123 1 0.163637 0.67057 0.502821
172 1 0.167928 0.492319 0.665343
193 1 0.00695903 0.668662 0.665874
106 1 0.330556 0.4995 0.497604
110 1 0.415885 0.57859 0.576979
201 1 0.332187 0.668294 0.663018
114 1 0.667728 0.494893 0.501814
131 1 0.499541 0.664023 0.5018
180 1 0.496176 0.495805 0.669562
209 1 0.661391 0.661308 0.667683
118 1 0.74567 0.581393 0.583063
139 1 0.832164 0.663009 0.49818
188 1 0.830865 0.506408 0.668569
122 1 -0.00409629 0.838047 0.506616
126 1 0.0827996 0.924332 0.582476
196 1 0.165827 0.838818 0.661082
127 1 0.249107 0.755343 0.58179
130 1 0.341194 0.829761 0.502678
134 1 0.421835 0.9222 0.585457
135 1 0.578276 0.746146 0.58672
138 1 0.667579 0.833801 0.504092
204 1 0.502207 0.832909 0.667701
142 1 0.748222 0.923176 0.592717
143 1 0.911458 0.745917 0.582496
212 1 0.82336 0.825521 0.669892
146 1 0.0125674 0.169754 0.826218
147 1 0.167398 -0.00835494 0.828588
149 1 0.0804813 0.0721084 0.742351
151 1 0.249592 0.0772457 0.912137
154 1 0.333267 0.160348 0.834476
157 1 0.413472 0.0760381 0.751205
155 1 0.496603 -0.005958 0.833555
159 1 0.582929 0.0842812 0.915158
162 1 0.662705 0.166346 0.837745
163 1 0.838913 0.000685835 0.830477
165 1 0.749079 0.0859712 0.756914
167 1 0.929132 0.0867707 0.908195
150 1 0.09391 0.250883 0.909943
171 1 0.171186 0.328376 0.824622
173 1 0.0778076 0.41062 0.755622
152 1 0.247804 0.238255 0.746756
158 1 0.411716 0.245553 0.925834
175 1 0.253058 0.413398 0.919187
181 1 0.40705 0.413216 0.757193
160 1 0.577974 0.254589 0.751849
179 1 0.493945 0.334664 0.839614
183 1 0.587352 0.419572 0.91347
166 1 0.746188 0.241089 0.915977
168 1 0.916363 0.255082 0.7599
187 1 0.833783 0.330682 0.843847
189 1 0.743434 0.412122 0.756046
191 1 0.913094 0.417729 0.919565
170 1 0.000360942 0.504965 0.841315
174 1 0.0881535 0.588202 0.917941
195 1 0.171043 0.673305 0.833685
176 1 0.248315 0.581434 0.748407
178 1 0.331622 0.50222 0.835395
182 1 0.419281 0.586835 0.921214
184 1 0.579224 0.579498 0.752255
186 1 0.668853 0.503125 0.83519
203 1 0.503899 0.670031 0.832599
190 1 0.752682 0.580223 0.914396
192 1 0.924891 0.583828 0.753096
211 1 0.839398 0.669152 0.832009
194 1 -0.000231364 0.832582 0.829681
197 1 0.0887645 0.757104 0.744329
198 1 0.0867046 0.916664 0.912135
199 1 0.254477 0.758027 0.913338
200 1 0.255443 0.910949 0.743728
202 1 0.340127 0.836236 0.829771
205 1 0.417412 0.749512 0.752877
206 1 0.418665 0.923274 0.918398
207 1 0.586951 0.742514 0.916874
208 1 0.587044 0.917117 0.750862
210 1 0.667332 0.837037 0.841479
213 1 0.742402 0.744444 0.754035
214 1 0.75588 0.924533 0.921136
215 1 0.913413 0.75754 0.915197
216 1 0.913006 0.911447 0.743528
ITEM: TIMESTEP
4600
ITEM: NUMBER OF ATOMS
216
ITEM: BOX BOUNDS pp pp pp
0.0000000000000000e+00 1.6427280000000000e+01
0.0000000000000000e+00 1.6427280000000000e+01
0.0000000000000000e+00 1.6427280000000000e+01
ITEM: ATOMS id type xs ys zs
1 1 0.00109127 -0.000644377 0.000411724
2 1 0.00293296 0.162575 0.168578
3 1 0.168322 -0.00313816 0.171957
4 1 0.16654 0.165734 0.0063457
5 1 0.0838421 0.079305 0.089476
9 1 0.338936 -0.00187598 -0.000504197
10 1 0.339372 0.169073 0.171289
13 1 0.419597 0.0864024 0.082532
11 1 0.49606 0.000105105 0.167965
12 1 0.498055 0.164704 -0.00179121
17 1 0.662467 -0.00424745 -0.00408563
18 1 0.663925 0.168863 0.169421
19 1 0.833876 -0.00345179 0.157534
20 1 0.82656 0.173976 0.00104372
21 1 0.741759 0.0808498 0.0813131
25 1 0.000726943 0.332868 0.00174692
27 1 0.169382 0.336381 0.171302
29 1 0.0850497 0.419376 0.087797
8 1 0.249507 0.258836 0.0775788
33 1 0.335215 0.331698 0.00109667
37 1 0.412524 0.420666 0.0814159
16 1 0.578941 0.251446 0.0828109
35 1 0.494113 0.333825 0.16365
41 1 0.666464 0.339816 0.00720155
24 1 0.917697 0.244581 0.0807032
43 1 0.831978 0.329405 0.157722
45 1 0.761747 0.418318 0.0791571
26 1 1.29444e-05 0.496925 0.17391
28 1 0.171911 0.509117 0.00347002
49 1 -0.00109671 0.662701 0.00135203
51 1 0.157419 0.676377 0.170506
32 1 0.24121 0.592157 0.085917
34 1 0.328857 0.505557 0.160985
57 1 0.33094 0.665562 -0.0018025
36 1 0.496843 0.50176 -0.00238308
40 1 0.582909 0.586434 0.0777676
42 1 0.66176 0.502927 0.158928
59 1 0.504264 0.662777 0.166635
65 1 0.661073 0.670491 -0.00284379
44 1 0.836364 0.503176 -0.00796286
48 1 0.918813 0.584087 0.0904796
67 1 0.829112 0.670942 0.167347
50 1 -0.00313383 0.828091 0.173703
52 1 0.164344 0.836344 0.00312044
53 1 0.0755431 0.753715 0.0820839
56 1 0.255112 0.91969 0.0847371
58 1 0.331506 0.831552 0.169972
61 1 0.41147 0.745487 0.0862764
60 1 0.498171 0.834883 -0.000381868
64 1 0.579708 0.914333 0.0823558
66 1 0.666023 0.831458 0.16232
68 1 0.833997 0.835964 -0.00363684
69 1 0.751678 0.752243 0.0703813
72 1 0.919497 0.909775 0.082767
73 1 -0.00492858 -0.0063322 0.336413
76 1 0.158583 0.168025 0.333819
77 1 0.0807447 0.0790642 0.416735
7 1 0.245878 0.0865507 0.253861
81 1 0.327805 0.00397256 0.334746
85 1 0.42186 0.0798655 0.410379
15 1 0.580373 0.0853862 0.245444
84 1 0.504187 0.165916 0.330861
89 1 0.665382 0.00111629 0.333094
23 1 0.910757 0.0788467 0.247352
92 1 0.83564 0.167924 0.338537
93 1 0.743814 0.0808316 0.414666
6 1 0.085452 0.252717 0.248484
97 1 -0.00157959 0.33073 0.331135
101 1 0.0837172 0.413371 0.409388
14 1 0.417659 0.254984 0.255836
31 1 0.251172 0.42738 0.252583
80 1 0.246849 0.244971 0.417406
105 1 0.326719 0.332959 0.341446
109 1 0.411539 0.419333 0.419376
39 1 0.581023 0.412293 0.242781
88 1 0.584931 0.245921 0.415508
113 1 0.668652 0.336268 0.333987
22 1 0.753415 0.250551 0.252887
47 1 0.911973 0.41157 0.247069
96 1 0.92415 0.253417 0.427501
117 1 0.746938 0.422481 0.420023
30 1 0.0797291 0.586675 0.252029
100 1 0.163773 0.504607 0.332407
121 1 -0.00414969 0.655019 0.341075
38 1 0.416614 0.579757 0.252505
104 1 0.259024 0.585216 0.413835
129 1 0.340191 0.666795 0.334988
108 1 0.497315 0.495388 0.329939
112 1 0.581503 0.579594 0.417767
137 1 0.667422 0.660307 0.327483
46 1 0.75301 0.582674 0.244087
116 1 0.828742 0.501988 0.33571
120 1 0.912013 0.574826 0.424236
54 1 0.0809772 0.914338 0.254602
124 1 0.166302 0.833355 0.332582
125 1 0.0859955 0.742356 0.414548
55 1 0.251957 0.754275 0.256554
62 1 0.407688 0.916657 0.247587
128 1 0.244233 0.920536 0.419099
133 1 0.419215 0.749449 0.419421
63 1 0.584064 0.750519 0.245769
132 1 0.499377 0.841693 0.332191
136 1 0.587522 0.92042 0.416218
70 1 0.7459 0.917975 0.24355
71 1 0.919582 0.745736 0.25468
140 1 0.821606 0.823095 0.329063
141 1 0.748897 0.737586 0.41602
144 1 0.91075 0.906824 0.410968
74 1 0.000121374 0.167814 0.505563
75 1 0.167392 0.00304627 0.504398
145 1 0.0122213 -0.00339914 0.667266
148 1 0.178573 0.171115 0.674536
79 1 0.256218 0.0749583 0.587804
82 1 0.337178 0.162474 0.49732
153 1 0.337798 -0.0014536 0.672079
83 1 0.498325 0.00150067 0.501635
87 1 0.586664 0.0769284 0.581334
90 1 0.671587 0.166805 0.506091
156 1 0.505688 0.162426 0.662599
161 1 0.66972 -0.0063006 0.662547
91 1 0.834423 -0.00169269 0.491421
95 1 0.918474 0.0744738 0.582738
164 1 0.836028 0.165134 0.657853
78 1 0.0951173 0.245856 0.583936
99 1 0.169476 0.339148 0.498844
169 1 0.0106926 0.325196 0.666344
86 1 0.418339 0.252391 0.582675
103 1 0.249362 0.426536 0.582828
177 1 0.333632 0.336283 0.667133
107 1 0.504961 0.342422 0.499751
111 1 0.590548 0.423796 0.585587
185 1 0.666749 0.332444 0.668125
94 1 0.749376 0.260608 0.583717
115 1 0.834131 0.338077 0.501272
119 1 0.929254 0.405546 0.585754
98 1 0.00388552 0.496458 0.504856
102 1 0.0843908 0.587188 0.582154
123 1 0.17531 0.663387 0.502271
172 1 0.164355 0.507084 0.671875
193 1 -0.00884574 0.668511 0.668892
106 1 0.33446 0.498892 0.49765
110 1 0.417194 0.586706 0.583912
201 1 0.336597 0.670092 0.671272
114 1 0.671201 0.50402 0.501469
131 1 0.501497 0.664865 0.498139
180 1 0.506441 0.504707 0.669397
209 1 0.675842 0.664809 0.666371
118 1 0.749302 0.581697 0.581702
139 1 0.833763 0.662112 0.504121
188 1 0.833342 0.500898 0.662691
122 1 0.00234552 0.830718 0.502102
126 1 0.0883152 0.914824 0.586751
196 1 0.167436 0.831309 0.66656
127 1 0.250192 0.752665 0.583727
130 1 0.325728 0.833903 0.501879
134 1 0.413035 0.908659 0.580359
135 1 0.580693 0.739085 0.58582
138 1 0.667348 0.827207 0.494398
204 1 0.501816 0.829777 0.664119
142 1 0.752848 0.912414 0.577047
143 1 0.914341 0.747335 0.583204
212 1 0.841666 0.843388 0.661849
146 1 -0.00729916 0.164684 0.836222
147 1 0.165994 0.00437461 0.833726
149 1 0.0835116 0.0912574 0.753559
151 1 0.252641 0.0835129 0.922018
154 1 0.335885 0.167034 0.829821
157 1 0.421163 0.0861059 0.748227
155 1 0.499196 0.00434017 0.831651
159 1 0.587003 0.0834508 0.914113
162 1 0.676159 0.166532 0.832851
163 1 0.828836 -0.000433104 0.834421
165 1 0.74993 0.0821388 0.746825
167 1 0.906252 0.0829346 0.920643
150 1 0.0798022 0.242758 0.918729
171 1 0.159922 0.334501 0.83947
173 1 0.0893792 0.420438 0.749186
152 1 0.254224 0.261397 0.758574
158 1 0.419207 0.246112 0.910209
175 1 0.249679 0.416603 0.91345
181 1 0.419204 0.416773 0.746237
160 1 0.59088 0.24466 0.751212
179 1 0.504458 0.332992 0.830453
183 1 0.582159 0.415204 0.918772
166 1 0.748118 0.254943 0.91674
168 1 0.921525 0.245461 0.742302
187 1 0.836852 0.333349 0.83294
189 1 0.749966 0.417951 0.751576
191 1 0.921216 0.418835 0.917194
170 1 0.00154921 0.495808 0.828875
174 1 0.0805439 0.581192 0.91589
195 1 0.162923 0.6656 0.836736
176 1 0.251383 0.586312 0.754385
178 1 0.332375 0.495409 0.830693
182 1 0.415629 0.583725 0.911636
184 1 0.591878 0.587053 0.752103
186 1 0.656966 0.500194 0.838778
203 1 0.502942 0.666833 0.832217
190 1 0.737998 0.586673 0.918043
192 1 0.9096 0.587573 0.750965
211 1 0.823862 0.667828 0.835796
194 1 -0.00224358 0.836809 0.830529
197 1 0.0825212 0.749629 0.750958
198 1 0.0831081 0.917744 0.917414
199 1 0.246437 0.750864 0.921657
200 1 0.244804 0.919309 0.74875
202 1 0.32413 0.836068 0.831788
205 1 0.421205 0.754528 0.750046
206 1 0.412665 0.91697 0.91186
207 1 0.584022 0.750763 0.916477
208 1 0.574208 0.920338 0.74987
210 1 0.66206 0.824799 0.822702
213 1 0.757729 0.754086 0.743573
214 1 0.746636 0.910565 0.910907
215 1 0.918078 0.748344 0.917848
216 1 0.921635 0.924488 0.752746
ITEM: TIMESTEP
4700
ITEM: NUMBER OF ATOMS
216
ITEM: BOX BOUNDS pp pp pp
0.0000000000000000e+00 1.6427280000000000e+01
0.0000000000000000e+00 1.6427280000000000e+01
0.0000000000000000e+00 1.6427280000000000e+01
ITEM: ATOMS id type xs ys zs
1 1 -0.00878977 0.000709263 0.00649757
2 1 -8.14748e-05 0.172328 0.170545
3 1 0.156467 0.00213941 0.161799
4 1 0.162326 0.173378 -0.000734127
5 1 0.0789865 0.0893693 0.0810705
9 1 0.329704 0.00602012 0.00148054
10 1 0.329716 0.162031 0.163379
13 1 0.417308 0.0825499 0.0792962
11 1 0.500433 0.00802638 0.164467
12 1 0.499866 0.168582 -0.00344352
17 1 0.665592 0.00540626 0.00134572
18 1 0.661524 0.16646 0.165827
19 1 0.829721 0.000573919 0.171156
20 1 0.841214 0.16259 0.000271388
21 1 0.752104 0.0858448 0.0826701
25 1 -0.00613481 0.328756 0.00115163
27 1 0.160797 0.331668 0.171648
29 1 0.0818911 0.416226 0.0860819
8 1 0.245975 0.250964 0.0897991
33 1 0.333256 0.343248 0.00162471
37 1 0.4219 0.418113 0.0906499
16 1 0.585106 0.250502 0.0840034
35 1 0.500007 0.328852 0.166863
41 1 0.66692 0.329753 -0.00880004
24 1 0.909982 0.256446 0.0857903
43 1 0.834968 0.334793 0.169056
45 1 0.742671 0.410289 0.0870483
26 1 0.00229722 0.503546 0.170026
28 1 0.160258 0.501969 0.00269673
49 1 -0.00187121 0.669759 0.00196887
51 1 0.169596 0.65748 0.167951
32 1 0.251946 0.575276 0.0852824
34 1 0.335883 0.497776 0.172391
57 1 0.32612 0.663715 0.00186156
36 1 0.503439 0.499021 0.00111459
40 1 0.58096 0.584848 0.0800716
42 1 0.66243 0.49664 0.165418
59 1 0.492351 0.666574 0.157576
65 1 0.668651 0.661912 -0.00111626
44 1 0.828268 0.494875 0.00324817
48 1 0.912518 0.57945 0.0822871
67 1 0.828813 0.660787 0.16629
50 1 -0.00626101 0.837457 0.158918
52 1 0.162359 0.825841 0.00303319
53 1 0.0830409 0.746492 0.0867583
56 1 0.243978 0.915351 0.0805864
58 1 0.329608 0.839599 0.164879
61 1 0.410662 0.755411 0.082191
60 1 0.500049 0.83564 -0.00593474
64 1 0.583354 0.927203 0.0838684
66 1 0.663801 0.839687 0.165533
68 1 0.825607 0.833078 0.00917249
69 1 0.737925 0.745015 0.0867262
72 1 0.906528 0.918539 0.0875427
73 1 0.00616538 0.00259032 0.327407
76 1 0.173877 0.166508 0.333115
77 1 0.0890287 0.0835588 0.416816
7 1 0.246092 0.0752213 0.25199
81 1 0.336949 -0.00323487 0.33287
85 1 0.416688 0.0852157 0.417366
15 1 0.584082 0.0860439 0.255501
84 1 0.49689 0.160517 0.332261
89 1 0.664295 0.000145295 0.332839
23 1 0.922707 0.0859953 0.245548
92 1 0.832719 0.164495 0.33051
93 1 0.752825 0.0763342 0.411797
6 1 0.0813988 0.241176 0.255457
97 1 0.00773674 0.33324 0.340429
101 1 0.0872849 0.412081 0.428552
14 1 0.422519 0.247146 0.249536
31 1 0.250615 0.409384 0.252917
80 1 0.255248 0.251467 0.418313
105 1 0.34239 0.332097 0.332657
109 1 0.424024 0.417881 0.418007
39 1 0.578514 0.413192 0.25223
88 1 0.583447 0.241854 0.414512
113 1 0.667603 0.331516 0.333211
22 1 0.746463 0.248871 0.240745
47 1 0.924564 0.417897 0.256019
96 1 0.918802 0.249968 0.411787
117 1 0.753875 0.41008 0.418522
30 1 0.0859256 0.583126 0.252047
100 1 0.168697 0.505069 0.342076
121 1 0.00124409 0.670904 0.325461
38 1 0.411778 0.588641 0.247729
104 1 0.253011 0.581346 0.421874
129 1 0.324554 0.669174 0.333028
108 1 0.496924 0.50241 0.335807
112 1 0.587153 0.586285 0.417853
137 1 0.66608 0.670864 0.331939
46 1 0.7405 0.578772 0.253574
116 1 0.833748 0.497307 0.334198
120 1 0.913848 0.585849 0.416244
54 1 0.0787875 0.911956 0.241785
124 1 0.16411 0.836674 0.328199
125 1 0.0827768 0.754462 0.413555
55 1 0.249998 0.751528 0.243366
62 1 0.415575 0.923448 0.241639
128 1 0.252681 0.911262 0.414941
133 1 0.410586 0.751592 0.415438
63 1 0.579964 0.750796 0.245462
132 1 0.494841 0.834812 0.328375
136 1 0.580769 0.922794 0.411806
70 1 0.747279 0.915881 0.251447
71 1 0.910881 0.749247 0.24284
140 1 0.838555 0.834144 0.33533
141 1 0.752683 0.753227 0.415807
144 1 0.915733 0.920636 0.41957
74 1 0.00331132 0.161608 0.495546
75 1 0.16719 -0.0084004 0.500621
145 1 -0.00361403 -0.00144682 0.671568
148 1 0.158387 0.165892 0.673979
79 1 0.245105 0.0813722 0.583268
82 1 0.335273 0.163462 0.502608
153 1 0.331978 0.000812681 0.671023
83 1 0.505568 0.00218208 0.494734
87 1 0.584668 0.0853074 0.576856
90 1 0.668889 0.159116 0.495143
156 1 0.504794 0.163283 0.669356
161 1 0.66969 0.00141157 0.659726
91 1 0.835654 0.000788309 0.504288
95 1 0.921922 0.0853487 0.586529
164 1 0.833514 0.163227 0.67347
78 1 0.0738617 0.250535 0.589308
99 1 0.173186 0.327337 0.510643
169 1 -0.00115951 0.337999 0.672204
86 1 0.418123 0.246654 0.592369
103 1 0.260147 0.410874 0.58803
177 1 0.339178 0.334681 0.670714
107 1 0.502231 0.330194 0.49892
111 1 0.588835 0.414217 0.57756
185 1 0.668405 0.332141 0.655229
94 1 0.755745 0.240585 0.580492
115 1 0.836082 0.325937 0.497153
119 1 0.90824 0.413951 0.581178
98 1 0.000809307 0.501488 0.49358
102 1 0.0899717 0.576668 0.588384
123 1 0.166922 0.66769 0.500618
172 1 0.170084 0.48938 0.66947
193 1 0.00971014 0.666008 0.661355
106 1 0.337919 0.500051 0.499197
110 1 0.42011 0.584135 0.57851
201 1 0.323311 0.665652 0.660121
114 1 0.669761 0.496479 0.498588
131 1 0.499903 0.672715 0.497651
180 1 0.501158 0.496387 0.663663
209 1 0.661701 0.666038 0.662923
118 1 0.745858 0.587635 0.576334
139 1 0.83077 0.667033 0.497065
188 1 0.836601 0.50151 0.65919
122 1 -0.00228168 0.838947 0.505265
126 1 0.087665 0.918781 0.589048
196 1 0.168363 0.83628 0.669569
127 1 0.245828 0.753895 0.586224
130 1 0.333255 0.832307 0.498294
134 1 0.416998 0.922949 0.58712
135 1 0.587014 0.759807 0.578101
138 1 0.668279 0.841641 0.497255
204 1 0.497526 0.838838 0.66568
142 1 0.756197 0.91694 0.580501
143 1 0.913636 0.746605 0.584512
212 1 0.834561 0.822019 0.669535
146 1 0.00717442 0.168804 0.838463
147 1 0.167797 -9.18386e-05 0.83848
149 1 0.0802227 0.080381 0.755304
151 1 0.249891 0.0931862 0.917126
154 1 0.337334 0.171738 0.831032
157 1 0.418991 0.0852703 0.75338
155 1 0.500835 0.00231209 0.830937
159 1 0.576378 0.085582 0.91407
162 1 0.659311 0.165157 0.824894
163 1 0.837973 -0.00168832 0.830748
165 1 0.75001 0.0814615 0.749387
167 1 0.922212 0.0841767 0.913387
150 1 0.0850719 0.26128 0.918473
171 1 0.173744 0.337287 0.827501
173 1 0.0850329 0.4143 0.750398
152 1 0.254325 0.25199 0.747412
158 1 0.418409 0.259895 0.921407
175 1 0.246423 0.420414 0.916718
181 1 0.415524 0.424567 0.752035
160 1 0.585243 0.253244 0.742816
179 1 0.503065 0.340135 0.830277
183 1 0.584532 0.424338 0.914396
166 1 0.751194 0.23814 0.914999
168 1 0.924008 0.245096 0.752688
187 1 0.83509 0.326079 0.83455
189 1 0.749142 0.415475 0.741919
191 1 0.917256 0.412861 0.916783
170 1 0.00640699 0.495145 0.838806
174 1 0.0818742 0.589245 0.918617
195 1 0.169625 0.659368 0.831269
176 1 0.245338 0.574237 0.749447
178 1 0.334984 0.508107 0.835428
182 1 0.411064 0.58409 0.921549
184 1 0.582575 0.584754 0.747665
186 1 0.673188 0.508171 0.82733
203 1 0.496647 0.663285 0.832591
190 1 0.756322 0.58611 0.917715
192 1 0.928894 0.577977 0.74874
211 1 0.840055 0.664746 0.829877
194 1 0.00225674 0.836275 0.838333
197 1 0.0824223 0.748141 0.753376
198 1 0.0790891 0.915569 0.924269
199 1 0.24657 0.744555 0.916602
200 1 0.249434 0.920268 0.75088
202 1 0.336185 0.833208 0.838894
205 1 0.412467 0.750332 0.745491
206 1 0.416381 0.924151 0.917226
207 1 0.586194 0.746706 0.918356
208 1 0.588392 0.916609 0.743426
210 1 0.67101 0.840193 0.839982
213 1 0.747148 0.745642 0.749534
214 1 0.754125 0.920768 0.924356
215 1 0.914975 0.751886 0.920337
216 1 0.912137 0.910127 0.746877
ITEM: TIMESTEP
4800
ITEM: NUMBER OF ATOMS
216
ITEM: BOX BOUNDS pp pp pp
0.0000000000000000e+00 1.6427280000000000e+01
0.0000000000000000e+00 1.6427280000000000e+01
0.0000000000000000e+00 1.6427280000000000e+01
ITEM: ATOMS id type xs ys zs
1 1 0.00353733 0.000821927 -0.00472289
2 1 0.00268772 0.1692 0.16241
3 1 0.17533 -0.00336067 0.170247
4 1 0.167099 0.159671 -0.0002228
5 1 0.0846288 0.0807436 0.0854901
9 1 0.334379 -0.00549261 -0.00171138
10 1 0.338969 0.171512 0.168539
13 1 0.415757 0.0794965 0.07943
11 1 0.498179 -0.00441957 0.165361
12 1 0.504278 0.165493 0.00548376
17 1 0.665274 -0.00496261 -0.00328286
18 1 0.668352 0.164996 0.166968
19 1 0.841679 -0.00310613 0.159072
20 1 0.835373 0.17313 0.000322214
21 1 0.753825 0.0860765 0.0808392
25 1 0.00206573 0.335174 0.00130501
27 1 0.167807 0.33117 0.16252
29 1 0.0811049 0.416627 0.0800083
8 1 0.248427 0.245362 0.0786647
33 1 0.337847 0.327509 -0.000400773
37 1 0.420236 0.418873 0.0794146
16 1 0.580436 0.253041 0.0871406
35 1 0.499371 0.338877 0.167197
41 1 0.66577 0.339965 0.0100977
24 1 0.921828 0.248196 0.0842312
43 1 0.83322 0.334356 0.164776
45 1 0.752285 0.423422 0.0869458
26 1 -0.00312395 0.498855 0.165662
28 1 0.169849 0.496894 -0.00185087
49 1 0.0039211 0.658949 -0.0010021
51 1 0.165367 0.666979 0.16562
32 1 0.256023 0.591435 0.0818661
34 1 0.336643 0.504349 0.159984
57 1 0.342038 0.668812 -0.00177069
36 1 0.498218 0.503378 0.00266774
40 1 0.587249 0.583119 0.0842377
42 1 0.674251 0.507258 0.17017
59 1 0.503779 0.664901 0.173754
65 1 0.663892 0.665878 0.00455387
44 1 0.828814 0.506891 0.00193384
48 1 0.918635 0.582755 0.0833578
67 1 0.837768 0.672415 0.165244
50 1 0.00702495 0.835697 0.169269
52 1 0.169671 0.837125 -0.00473598
53 1 0.0850221 0.751862 0.0822161
56 1 0.252865 0.914712 0.0848584
58 1 0.33424 0.828132 0.166064
61 1 0.42085 0.745734 0.085379
60 1 0.496819 0.831309 0.00428632
64 1 0.581748 0.908735 0.0858054
66 1 0.671639 0.829036 0.162329
68 1 0.840464 0.832818 -0.00496225
69 1 0.755809 0.751487 0.0812838
72 1 0.928602 0.915907 0.0775464
73 1 0.000433387 -0.00178077 0.335512
76 1 0.157029 0.168052 0.333088
77 1 0.0844539 0.0868363 0.418324
7 1 0.251065 0.0922761 0.24828
81 1 0.333488 -0.000634353 0.334782
85 1 0.419586 0.080269 0.413776
15 1 0.580117 0.0794287 0.247324
84 1 0.498643 0.166985 0.332217
89 1 0.666424 0.00392454 0.330453
23 1 0.919753 0.083476 0.250202
92 1 0.836055 0.16955 0.33689
93 1 0.748262 0.0822458 0.426641
6 1 0.0834114 0.256177 0.247443
97 1 -0.00722907 0.327843 0.324006
101 1 0.0776742 0.419403 0.405832
14 1 0.4197 0.255016 0.252324
31 1 0.256025 0.418485 0.246716
80 1 0.243545 0.24647 0.41348
105 1 0.336071 0.333503 0.33519
109 1 0.408275 0.417803 0.415234
39 1 0.587639 0.421937 0.24404
88 1 0.579479 0.25185 0.416905
113 1 0.667389 0.336363 0.333443
22 1 0.752427 0.253232 0.250626
47 1 0.908901 0.411825 0.247411
96 1 0.915637 0.253421 0.424846
117 1 0.750525 0.425191 0.420599
30 1 0.080081 0.580619 0.245114
100 1 0.162922 0.498546 0.327404
121 1 0.00018217 0.659205 0.334555
38 1 0.419586 0.581287 0.249936
104 1 0.247246 0.585025 0.414456
129 1 0.336042 0.663943 0.332421
108 1 0.503533 0.495355 0.332888
112 1 0.583549 0.582017 0.414801
137 1 0.669714 0.668717 0.340406
46 1 0.755846 0.590222 0.251259
116 1 0.832412 0.500354 0.33199
120 1 0.917032 0.585963 0.416674
54 1 0.090378 0.92108 0.251083
124 1 0.172825 0.835413 0.336864
125 1 0.086466 0.748229 0.417345
55 1 0.24639 0.745965 0.252156
62 1 0.417522 0.912373 0.250893
128 1 0.246623 0.922256 0.418585
133 1 0.414027 0.748799 0.417338
63 1 0.587162 0.747752 0.253251
132 1 0.501534 0.832954 0.343709
136 1 0.586779 0.914815 0.422825
70 1 0.751116 0.918764 0.251229
71 1 0.923884 0.753832 0.256725
140 1 0.831441 0.836787 0.332863
141 1 0.751518 0.750371 0.420184
144 1 0.917168 0.916002 0.418577
74 1 0.000923531 0.168086 0.505738
75 1 0.160315 0.00272249 0.497268
145 1 -0.000366602 -0.00127772 0.666387
148 1 0.171204 0.167861 0.662868
79 1 0.254359 0.0832616 0.582819
82 1 0.33481 0.169697 0.495238
153 1 0.336161 -0.00070993 0.67024
83 1 0.496287 -0.00308403 0.505166
87 1 0.577998 0.0830762 0.592708
90 1 0.664076 0.169515 0.507198
156 1 0.497318 0.169681 0.670485
161 1 0.664401 0.00483836 0.675394
91 1 0.829423 -0.0037813 0.501922
95 1 0.913476 0.0785478 0.580943
164 1 0.832371 0.168707 0.662945
78 1 0.0899721 0.250716 0.578726
99 1 0.160919 0.336576 0.493123
169 1 0.0013895 0.334276 0.667095
86 1 0.41762 0.253394 0.580201
103 1 0.243735 0.41959 0.583321
177 1 0.326011 0.3306 0.663403
107 1 0.498648 0.33991 0.50179
111 1 0.580342 0.417552 0.588617
185 1 0.659083 0.333734 0.67266
94 1 0.748315 0.257203 0.584239
115 1 0.829919 0.34116 0.499731
119 1 0.91794 0.416879 0.582266
98 1 -0.00301332 0.499063 0.505302
102 1 0.0809063 0.589691 0.584474
123 1 0.173151 0.666186 0.501781
172 1 0.166923 0.505145 0.667709
193 1 -0.0091569 0.671339 0.668195
106 1 0.325463 0.499223 0.498011
110 1 0.411044 0.577762 0.583758
201 1 0.337046 0.666127 0.669156
114 1 0.663157 0.502659 0.504133
131 1 0.498715 0.66599 0.502723
180 1 0.502497 0.499399 0.667317
209 1 0.671643 0.665124 0.665767
118 1 0.75556 0.582962 0.581965
139 1 0.834851 0.671359 0.501923
188 1 0.829425 0.501038 0.667303
122 1 0.00128588 0.826855 0.499864
126 1 0.080681 0.915077 0.580783
196 1 0.166326 0.829321 0.661332
127 1 0.25477 0.750008 0.580383
130 1 0.331795 0.831032 0.50085
134 1 0.414392 0.914363 0.584031
135 1 0.582792 0.745961 0.593328
138 1 0.664128 0.828477 0.503443
204 1 0.503056 0.832372 0.664017
142 1 0.744716 0.915035 0.589913
143 1 0.915534 0.754137 0.58338
212 1 0.834343 0.840531 0.665411
146 1 -0.00662165 0.163552 0.827554
147 1 0.164247 -0.00029535 0.824879
149 1 0.0796714 0.0823888 0.746816
151 1 0.250037 0.0734175 0.915191
154 1 0.326412 0.158309 0.832931
157 1 0.415272 0.0807466 0.748117
155 1 0.496244 -0.000383995 0.837664
159 1 0.585813 0.0819342 0.918361
162 1 0.668775 0.167045 0.839721
163 1 0.831395 -0.000147259 0.836605
165 1 0.75295 0.0846818 0.75475
167 1 0.916382 0.0841148 0.918078
150 1 0.0786374 0.239735 0.913243
171 1 0.157109 0.330309 0.830688
173 1 0.0793811 0.422216 0.745739
152 1 0.248111 0.248256 0.749642
158 1 0.414718 0.2362 0.91008
175 1 0.254976 0.418545 0.913807
181 1 0.413967 0.407394 0.744075
160 1 0.581403 0.249101 0.750867
179 1 0.496642 0.324708 0.83308
183 1 0.580161 0.41488 0.919182
166 1 0.749653 0.259319 0.919748
168 1 0.911155 0.252622 0.747478
187 1 0.837608 0.342285 0.830991
189 1 0.74612 0.419098 0.749902
191 1 0.920158 0.424468 0.920208
170 1 -0.00211224 0.503612 0.825042
174 1 0.0837505 0.573165 0.912011
195 1 0.165846 0.667044 0.838618
176 1 0.25253 0.589887 0.751807
178 1 0.336281 0.498842 0.82571
182 1 0.424983 0.579615 0.912667
184 1 0.583725 0.582212 0.747559
186 1 0.662441 0.497783 0.83558
203 1 0.506741 0.666234 0.8341
190 1 0.73901 0.580128 0.919445
192 1 0.908193 0.585763 0.750718
211 1 0.820042 0.667081 0.838372
194 1 -0.00770494 0.824452 0.829815
197 1 0.0872316 0.748984 0.747056
198 1 0.0854544 0.915281 0.909303
199 1 0.251142 0.750966 0.918659
200 1 0.249267 0.909869 0.744885
202 1 0.331626 0.834386 0.831087
205 1 0.422783 0.751032 0.754021
206 1 0.417939 0.918134 0.915738
207 1 0.585269 0.745073 0.918656
208 1 0.577482 0.916839 0.75541
210 1 0.663895 0.829105 0.830529
213 1 0.75169 0.755211 0.744406
214 1 0.745938 0.916825 0.91212
215 1 0.914056 0.742981 0.915233
216 1 0.917867 0.916448 0.752306
ITEM: TIMESTEP
4900
ITEM: NUMBER OF ATOMS
216
ITEM: BOX BOUNDS pp pp pp
0.0000000000000000e+00 1.6427280000000000e+01
0.0000000000000000e+00 1.6427280000000000e+01
0.0000000000000000e+00 1.6427280000000000e+01
ITEM: ATOMS id type xs ys zs
1 1 -0.000473316 -0.000225656 -0.000451982
2 1 -0.00025146 0.165932 0.164193
3 1 0.165689 -0.00422651 0.164313
4 1 0.172207 0.166411 -0.00611095
5 1 0.0828931 0.079265 0.0810242
9 1 0.332616 -0.00344408 -0.00284556
10 1 0.335046 0.165519 0.165099
13 1 0.418192 0.0802783 0.0914723
11 1 0.509461 0.00187637 0.174874
12 1 0.496942 0.164443 -0.000103198
17 1 0.67014 0.0011577 0.00554903
18 1 0.663342 0.167818 0.170234
19 1 0.828609 -0.00115134 0.174099
20 1 0.835582 0.159859 0.00174751
21 1 0.748212 0.0806118 0.0892948
25 1 -0.00107655 0.328757 0.000150638
27 1 0.161515 0.328346 0.160259
29 1 0.0837033 0.416776 0.0790761
8 1 0.252754 0.245034 0.0835252
33 1 0.333874 0.332873 0.00940232
37 1 0.417607 0.411285 0.0872194
16 1 0.584527 0.246159 0.0828829
35 1 0.500342 0.327438 0.165711
41 1 0.668752 0.328498 0.00277309
24 1 0.915616 0.246283 0.0825158
43 1 0.836008 0.334272 0.165236
45 1 0.755035 0.41457 0.082553
26 1 0.00815006 0.500255 0.161849
28 1 0.161555 0.505123 -0.00377215
49 1 -0.00112729 0.675179 -0.00427643
51 1 0.170289 0.6686 0.167212
32 1 0.24408 0.577691 0.0823835
34 1 0.336728 0.494187 0.165533
57 1 0.333602 0.667089 0.00138476
36 1 0.495677 0.497303 0.00226371
40 1 0.583609 0.581021 0.0853665
42 1 0.662751 0.492889 0.164518
59 1 0.500831 0.667917 0.163647
65 1 0.675383 0.67111 -0.00312713
44 1 0.838405 0.496814 -0.0019896
48 1 0.920249 0.583945 0.0806705
67 1 0.835558 0.663104 0.16791
50 1 0.000656192 0.83527 0.165304
52 1 0.177432 0.832549 0.00520799
53 1 0.0882416 0.752136 0.0843819
56 1 0.255462 0.918948 0.0808551
58 1 0.337014 0.831988 0.163317
61 1 0.41708 0.748612 0.0805975
60 1 0.504206 0.834085 0.00413959
64 1 0.587361 0.918069 0.086927
66 1 0.67055 0.838374 0.175442
68 1 0.836046 0.837198 0.00680856
69 1 0.753187 0.752585 0.0860209
72 1 0.915971 0.918012 0.0874246
73 1 0.00238458 0.00063577 0.338246
76 1 0.166795 0.16698 0.332558
77 1 0.0807064 0.0835165 0.410348
7 1 0.249402 0.0802713 0.251607
81 1 0.33417 0.00383952 0.337318
85 1 0.41684 0.0921938 0.419562
15 1 0.586516 0.0866193 0.254959
84 1 0.500307 0.171774 0.328533
89 1 0.66938 -0.00595159 0.338433
23 1 0.91474 0.0834098 0.248901
92 1 0.826768 0.166728 0.333333
93 1 0.747436 0.0858442 0.410957
6 1 0.0842015 0.246543 0.249441
97 1 0.00213706 0.337449 0.329563
101 1 0.0857825 0.413773 0.41651
14 1 0.411976 0.249495 0.246864
31 1 0.243003 0.418006 0.248483
80 1 0.251022 0.256859 0.410454
105 1 0.331283 0.332996 0.328172
109 1 0.418773 0.413898 0.417681
39 1 0.579117 0.414297 0.250739
88 1 0.580262 0.253857 0.42033
113 1 0.666629 0.335822 0.33504
22 1 0.752024 0.253291 0.249869
47 1 0.921595 0.421982 0.243714
96 1 0.913928 0.254817 0.410008
117 1 0.752618 0.413602 0.415203
30 1 0.0875837 0.591419 0.248269
100 1 0.166136 0.505589 0.329623
121 1 0.00480719 0.670298 0.332199
38 1 0.415606 0.580778 0.252707
104 1 0.252569 0.582346 0.415648
129 1 0.337668 0.664782 0.336497
108 1 0.497272 0.503376 0.332324
112 1 0.586155 0.584476 0.414964
137 1 0.670711 0.664919 0.33135
46 1 0.748022 0.578642 0.249337
116 1 0.837795 0.50107 0.33412
120 1 0.917333 0.586676 0.415279
54 1 0.0788863 0.913106 0.253473
124 1 0.164785 0.832162 0.327851
125 1 0.0790346 0.749563 0.418415
55 1 0.256598 0.747604 0.25243
62 1 0.424814 0.91823 0.256793
128 1 0.255355 0.910155 0.419577
133 1 0.420023 0.750574 0.41424
63 1 0.585638 0.755307 0.251699
132 1 0.502796 0.831004 0.332073
136 1 0.582301 0.916132 0.414317
70 1 0.754282 0.915491 0.253124
71 1 0.918625 0.750395 0.247676
140 1 0.833608 0.829418 0.338363
141 1 0.748595 0.751091 0.416441
144 1 0.912579 0.920785 0.416521
74 1 -0.0072484 0.165486 0.490305
75 1 0.169318 0.00203874 0.489978
145 1 -0.00178775 0.00321738 0.659376
148 1 0.159175 0.168408 0.663188
79 1 0.242309 0.081914 0.580237
82 1 0.327854 0.170649 0.499137
153 1 0.334023 -0.00187307 0.660206
83 1 0.497165 0.0033051 0.497473
87 1 0.581825 0.088315 0.579136
90 1 0.668781 0.170226 0.498372
156 1 0.495023 0.167756 0.664962
161 1 0.665788 -0.00091966 0.66444
91 1 0.836101 0.00877617 0.497076
95 1 0.911334 0.0917541 0.5826
164 1 0.831189 0.168557 0.670382
78 1 0.0740986 0.248435 0.579017
99 1 0.169871 0.332243 0.501626
169 1 -0.00776203 0.334179 0.662905
86 1 0.413538 0.249908 0.585754
103 1 0.251943 0.417387 0.578727
177 1 0.332253 0.335873 0.665476
107 1 0.492036 0.332081 0.503608
111 1 0.57947 0.41238 0.5844
185 1 0.663985 0.334823 0.67147
94 1 0.746783 0.256433 0.588379
115 1 0.83349 0.33151 0.503525
119 1 0.911531 0.416044 0.582626
98 1 -0.00271788 0.500128 0.496779
102 1 0.083765 0.580136 0.57779
123 1 0.162505 0.668065 0.494788
172 1 0.161319 0.494761 0.663802
193 1 -0.00200007 0.666237 0.665952
106 1 0.335402 0.496344 0.497981
110 1 0.416588 0.582215 0.587999
201 1 0.32661 0.666002 0.666262
114 1 0.667078 0.493479 0.501236
131 1 0.503187 0.668107 0.502007
180 1 0.496038 0.497002 0.667993
209 1 0.65595 0.668455 0.673661
118 1 0.743574 0.583588 0.591903
139 1 0.833802 0.668185 0.503345
188 1 0.832829 0.497557 0.674038
122 1 -0.00567794 0.8391 0.503284
126 1 0.0829645 0.917861 0.581342
196 1 0.167757 0.833484 0.665853
127 1 0.243407 0.748079 0.579549
130 1 0.335934 0.832861 0.502026
134 1 0.421257 0.912633 0.578169
135 1 0.584254 0.753196 0.580162
138 1 0.669407 0.830873 0.500318
204 1 0.500595 0.833089 0.669116
142 1 0.755939 0.921428 0.578086
143 1 0.915224 0.753259 0.583737
212 1 0.831725 0.831398 0.666126
146 1 0.000840624 0.166913 0.832384
147 1 0.171816 0.00166732 0.837875
149 1 0.0843869 0.0861198 0.749357
151 1 0.253559 0.084476 0.91972
154 1 0.334025 0.166871 0.830418
157 1 0.417555 0.0832399 0.753339
155 1 0.500705 -0.0010543 0.833398
159 1 0.583001 0.0775469 0.919554
162 1 0.658163 0.165722 0.828988
163 1 0.833799 0.00302734 0.831634
165 1 0.745351 0.0839154 0.751529
167 1 0.916646 0.0813441 0.914304
150 1 0.0845446 0.249618 0.917675
171 1 0.168973 0.331075 0.827791
173 1 0.078692 0.418823 0.756003
152 1 0.252788 0.24431 0.745427
158 1 0.417093 0.248549 0.917889
175 1 0.245463 0.410993 0.91843
181 1 0.416313 0.416387 0.752532
160 1 0.578384 0.249872 0.750236
179 1 0.498065 0.333171 0.831457
183 1 0.584313 0.415603 0.919693
166 1 0.748999 0.241487 0.915876
168 1 0.918283 0.248892 0.752691
187 1 0.824758 0.32679 0.831302
189 1 0.748644 0.414399 0.754309
191 1 0.915384 0.416959 0.910902
170 1 0.00448799 0.501276 0.839388
174 1 0.0831435 0.590112 0.911748
195 1 0.166717 0.666766 0.82599
176 1 0.24598 0.5757 0.745194
178 1 0.331305 0.499435 0.836658
182 1 0.412958 0.584188 0.921653
184 1 0.577643 0.581522 0.757537
186 1 0.672012 0.500893 0.837892
203 1 0.493389 0.664463 0.838069
190 1 0.758342 0.585051 0.918558
192 1 0.922277 0.579299 0.752263
211 1 0.845382 0.667822 0.833094
194 1 0.00538016 0.843032 0.828059
197 1 0.0800702 0.751045 0.749017
198 1 0.0864034 0.918588 0.923478
199 1 0.253885 0.748323 0.91224
200 1 0.24971 0.918435 0.751557
202 1 0.333859 0.835719 0.835452
205 1 0.413939 0.745217 0.746926
206 1 0.416717 0.912192 0.920666
207 1 0.581037 0.754276 0.915942
208 1 0.583886 0.916485 0.751218
210 1 0.668838 0.836365 0.836315
213 1 0.747156 0.747001 0.757558
214 1 0.759579 0.917364 0.918417
215 1 0.919188 0.761264 0.915892
216 1 0.912186 0.922621 0.744995
ITEM: TIMESTEP
5000
ITEM: NUMBER OF ATOMS
216
ITEM: BOX BOUNDS pp pp pp
0.0000000000000000e+00 1.6427280000000000e+01
0.0000000000000000e+00 1.6427280000000000e+01
0.0000000000000000e+00 1.6427280000000000e+01
ITEM: ATOMS id type xs ys zs
1 1 -0.00623339 0.000299542 0.00121429
2 1 -0.000939801 0.170805 0.167855
3 1 0.16563 -0.00298255 0.1634
4 1 0.168532 0.167338 0.00248635
5 1 0.0844622 0.0890418 0.0824101
9 1 0.327261 0.00426702 -0.00189539
10 1 0.32887 0.174051 0.168158
13 1 0.411482 0.0882343 0.0796627
11 1 0.501039 0.00133691 0.161569
12 1 0.503871 0.172855 -0.00375979
17 1 0.66345 -0.000612774 -0.000333162
18 1 0.66735 0.166483 0.163938
19 1 0.827708 -0.0059041 0.161106
20 1 0.835521 0.165991 -0.0030739
21 1 0.750396 0.0831727 0.0829739
25 1 0.00112549 0.336016 0.00376135
27 1 0.17189 0.339992 0.171381
29 1 0.0866258 0.421573 0.091808
8 1 0.251887 0.257163 0.0844244
33 1 0.329418 0.337342 -0.00298598
37 1 0.414382 0.416366 0.0800005
16 1 0.583738 0.254636 0.0872185
35 1 0.493917 0.336708 0.16654
41 1 0.667696 0.331856 -0.00516632
24 1 0.911289 0.258618 0.0822765
43 1 0.831265 0.334335 0.163349
45 1 0.745817 0.414378 0.0783044
26 1 -0.00367481 0.500712 0.17364
28 1 0.163243 0.497951 0.00403718
49 1 0.00447391 0.658725 -0.00354648
51 1 0.160904 0.664549 0.17246
32 1 0.251411 0.589202 0.0840106
34 1 0.336949 0.500316 0.170359
57 1 0.334592 0.668481 -0.00400821
36 1 0.495257 0.497833 -0.00413431
40 1 0.578811 0.576673 0.0811831
42 1 0.672199 0.497495 0.167139
59 1 0.493733 0.667164 0.167673
65 1 0.66223 0.662108 -0.00150383
44 1 0.829616 0.500896 -0.00163155
48 1 0.911428 0.578746 0.0843854
67 1 0.830233 0.669004 0.164906
50 1 -0.00419589 0.830768 0.165636
52 1 0.156792 0.83783 0.00125676
53 1 0.0799059 0.748187 0.0833115
56 1 0.24493 0.916617 0.0761383
58 1 0.327679 0.83683 0.162563
61 1 0.417149 0.753974 0.0785632
60 1 0.496166 0.829238 -0.00617464
64 1 0.581932 0.915295 0.0812846
66 1 0.660504 0.831998 0.167495
68 1 0.828176 0.832134 -0.00699115
69 1 0.749071 0.752937 0.0800533
72 1 0.909317 0.913372 0.0817981
73 1 0.00412189 -0.00173649 0.332929
76 1 0.168587 0.164021 0.337697
77 1 0.0833308 0.0836963 0.419737
7 1 0.251129 0.0873561 0.244193
81 1 0.333377 -0.00670385 0.333523
85 1 0.416143 0.0727143 0.418009
15 1 0.583818 0.0853025 0.249755
84 1 0.497088 0.15871 0.336796
89 1 0.669304 0.00768488 0.328995
23 1 0.915929 0.0841082 0.254795
92 1 0.835582 0.167911 0.33871
93 1 0.75695 0.0801104 0.417269
6 1 0.0849856 0.249615 0.253291
97 1 0.000316225 0.333241 0.337818
101 1 0.0832263 0.419402 0.425873
14 1 0.418536 0.245332 0.251883
31 1 0.259445 0.41227 0.255414
80 1 0.248921 0.245595 0.422799
105 1 0.336551 0.326956 0.341431
109 1 0.41996 0.417208 0.417581
39 1 0.583983 0.416674 0.249986
88 1 0.583511 0.251289 0.416934
113 1 0.667769 0.330815 0.32991
22 1 0.748798 0.244365 0.248061
47 1 0.912876 0.416807 0.253268
96 1 0.918697 0.247466 0.42147
117 1 0.746743 0.413037 0.415402
30 1 0.0802763 0.579173 0.253982
100 1 0.167929 0.503385 0.338643
121 1 -0.00258435 0.662116 0.334249
38 1 0.415049 0.587164 0.25003
104 1 0.248747 0.587811 0.419293
129 1 0.329863 0.666719 0.332995
108 1 0.497845 0.497586 0.334526
112 1 0.578198 0.582863 0.416547
137 1 0.66461 0.667704 0.333418
46 1 0.74928 0.582895 0.250514
116 1 0.826919 0.497693 0.333714
120 1 0.915835 0.576524 0.415504
54 1 0.0775646 0.91882 0.244052
124 1 0.163233 0.832759 0.336782
125 1 0.0857791 0.746785 0.414128
55 1 0.247023 0.748065 0.246309
62 1 0.419079 0.912595 0.247709
128 1 0.247722 0.919518 0.419714
133 1 0.414957 0.756405 0.415751
63 1 0.580052 0.745272 0.255676
132 1 0.503898 0.82954 0.329595
136 1 0.579722 0.913997 0.416156
70 1 0.744593 0.91927 0.247916
71 1 0.914092 0.748448 0.251759
140 1 0.826631 0.836802 0.327937
141 1 0.745806 0.747477 0.414271
144 1 0.921163 0.912352 0.416791
74 1 0.00656837 0.161672 0.503199
75 1 0.163245 0.00207204 0.505924
145 1 -0.0057371 0.000709145 0.674091
148 1 0.173074 0.168719 0.674444
79 1 0.247076 0.0901566 0.584648
82 1 0.338658 0.163899 0.503721
153 1 0.332328 -0.000140981 0.668442
83 1 0.500253 -0.00823063 0.503725
87 1 0.580771 0.0812377 0.582345
90 1 0.668452 0.160889 0.492433
156 1 0.505347 0.173026 0.669489
161 1 0.66624 -0.00430433 0.669902
91 1 0.836385 -0.00174329 0.498342
95 1 0.923691 0.0789924 0.581705
164 1 0.834699 0.164622 0.66072
78 1 0.090732 0.249625 0.591546
99 1 0.171257 0.334204 0.503265
169 1 -0.000984281 0.33107 0.66933
86 1 0.423453 0.250877 0.580996
103 1 0.251165 0.414521 0.585799
177 1 0.339587 0.331127 0.66551
107 1 0.505202 0.336758 0.500088
111 1 0.584199 0.415171 0.584224
185 1 0.674106 0.333396 0.665541
94 1 0.751534 0.245597 0.577134
115 1 0.83275 0.33611 0.497842
119 1 0.913628 0.416005 0.584463
98 1 -0.0021708 0.500688 0.502311
102 1 0.0878465 0.587524 0.58985
123 1 0.16859 0.667176 0.502679
172 1 0.174466 0.501606 0.666842
193 1 0.00500151 0.668646 0.668938
106 1 0.332866 0.501926 0.501792
110 1 0.417056 0.584133 0.58327
201 1 0.337001 0.672298 0.665701
114 1 0.661578 0.499199 0.495362
131 1 0.498646 0.667889 0.498446
180 1 0.502337 0.503127 0.673202
209 1 0.671716 0.674441 0.665169
118 1 0.755029 0.583098 0.58001
139 1 0.836225 0.669608 0.489131
188 1 0.841117 0.493159 0.669639
122 1 0.000462318 0.826247 0.494647
126 1 0.0836309 0.915563 0.583406
196 1 0.167231 0.833276 0.669439
127 1 0.256699 0.755759 0.585569
130 1 0.334974 0.835703 0.499586
134 1 0.41296 0.916092 0.587724
135 1 0.583941 0.748046 0.583509
138 1 0.663013 0.830781 0.500333
204 1 0.497171 0.83363 0.662363
142 1 0.748741 0.910737 0.58182
143 1 0.921628 0.746994 0.580606
212 1 0.842016 0.830265 0.666509
146 1 -0.00285428 0.165168 0.838535
147 1 0.168715 0.0045978 0.835498
149 1 0.0863558 0.0850224 0.748293
151 1 0.250186 0.0859748 0.913824
154 1 0.333353 0.166471 0.84143
157 1 0.418204 0.0926868 0.749621
155 1 0.50194 -0.00174601 0.828292
159 1 0.582001 0.0904485 0.908702
162 1 0.671127 0.166226 0.830246
163 1 0.834517 -0.00175568 0.837151
165 1 0.758231 0.0811353 0.74897
167 1 0.917348 0.0796127 0.915805
150 1 0.0845892 0.251358 0.915698
171 1 0.167017 0.334558 0.837449
173 1 0.0831893 0.417189 0.749842
152 1 0.250238 0.251633 0.755539
158 1 0.41297 0.262733 0.91714
175 1 0.24694 0.419084 0.921285
181 1 0.418492 0.422498 0.750302
160 1 0.59072 0.250891 0.747612
179 1 0.503073 0.336856 0.829979
183 1 0.58195 0.418689 0.912627
166 1 0.749299 0.250267 0.911973
168 1 0.913372 0.247588 0.748473
187 1 0.834125 0.337743 0.831288
189 1 0.752137 0.41592 0.744317
191 1 0.918237 0.41598 0.913309
170 1 -0.00401955 0.502736 0.830965
174 1 0.0806841 0.572707 0.917102
195 1 0.161961 0.663346 0.837908
176 1 0.250069 0.592346 0.751302
178 1 0.338066 0.507501 0.833139
182 1 0.418026 0.589899 0.91347
184 1 0.589553 0.588045 0.745661
186 1 0.668653 0.500244 0.822554
203 1 0.503782 0.667365 0.831123
190 1 0.755178 0.580309 0.908671
192 1 0.918517 0.584195 0.751474
211 1 0.832477 0.663996 0.832747
194 1 0.000512979 0.8275 0.838936
197 1 0.0871723 0.75071 0.751967
198 1 0.0792906 0.919291 0.911245
199 1 0.247353 0.751436 0.922159
200 1 0.250496 0.916037 0.753391
202 1 0.334807 0.829141 0.832715
205 1 0.418231 0.753187 0.754438
206 1 0.417019 0.914727 0.914201
207 1 0.582033 0.750612 0.915175
208 1 0.584703 0.907971 0.745176
210 1 0.663215 0.833643 0.832801
213 1 0.754663 0.752225 0.749177
214 1 0.744699 0.915224 0.917988
215 1 0.913823 0.745867 0.919061
216 1 0.916879 0.913886 0.757517
