LAMMPS (12 Jun 2025)
OMP_NUM_THREADS environment is not set. Defaulting to 1 thread. (src/comm.cpp:99)
  using 1 OpenMP thread(s) per MPI task
Lattice spacing in x,y,z = 5.47576 5.47576 5.47576
Created orthogonal box = (0 0 0) to (16.42728 16.42728 16.42728)
  1 by 1 by 1 MPI processor grid
Created 216 atoms
  using lattice units in orthogonal box = (0 0 0) to (16.42728 16.42728 16.42728)
  create_atoms CPU = 0.001 seconds
The scaling is : 6.00e-02.
There are 2 species.
Neighbor list info ...
  update: every = 1 steps, delay = 0 steps, check = yes
  max neighbors/atom: 2000, page size: 100000
  master list distance cutoff = 7.7
  ghost atom cutoff = 7.7
  binsize = 3.85, bins = 5 5 5
  1 neighbor lists, perpetual/occasional/extra = 1 0 0
  (1) pair mtp, perpetual
      attributes: full, newton on
      pair build: full/bin/atomonly
      stencil: full/bin/3d
      bin: standard
Setting up Verlet run ...
  Unit style    : metal
  Current step  : 0
  Time step     : 0.001
Per MPI rank memory allocation (min/avg/max) = 3.111 | 3.111 | 3.111 Mbytes
   Step          Temp          Press          Volume         PotEng    
         0   300           -1505.6895      4432.9923     -137320.92    
       100   200.72734     -956.45115      4432.9923     -137317.24    
       200   165.0943      -279.8385       4432.9923     -137314.5     
       300   228.41448     -1077.4585      4432.9923     -137314.16    
       400   264.74589     -933.16792      4432.9923     -137313.04    
       500   239.66887     -303.48376      4432.9923     -137310.5     
       600   284.89816      685.13988      4432.9923     -137310.6     
       700   328.61489     -80.448773      4432.9923     -137312.18    
       800   330.44779     -43.199221      4432.9923     -137313.34    
       900   302.98343     -35.736874      4432.9923     -137313.43    
      1000   291.45816      542.77736      4432.9923     -137313.02    
      1100   294.11968     -112.62042      4432.9923     -137312.37    
      1200   326.46836      1021.7858      4432.9923     -137312.34    
      1300   332.7656       215.50334      4432.9923     -137312.57    
      1400   298.19642      136.0942       4432.9923     -137312.26    
      1500   265.9663       102.95869      4432.9923     -137312.06    
      1600   259.73688     -91.752279      4432.9923     -137311.98    
      1700   312.77305     -1010.4521      4432.9923     -137312.96    
      1800   307.40492     -547.25746      4432.9923     -137312.08    
      1900   268.99064      325.47101      4432.9923     -137310.93    
      2000   315.11472     -428.5984       4432.9923     -137313       
      2100   273.61095      280.72986      4432.9923     -137312.7     
      2200   311.34344      434.2171       4432.9923     -137313.41    
      2300   298.61416      270.26863      4432.9923     -137312.55    
      2400   279.42949      319.46417      4432.9923     -137311.62    
      2500   252.16928     -509.34118      4432.9923     -137310.88    
      2600   285.5047      -297.85593      4432.9923     -137311.91    
      2700   322.08167     -121.60712      4432.9923     -137313.04    
      2800   325.24116      421.75647      4432.9923     -137313.14    
      2900   302.46856      397.91971      4432.9923     -137312.48    
      3000   269.85769     -177.92291      4432.9923     -137311.56    
      3100   275.82023     -813.07174      4432.9923     -137311.74    
      3200   274.70781     -718.40387      4432.9923     -137311.71    
      3300   254.46487     -869.33249      4432.9923     -137311.23    
      3400   261.49142     -328.04979      4432.9923     -137311.42    
      3500   310.4457      -626.66873      4432.9923     -137312.84    
      3600   321.3793       334.20386      4432.9923     -137312.9     
      3700   296.23356      828.8072       4432.9923     -137311.89    
      3800   338.11179      635.04742      4432.9923     -137312.73    
      3900   324.932        47.384978      4432.9923     -137312.79    
      4000   277.97998      0.96347717     4432.9923     -137312.53    
      4100   278.81845      280.19239      4432.9923     -137312.7     
      4200   308.49595     -389.26071      4432.9923     -137313.05    
      4300   283.78348     -306.22968      4432.9923     -137311.88    
      4400   287.96885      8.9709171      4432.9923     -137311.94    
      4500   297.51274     -558.44339      4432.9923     -137312.29    
      4600   292.32481     -393.64595      4432.9923     -137312.26    
      4700   275.13937     -122.36572      4432.9923     -137312.41    
      4800   302.78549     -40.783559      4432.9923     -137313.71    
      4900   329.72371      560.42405      4432.9923     -137313.96    
      5000   340.93483      1388.2822      4432.9923     -137313.3     
Loop time of 1374.97 on 1 procs for 5000 steps with 216 atoms

Performance: 0.314 ns/day, 76.387 hours/ns, 3.636 timesteps/s, 785.471 atom-step/s
99.2% CPU use with 1 MPI tasks x 1 OpenMP threads

MPI task timing breakdown:
Section |  min time  |  avg time  |  max time  |%varavg| %total
---------------------------------------------------------------
Pair    | 1374.7     | 1374.7     | 1374.7     |   0.0 | 99.98
Neigh   | 0          | 0          | 0          |   0.0 |  0.00
Comm    | 0.14597    | 0.14597    | 0.14597    |   0.0 |  0.01
Output  | 0.065659   | 0.065659   | 0.065659   |   0.0 |  0.00
Modify  | 0.085823   | 0.085823   | 0.085823   |   0.0 |  0.01
Other   |            | 0.02124    |            |       |  0.00

Nlocal:            216 ave         216 max         216 min
Histogram: 1 0 0 0 0 0 0 0 0 0
Nghost:           1314 ave        1314 max        1314 min
Histogram: 1 0 0 0 0 0 0 0 0 0
Neighs:              0 ave           0 max           0 min
Histogram: 1 0 0 0 0 0 0 0 0 0
FullNghs:        18576 ave       18576 max       18576 min
Histogram: 1 0 0 0 0 0 0 0 0 0

Total # of neighbors = 18576
Ave neighs/atom = 86
Neighbor list builds = 0
Dangerous builds = 0
System init for write_data ...
Total wall time: 0:22:55
