LAMMPS (12 Jun 2025)
OMP_NUM_THREADS environment is not set. Defaulting to 1 thread. (src/comm.cpp:99)
  using 1 OpenMP thread(s) per MPI task
Lattice spacing in x,y,z = 5.431 5.431 5.431
Created orthogonal box = (0 0 0) to (16.293 16.293 16.293)
  2 by 2 by 2 MPI processor grid
Created 216 atoms
  using lattice units in orthogonal box = (0 0 0) to (16.293 16.293 16.293)
  create_atoms CPU = 0.001 seconds
The scaling is : 7.14e-02.
There are 2 species.
Neighbor list info ...
  update: every = 1 steps, delay = 0 steps, check = yes
  max neighbors/atom: 2000, page size: 100000
  master list distance cutoff = 7.7
  ghost atom cutoff = 7.7
  binsize = 3.85, bins = 5 5 5
  1 neighbor lists, perpetual/occasional/extra = 1 0 0
  (1) pair mtp, perpetual
      attributes: full, newton on
      pair build: full/bin/atomonly
      stencil: full/bin/3d
      bin: standard
Setting up Verlet run ...
  Unit style    : metal
  Current step  : 0
  Time step     : 0.001
Per MPI rank memory allocation (min/avg/max) = 3.077 | 3.077 | 3.077 Mbytes
   Step          Temp          Press          Volume         PotEng    
         0   300            20547.828      4325.1699     -137320.69    
       100   178.69478     -14736.468      4510.5902     -137316.53    
       200   147.72868      11749.556      4370.9571     -137314.06    
       300   224.56913     -5496.964       4457.2633     -137314.13    
       400   276.83736     -1709.2412      4432.3976     -137313.26    
       500   251.73656      2286.0997      4423.2279     -137310.14    
       600   361.41045     -3710.68        4458.2585     -137311.22    
       700   419.69439      4506.041       4409.7015     -137311.81    
       800   405.71689     -5767.8518      4470.1005     -137311.55    
       900   378.84054      8229.5264      4403.6677     -137311.48    
      1000   408.89701     -2558.4734      4454.7602     -137312.64    
      1100   405.24879      4503.4939      4417.56       -137311.84    
      1200   396.85972     -504.36288      4442.3963     -137310.31    
      1300   352.40315     -1429.8217      4440.9986     -137308       
      1400   386.57637     -2537.7241      4445.1556     -137308.62    
      1500   445.38651     -1101.8158      4444.4981     -137310.4     
      1600   359.82665      1436.4183      4430.702      -137308.55    
      1700   412.25037     -1545.2844      4454.8814     -137309.48    
      1800   443.4275       4533.9157      4418.9773     -137309.27    
      1900   443.34926     -4949.2934      4471.8399     -137308.3     
      2000   493.39578      6701.3762      4413.0415     -137309.17    
      2100   518.15393     -3397.2665      4464.5439     -137309.69    
      2200   452.59023      3682.332       4427.8752     -137307.61    
      2300   479.72712     -2007.3758      4450.6967     -137307.82    
      2400   496.93805     -1525.7166      4450.0126     -137307.43    
      2500   431.03154      506.80452      4439.1295     -137305.19    
      2600   519.85098     -3348.0921      4464.3635     -137307.34    
      2700   502.07065      5694.1736      4419.4578     -137307.26    
      2800   461.02726     -4756.8653      4473.126      -137306.7     
      2900   526.22706      6341.0718      4416.2356     -137308.1     
      3000   554.24523     -2335.5986      4465.7869     -137307.03    
      3100   596.20413      2176.7207      4440.2885     -137307.46    
      3200   581.18367      3368.1963      4441.4162     -137306.8     
      3300   532.64719     -2278.4422      4463.503      -137305.75    
      3400   552.73353      862.26086      4440.6003     -137306.1     
      3500   518.40861     -3607.6148      4466.1221     -137304.13    
      3600   563.82197      2039.4212      4445.7401     -137303.99    
      3700   597.18386      253.97755      4454.6794     -137304.46    
      3800   621.48858     -352.1953       4452.6087     -137305.73    
      3900   543.90146      1089.7296      4446.8405     -137305.44    
      4000   577.12561     -1740.204       4461.7081     -137306.57    
      4100   606.54619      4331.8743      4437.7051     -137304.95    
      4200   609.72297     -2857.2205      4469.2545     -137304.2     
      4300   656.78008     -480.4768       4455.2493     -137304.25    
      4400   584.65328     -664.03644      4461.0726     -137301.43    
      4500   639.27073     -2063.4701      4472.0078     -137302.09    
      4600   732.71313      4387.9138      4437.993      -137304.35    
      4700   598.64044     -3412.8806      4476.3164     -137301.27    
      4800   637.19148      1763.5792      4444.1827     -137303.45    
      4900   640.36986     -1251.1961      4461.6998     -137303.66    
      5000   599.55392     -342.3227       4462.7647     -137300.28    
      5100   762.81217      1675.8814      4448.7049     -137303.17    
      5200   713.37633     -1895.1116      4473.6243     -137301.92    
      5300   703.20361      4876.2923      4436.1146     -137301.85    
      5400   692.34817     -3955.3813      4481.3625     -137302.58    
      5500   696.76276      7552.6568      4426.1563     -137303.24    
      5600   745.79826     -2311.2202      4475.5957     -137302.92    
      5700   730.54208      2194.3319      4452.983      -137300.54    
      5800   802.33394      1519.3291      4454.4063     -137301.49    
      5900   723.81177     -5232.5838      4492.0836     -137299.07    
      6000   809.47321      7550.1641      4424.6481     -137301.42    
      6100   727.05025     -8429.2443      4506.718      -137299.93    
      6200   730.03128      9207.5955      4422.6594     -137299.75    
      6300   798.31781     -4932.5952      4493.8449     -137300.07    
      6400   766.73295     -299.87287      4460.6483     -137297.33    
      6500   757.70385     -307.81575      4467.4789     -137296.86    
      6600   764.6623      -1422.2738      4474.5946     -137298.44    
      6700   722.53806      2880.9046      4447.78       -137300.22    
      6800   787.31946     -3386.8586      4480.8354     -137301.25    
      6900   787.45697      5619.9655      4441.298      -137299.12    
      7000   857.61087     -1926.4059      4485.0452     -137299.39    
      7100   865.91795      5439.4807      4448.1547     -137298.13    
      7200   874.28408     -707.79895      4479.8996     -137296.97    
      7300   802.96805     -2549.888       4480.3943     -137294.57    
      7400   843.24233      1319.7755      4468.7475     -137295.94    
      7500   791.45792     -1276.0085      4477.8259     -137296.32    
      7600   854.98524      4234.1541      4460.917      -137298.26    
      7700   877.56852      1812.3399      4468.509      -137297.12    
      7800   878.71809     -3225.9716      4491.047      -137294.86    
      7900   934.74598      2843.0636      4458.2216     -137295.75    
      8000   880.51942     -4425.3039      4499.113      -137294.88    
      8100   836.32297      4538.7218      4450.0307     -137296.03    
      8200   766.7932      -4890.0454      4497.2191     -137296.25    
      8300   907.71611      2849.4973      4458.6078     -137297.72    
      8400   884.47221      896.19628      4474.598      -137294.78    
      8500   981.68183     -2631.6097      4496.2574     -137295.81    
      8600   912.30023      6045.9407      4441.2598     -137292.25    
      8700   935.31423     -12127.814      4541.1746     -137291.58    
      8800   933.72978      9600.8988      4428.6866     -137290.58    
      8900   973.1916      -9040.1139      4531.982      -137292.38    
      9000   981.26316      9227.8815      4429.143      -137294.82    
      9100   929.61479     -5994.8118      4507.5829     -137294.57    
      9200   978.45294      2825.516       4457.8        -137293.68    
      9300   990.70659     -2745.2014      4497.5354     -137290.78    
      9400   977.51455     -2371.8389      4484.9654     -137290.58    
      9500   995.91513      2690.2514      4474.5291     -137291.59    
      9600   972.58338     -2497.8572      4490.8678     -137292.51    
      9700   994.44443      2612.2249      4476.0261     -137294.41    
      9800   948.67039     -118.48305      4487.0947     -137292.34    
      9900   1075.9802     -651.5947       4497.445      -137291.96    
     10000   960.34157      2814.0458      4479.1353     -137287.42    
     10100   1054.6556     -4615.7019      4517.9252     -137289.34    
     10200   954.17544      3703.3338      4474.6305     -137287.3     
     10300   1102.8442     -5738.4542      4517.0674     -137293.77    
     10400   1039.6522      6794.2694      4451.9236     -137293.11    
     10500   1040.2981     -5971.5206      4524.7498     -137290.11    
     10600   1086.2357      4813.4057      4465.0222     -137288.47    
     10700   1119.2734     -2650.3482      4509.2784     -137288.94    
     10800   1167.0027      1283.5727      4487.6816     -137290.45    
     10900   1102.1175      1915.7905      4483.2354     -137289.51    
     11000   1080.9604     -2535.5291      4496.9336     -137289.97    
     11100   1101.3536      1054.46        4487.9758     -137289.23    
     11200   1130.4459     -1343.5889      4504.4049     -137286.61    
     11300   1178.3292      1315.5977      4487.1841     -137286       
     11400   1033.5992     -2621.9965      4506.687      -137283.09    
     11500   1095.4451      1097.0843      4482.7019     -137286.59    
     11600   1025.664      -1571.1006      4486.4378     -137289.8     
     11700   1040.4906      47.267639      4484.8317     -137290.11    
     11800   1095.637       1887.97        4484.7699     -137288.46    
     11900   1067.0975     -3752.4999      4515.5059     -137284.81    
     12000   1174.2009      2899.0985      4475.4674     -137285.22    
     12100   1193.2869     -5103.4685      4534.6684     -137283.72    
     12200   1226.7579      7290.6465      4458.604      -137283.92    
     12300   1195.592      -7644.8463      4550.4917     -137283.5     
     12400   1139.1133      5646.4966      4455.434      -137284.73    
     12500   1156.5034     -5500.6459      4523.8143     -137286.49    
     12600   1197.8905      4350.7675      4471.7884     -137285.56    
     12700   1338.2072      149.90386      4511.0263     -137285.09    
     12800   1183.6628      675.65394      4491.7582     -137280.57    
     12900   1202.8518     -3867.2476      4512.0335     -137281.82    
     13000   1202.3544     -1928.0412      4506.9866     -137283.58    
     13100   1196.6927      4725.3455      4470.4002     -137286.5     
     13200   1204.6672     -5873.6125      4525.5071     -137287.32    
     13300   1116.6455      9470.7334      4449.9672     -137279.65    
     13400   1235.1235     -12477.644      4563.3315     -137280.82    
     13500   1350.3369      5845.1621      4459.6074     -137281.91    
     13600   1347.4517     -6410.8784      4546.9839     -137281.26    
     13700   1280.7522      7622.8046      4464.9549     -137279.89    
     13800   1310.8908     -3295.4103      4522.2293     -137283.5     
     13900   1310.1539      4426.8668      4473.8313     -137285.28    
     14000   1243.1973     -3072.5752      4523.9766     -137281.3     
     14100   1361.3859      851.67127      4502.5226     -137279.63    
     14200   1343.0091     -819.42207      4510.9497     -137278.47    
     14300   1468.6377      122.53475      4511.5083     -137282.59    
     14400   1435.1271      4713.0779      4485.2389     -137284.42    
     14500   1321.0304     -7200.8394      4523.9117     -137284.45    
     14600   1175.9091      6545.3983      4470.3197     -137279.5     
     14700   1358.5186     -9382.6882      4565.557      -137278.41    
     14800   1385.3561      10148.501      4461.5554     -137277.09    
     14900   1549.3254     -8121.6638      4562.7929     -137280.87    
     15000   1340.007       6586.6707      4480.1451     -137275.93    
     15100   1329.884      -5726.4609      4548.4297     -137278.11    
     15200   1255.2009      4246.3141      4482.4219     -137278.96    
     15300   1504.3309     -1091.2962      4529.4415     -137284.14    
     15400   1473.83        5225.9847      4487.5074     -137277.68    
     15500   1456.5739     -2501.524       4541.7289     -137275.51    
     15600   1424.2703      4310.6155      4500.6111     -137274.45    
     15700   1533.5936     -4198.0126      4532.9017     -137277.46    
     15800   1444.6012     -4910.2041      4534.9537     -137275.46    
     15900   1494.137       7479.1013      4482.8398     -137276.93    
     16000   1481.9933     -6711.1508      4566.4662     -137275.97    
     16100   1571.9767      9653.8385      4478.1771     -137275.77    
     16200   1525.8407     -10770.446      4582.0801     -137271.73    
     16300   1515.9881      5719.1605      4508.574      -137269.92    
     16400   1592.131      -858.87195      4544.7381     -137275.14    
     16500   1524.3779      784.28638      4511.1881     -137278.27    
     16600   1418.1825      2601.1539      4521.8872     -137275.44    
     16700   1448.5622     -542.97292      4533.7289     -137272.67    
     16800   1541.3559      3458.0848      4513.4644     -137270.87    
     16900   1472.2065     -6545.8994      4558.2675     -137269.13    
     17000   1608.3538      8244.1834      4476.4415     -137273.55    
     17100   1564.337      -8000.8285      4574.5489     -137274.47    
     17200   1537.9985      10270.639      4444.9348     -137277.06    
     17300   1257.2787     -13794.485      4590.3212     -137272.11    
     17400   1548.2942      9224.8279      4466.0428     -137275.54    
     17500   1523.2229     -1897.4205      4551.3373     -137270.52    
     17600   1658.8811      2597.7553      4526.0056     -137271.99    
     17700   1676.2266      623.44834      4526.7436     -137271.12    
     17800   1631.1971     -2555.5927      4541.584      -137267.58    
     17900   1715.031      -3812.4259      4550.3668     -137267.23    
     18000   1839.2746     -1184.3919      4549.8993     -137268.89    
     18100   1688.9492      4347.7326      4531.0721     -137268.95    
     18200   1631.9006     -2166.1006      4549.0711     -137272.16    
     18300   1530.3445      4915.784       4504.3326     -137269.65    
     18400   1654.1079     -8547.7363      4574.1746     -137270.28    
     18500   1771.1247      7233.2013      4507.988      -137268.34    
     18600   1633.8911     -7519.5199      4586.656      -137263.12    
     18700   1603.9598      462.48778      4538.0747     -137263.56    
     18800   1629.8473     -3752.5318      4550.8643     -137266.89    
     18900   1638.8908     -4688.0166      4559.0481     -137270.19    
     19000   1604.0657      4964.6874      4522.3207     -137271.64    
     19100   1577.8153     -2426.1834      4543.849      -137271.49    
     19200   1612.9756      2177.7193      4532.323      -137266.53    
     19300   1641.2681     -3047.2317      4542.8506     -137262.89    
     19400   1738.2071     -6544.6358      4577.4991     -137263.95    
     19500   1734.3335      6093.3669      4515.9957     -137262.82    
     19600   1666.1427     -8818.4671      4587.2177     -137261.05    
     19700   1636.0398      5028.1026      4522.2707     -137260.84    
     19800   1645.6654     -2807.2688      4568.0249     -137262.95    
     19900   1677.7129      3259.198       4531.7804     -137265.52    
     20000   1695.2207      2238.7212      4528.0239     -137266.53    
     20100   1714.0229     -11054.836      4591.5077     -137262.73    
     20200   1710.0862      8083.8716      4498.3961     -137256.76    
     20300   1643.2282     -14683.92       4625.8095     -137255.03    
     20400   2031.5298      12535.31       4487.6836     -137266.49    
     20500   1635.6062     -6970.2458      4603.2344     -137259.18    
     20600   1667.7692      5202.5261      4511.6915     -137265.96    
     20700   1809.7112     -39.183677      4555.7631     -137270.78    
     20800   1717.8375     -1416.0331      4540.7159     -137263.35    
     20900   1787.9775      3230.2586      4549.8411     -137260.51    
     21000   1699.6079     -580.05992      4563.3777     -137256.9     
     21100   1918.2006      3655.6671      4563.6671     -137260.79    
     21200   2082.9044      741.71686      4531.9955     -137263.64    
     21300   1772.8396     -9040.7592      4613.7557     -137252.97    
     21400   2031.1632      12091.453      4493.8147     -137258.23    
     21500   1722.6734     -5629.7647      4618.2322     -137252.96    
     21600   1903.7111      16903.102      4468.4597     -137262.37    
     21700   1759.2502     -10722.41       4605.672      -137262.65    
     21800   1790.4569      9385.191       4502.8704     -137259.89    
     21900   1828.8621      630.76452      4554.7924     -137253.84    
     22000   2064.5591      497.39394      4551.2394     -137259.72    
     22100   2027.736       4525.6125      4547.4554     -137259.39    
     22200   1740.5267      4381.6927      4539.2065     -137253.59    
     22300   2041.2429     -857.14698      4546.6257     -137263.82    
     22400   1841.4158     -29.614037      4539.6025     -137260.41    
     22500   2035.4117      2268.6079      4539.2909     -137261.33    
     22600   1943.5887     -1232.2992      4562.5134     -137252.69    
     22700   1865.4123      1942.647       4556.9356     -137248.52    
     22800   2064.227       2717.2261      4524.2861     -137252.48    
     22900   2060.1937     -8698.5         4607.2728     -137251.79    
     23000   1867.0155      15860.132      4477.7423     -137251.31    
     23100   1878.484      -9592.9345      4624.6463     -137255.88    
     23200   2008.5304      9541.2471      4492.7912     -137258.97    
     23300   2004.3464     -7791.2624      4631.2716     -137253.28    
     23400   2233.1743      9330.034       4498.3109     -137253.68    
     23500   1888.2097     -8657.4205      4617.8628     -137244.55    
     23600   2123.18        2700.6532      4540.5951     -137252.36    
     23700   1939.5418     -4084.7632      4562.2056     -137254.46    
     23800   1891.2595     -2941.8795      4559.1779     -137255.68    
     23900   1884.1984     -2888.5324      4557.7017     -137252.7     
     24000   1971.1316      2143.1811      4563.4171     -137251.73    
     24100   2122.6091      4357.1212      4554.5588     -137253.04    
     24200   2048.5358     -4015.0119      4573.3913     -137248.66    
     24300   2135.3506     -560.28361      4594.2061     -137244.81    
     24400   2129.9853      4228.5761      4547.5503     -137241.04    
     24500   2092.7988     -2191.7053      4584.0936     -137236.6     
     24600   2372.9722     -5400.6739      4625.9549     -137235.69    
     24700   2367.0054      13863.858      4501.9315     -137241.01    
     24800   2140.0551     -10579.278      4637.5248     -137241.29    
     24900   1937.9351      8262.4259      4521.1377     -137240.41    
     25000   2057.5252     -11056.738      4651.8834     -137244.86    
     25100   2172.1863      7082.2012      4506.8968     -137244.63    
     25200   2164.3596     -168.26094      4560.9831     -137234.19    
     25300   2054.5002     -1381.0286      4524.6975     -137227.83    
     25400   1986.0822      2467.7745      4489.7691     -137220.46    
     25500   1979.2148     -1062.8782      4504.2342     -137214.03    
     25600   2185.7598     -7185.4264      4443.4364     -137213.98    
     25700   2079.2468     -1125.5552      4456.6445     -137205.26    
     25800   2249.7313      920.98289      4460.1112     -137203.46    
     25900   2140.3991     -3400.8713      4408.4737     -137194.85    
     26000   1912.7693     -6959.2901      4384.6486     -137181.12    
     26100   2093.3388      1596.6332      4223.2687     -137178.38    
     26200   2192.9666      1717.1639      4175.7372     -137172.75    
     26300   2256.0172     -660.85117      4212.048      -137168.62    
     26400   2094.5461      3373.8172      4313.1547     -137159.56    
     26500   2252.2512      9063.9064      4312.2529     -137158.18    
     26600   2265.201       1874.3099      4360.1702     -137160.07    
     26700   2117.3978      6024.6171      4313.3085     -137163.52    
     26800   2047.1091      7786.3487      4242.7102     -137163.44    
     26900   2127.8215     -8167.3825      4372.6256     -137162.01    
     27000   2393.2397      2754.5922      4297.5456     -137163.06    
     27100   2362.1383     -6761.7312      4433.4373     -137162.63    
     27200   2328.8858      3395.4847      4364.2197     -137164.54    
     27300   2164.2745     -9226.0629      4415.0383     -137165.35    
     27400   2097.1216      9847.164       4219.2068     -137168.19    
     27500   2283.0144      12932.091      4250.8211     -137165.61    
     27600   2353.0222     -11879.895      4471.2705     -137161.79    
     27700   2423.9926      7343.6163      4323.9067     -137163.12    
     27800   2238.1094     -4784.6291      4430.1997     -137163.04    
     27900   2234.4206      5124.3368      4355.5764     -137163.12    
     28000   2634.3064     -973.82999      4320.7692     -137163.98    
     28100   2583.3365      4203.0568      4268.8828     -137164.05    
     28200   2386.2014     -15697.472      4326.9929     -137163.46    
     28300   2355.8685      3809.7876      4246.7544     -137163.46    
     28400   2251.6676     -5662.943       4410.1512     -137161.89    
     28500   2531.0665      375.38763      4356.146      -137165.69    
     28600   2421.9607     -765.03374      4380.8322     -137156.71    
     28700   2549.602       14547.229      4299.5092     -137158.97    
     28800   2125.9294     -4079.7794      4430.5833     -137157.07    
     28900   2408.5211      16473.562      4268.0186     -137165.88    
     29000   2335.824      -6095.9084      4336.1288     -137162.68    
     29100   2572.0542      6003.5076      4206.0267     -137166.4     
     29200   2528.4145     -5263.466       4338.7496     -137161.17    
     29300   2577.9439      4056.817       4344.6408     -137158.31    
     29400   2554.6713     -17760.747      4468.3665     -137157.38    
     29500   2407.1161      12813.427      4252.2452     -137160.43    
     29600   2408.1552     -15165.304      4320.5371     -137166.59    
     29700   2517.0247      18572.452      4123.1253     -137168.28    
     29800   2286.3762     -7797.5613      4462.6794     -137158.55    
     29900   2337.1794      11457.341      4387.4503     -137156.01    
     30000   2598.6475      518.09683      4407.1297     -137161.46    
Loop time of 2653.3 on 8 procs for 30000 steps with 216 atoms

Performance: 0.977 ns/day, 24.568 hours/ns, 11.307 timesteps/s, 2.442 katom-step/s
99.0% CPU use with 8 MPI tasks x 1 OpenMP threads

MPI task timing breakdown:
Section |  min time  |  avg time  |  max time  |%varavg| %total
---------------------------------------------------------------
Pair    | 2347       | 2411.6     | 2474.9     | 110.4 | 90.89
Neigh   | 0.070459   | 0.071587   | 0.072861   |   0.3 |  0.00
Comm    | 168.56     | 231.77     | 296.36     | 356.2 |  8.74
Output  | 0.03179    | 1.0987     | 8.5409     | 268.4 |  0.04
Modify  | 0.996      | 8.4282     | 9.6673     |  96.8 |  0.32
Other   |            | 0.3159     |            |       |  0.01

Nlocal:             27 ave          31 max          23 min
Histogram: 1 1 0 1 0 2 0 2 0 1
Nghost:        616.125 ave         638 max         594 min
Histogram: 1 0 2 1 1 0 1 0 0 2
Neighs:              0 ave           0 max           0 min
Histogram: 8 0 0 0 0 0 0 0 0 0
FullNghs:      2497.75 ave        2864 max        2093 min
Histogram: 2 0 0 0 2 1 0 0 2 1

Total # of neighbors = 19982
Ave neighs/atom = 92.509259
Neighbor list builds = 374
Dangerous builds = 0
System init for write_data ...
Total wall time: 0:44:13
