LAMMPS (12 Jun 2025)
OMP_NUM_THREADS environment is not set. Defaulting to 1 thread. (src/comm.cpp:99)
  using 1 OpenMP thread(s) per MPI task
Reading data file ...
  orthogonal box = (-0.08237604 -0.08237604 -0.08237604) to (16.375376 16.375376 16.375376)
  2 by 2 by 2 MPI processor grid
  reading atoms ...
  216 atoms
  reading velocities ...
  216 velocities
  read_data CPU = 0.086 seconds
The scaling is : 7.14e-02.
There are 2 species.
Neighbor list info ...
  update: every = 1 steps, delay = 0 steps, check = yes
  max neighbors/atom: 2000, page size: 100000
  master list distance cutoff = 7.7
  ghost atom cutoff = 7.7
  binsize = 3.85, bins = 5 5 5
  1 neighbor lists, perpetual/occasional/extra = 1 0 0
  (1) pair mtp, perpetual
      attributes: full, newton on
      pair build: full/bin/atomonly
      stencil: full/bin/3d
      bin: standard
Setting up Verlet run ...
  Unit style    : metal
  Current step  : 0
  Time step     : 0.001
Per MPI rank memory allocation (min/avg/max) = 3.075 | 3.075 | 3.076 Mbytes
   Step          Temp          Press          Volume         PotEng    
         0   2583.5079     -11115.323      4457.7073     -137156.23    
       100   2549.1437      2051.877       4423.6243     -137159.31    
       200   2437.336      -10458.879      4382.1597     -137163.26    
       300   2533.1266     -219.78508      4301.8194     -137166.86    
       400   2456.0133      6272.1893      4237.3178     -137162.86    
       500   2565.591       9568.609       4222.5312     -137165.25    
       600   2374.0821      2792.7034      4274.9974     -137159.98    
       700   2538.2452     -9922.9146      4351.2867     -137158.28    
       800   2718.9307     -6868.5989      4394.1749     -137157.35    
       900   2616.3494     -13670.27       4406.9763     -137159.7     
      1000   2502.9054      1317.7748      4374.9876     -137161.87    
      1100   2506.546       11064.341      4355.4255     -137162.4     
      1200   2439.6103     -12364.254      4355.3957     -137160.02    
      1300   2567.5511      9377.4632      4299.2613     -137159.42    
      1400   2769.2456      9729.6241      4303.5411     -137164.37    
      1500   2230.1106     -11001.067      4372.1342     -137158.69    
      1600   2282.8149      3464.8425      4366.2577     -137159.83    
      1700   2552.3876      2281.5982      4345.0644     -137162.06    
      1800   2479.6718      7626.7193      4347.9295     -137156.93    
      1900   2555.6916     -4666.4963      4372.3653     -137158.77    
      2000   2557.6147     -5766.2242      4375.1305     -137161.07    
      2100   2520.5518     -4882.6112      4342.8567     -137162.05    
      2200   2505.3516      19470.03       4287.7203     -137159.54    
      2300   2617.551       625.20286      4306.7425     -137158.04    
      2400   2617.6063      1410.1855      4352.564      -137158.06    
      2500   2371.0546     -1449.3988      4413.0746     -137157.02    
      2600   2330.4048     -5306.8325      4469.2392     -137159.41    
      2700   2591.6731      1010.2774      4484.709      -137159.82    
      2800   2429.5287     -4378.2922      4466.1218     -137148.34    
      2900   2825.678       3229.935       4394.5414     -137159.8     
      3000   2542.7021     -829.26233      4335.2101     -137158.85    
      3100   2556.9934      3054.9643      4293.9381     -137161.85    
      3200   2493.7824     -4419.9343      4278.8724     -137161       
      3300   2669.2587      5268.4033      4274.2857     -137163.69    
      3400   2848.8688     -489.94092      4327.4998     -137160.09    
      3500   2550.7033      14.089203      4424.1788     -137153.4     
      3600   2284.5093     -18880.234      4509.9413     -137153.21    
      3700   2489.8925     -6281.7385      4477.8946     -137159.26    
      3800   2570.4281     -5900.2305      4393.088      -137158.67    
      3900   2663.4928     -476.73929      4310.4598     -137159.96    
      4000   2520.3095      15354.279      4256.9847     -137159.88    
      4100   2331.5842      15090.229      4267.6281     -137160.24    
      4200   2380.8364     -5451.3004      4337.4234     -137161.51    
      4300   2487.5451     -2105.9663      4367.5041     -137158.18    
      4400   2787.1558      1424.053       4361.3876     -137158.61    
      4500   2732.3135      3652.8677      4373.6679     -137156.83    
      4600   2559.6973     -12391.758      4387.9035     -137164.64    
      4700   2302.9152      3876.9529      4352.1396     -137159.89    
      4800   2480.0704     -808.33134      4330.5561     -137158.42    
      4900   2697.3828      5817.6746      4336.4676     -137159.8     
      5000   2419.2696      4050.767       4398.2773     -137156.11    
      5100   2391.5247     -15940.162      4459.821      -137160.42    
      5200   2457.9638     -11165.528      4439.7545     -137161.97    
      5300   2584.2223      5804.7123      4344.7676     -137156.57    
      5400   2589.3393      15718.886      4272.7732     -137157.29    
      5500   2534.8336     -7325.2996      4286.8408     -137164.96    
      5600   2392.2425      26.883191      4317.0468     -137161.83    
      5700   2473.213       2552.6398      4371.9018     -137158.04    
      5800   2635.2517     -9252.4109      4436.8145     -137158.8     
      5900   2540.8604     -4275.0424      4459.1145     -137156       
      6000   2624.0777     -1361.6541      4455.8717     -137160.9     
      6100   2264.0631     -11450.839      4421.7336     -137159.84    
      6200   2106.0937      3464.2448      4298.8743     -137162.47    
      6300   2534.2828      11509.724      4175.5121     -137167.45    
      6400   2499.2541      24281.312      4144.343      -137163.97    
      6500   2497.3237      300.6135       4232.7157     -137165.65    
      6600   2307.5636     -5084.5892      4360.3        -137159.8     
      6700   2594.5331     -4548.3429      4464.5984     -137156.54    
      6800   2567.1076     -9594.8357      4520.7701     -137154.46    
      6900   2475.3202     -12933.236      4490.6048     -137156.37    
      7000   2326.0743      6869.0419      4376.9611     -137155.16    
      7100   2643.2742      4848.545       4295.9943     -137160.67    
      7200   2548.1588      15686.201      4283.1227     -137155.31    
      7300   2563.4107      1273.6111      4345.5363     -137161.36    
      7400   2402.6098     -9128.0314      4423.589      -137161.28    
      7500   2390.9117     -9558.4035      4445.261      -137158.62    
      7600   2574.5223     -261.13942      4401.2336     -137154.2     
      7700   2664.6763      7944.2404      4361.1167     -137158.47    
      7800   2436.611      -2314.7357      4381.7802     -137158.1     
      7900   2297.2097     -1997.434       4385.7924     -137155.48    
      8000   2446.4893      8532.4474      4360.2894     -137156.72    
      8100   2664.9009     -1900.8437      4350.1484     -137160.73    
      8200   2468.5113      9.9879367      4334.1853     -137160.19    
      8300   2301.4259      1397.4972      4321.3295     -137160.27    
      8400   2474.1857      205.46406      4314.3808     -137160.78    
      8500   2672.473       6195.0552      4298.0307     -137160.84    
      8600   2621.0934      3517.9315      4307.1759     -137162.35    
      8700   2268.0171      3586.5689      4350.9785     -137159.02    
      8800   2361.2111     -5809.1566      4397.4333     -137159.94    
      8900   2795.8478     -1586.8451      4406.4201     -137157.53    
      9000   2591.1969      7086.8699      4414.203      -137156.79    
      9100   2318.6416     -1251.5121      4437.8203     -137157.51    
      9200   2384.9728     -2219.14        4444.8478     -137158.04    
      9300   2580.1306     -1148.2277      4423.2375     -137158.28    
      9400   2538.1556      2061.9947      4400.9844     -137153.98    
      9500   2545.909       6584.5961      4387.869      -137157.38    
      9600   2359.6798     -5263.3547      4403.4089     -137161.43    
      9700   2519.6533     -9900.5609      4395.7708     -137164.66    
      9800   2641.9479      11713.985      4342.0525     -137162.42    
      9900   2548.1226      6804.4169      4358.7869     -137157.79    
     10000   2446.8475     -5431.8482      4425.2083     -137156.88    
     10100   2448.3187     -11383.453      4448.617      -137155.86    
     10200   2631.27       -2066.2597      4391.3598     -137159.38    
     10300   2544.0759      7609.7796      4339.2397     -137158.81    
     10400   2325.1412      9778.7155      4324.0133     -137161.83    
     10500   2288.9624     -8208.8337      4327.7215     -137162.26    
     10600   2504.3966      5755.9469      4286.8367     -137163.1     
     10700   2455.6153      15057.435      4262.4336     -137159.7     
     10800   2345.0206      2260.3147      4320.5507     -137156.26    
     10900   2402.7408     -4082.7311      4404.8842     -137154.93    
     11000   2690.9921     -3229.5805      4467.3885     -137153.47    
     11100   2589.8132      4870.6186      4528.1433     -137150.17    
     11200   2562.3122     -13187.712      4601.4742     -137152.61    
     11300   2500.1395     -5824.7416      4593.9682     -137151.63    
     11400   2568.3592     -11815.852      4515.3875     -137155.85    
     11500   2489.0764      5868.4         4375.7888     -137158.85    
     11600   2319.8476      13994.539      4252.5772     -137162.61    
     11700   2445.1527      11609.204      4216.5176     -137165.95    
     11800   2355.4188      4747.9777      4264.1324     -137159.83    
     11900   2426.7375      5578.671       4363.1694     -137158.14    
     12000   2441.5118     -14917.998      4492.0047     -137155.73    
     12100   2468.6095     -9932.8683      4519.8305     -137155.44    
     12200   2573.2049     -3966.0106      4434.1672     -137158.75    
     12300   2584.3163      3215.557       4346.3939     -137157.6     
     12400   2645.3083      30.805502      4313.5015     -137162.62    
     12500   2389.7333     -340.64408      4306.5876     -137162.62    
     12600   2416.0739      1244.7255      4313.9014     -137164.26    
     12700   2484.3056      2597.6998      4338.1886     -137161.86    
     12800   2660.7763     -4678.5139      4385.6842     -137158.1     
     12900   2657.5959      1083.3787      4415.4938     -137159.88    
     13000   2426.1004     -7797.1773      4439.6382     -137158.21    
     13100   2419.084      -4092.1794      4426.1447     -137158.1     
     13200   2514.9714      7079.0653      4392.8579     -137159.02    
     13300   2439.1699      9815.6692      4399.7669     -137153.23    
     13400   2913.4078      251.33844      4438.6799     -137155.67    
     13500   2736.8329     -10186.283      4475.69       -137153.29    
     13600   2547.9212     -1351.9914      4479.8623     -137153.08    
     13700   2470.0334     -10682.146      4472.2782     -137154.95    
     13800   2391.3715      2198.9503      4421.6048     -137155.69    
     13900   2466.8939      897.54426      4370.2241     -137157.25    
     14000   2711.3524      14770.548      4355.8412     -137155.81    
     14100   2670.2665     -1375.3743      4418.3662     -137154.92    
     14200   2377.0461     -9740.7369      4487.7969     -137156.77    
     14300   2444.353      -5995.7108      4485.2716     -137158.64    
     14400   2575.3798     -9132.411       4410.9989     -137158.66    
     14500   2658.2986      8856.6105      4311.2135     -137158.66    
     14600   2483.9542      9050.446       4284.0156     -137158.34    
     14700   2377.1937     -9136.1009      4296.8717     -137164.13    
     14800   2387.2663      4932.9803      4290.1996     -137160.72    
     14900   2622.7513     -6356.4909      4303.6163     -137160.93    
     15000   2700.9957      2720.6782      4326.0726     -137162.83    
     15100   2408.2074     -3564.0785      4372.3321     -137160.41    
     15200   2348.7222     -3047.7884      4407.6862     -137159.47    
     15300   2653.0858      2107.3828      4432.2385     -137155.01    
     15400   2520.1167     -4152.2364      4449.9715     -137151.96    
     15500   2393.2153     -3105.6172      4421.9851     -137155.79    
     15600   2505.1001      12515.289      4369.2485     -137161.69    
     15700   2569.2302     -1276.4851      4362.3388     -137164.39    
     15800   2249.5705      298.54241      4357.3494     -137161.29    
     15900   2340.7656      1947.5963      4366.0313     -137166.53    
     16000   2423.9363      2147.3062      4394.3603     -137160.75    
     16100   2487.902       3970.7855      4409.6665     -137157.36    
     16200   2394.4127     -9594.701       4428.7597     -137154.06    
     16300   2450.1874      9878.9303      4403.538      -137152.25    
     16400   2706.0499      4984.9002      4403.3044     -137153.98    
     16500   2534.9526      8296.3913      4426.5218     -137154.18    
     16600   2385.0507     -11578.933      4456.6121     -137157.74    
     16700   2389.3771     -3821.885       4402.1632     -137158.97    
     16800   2524.3839      8417.6875      4320.6299     -137160.35    
     16900   2609.0001      15221.904      4273.5661     -137160.03    
     17000   2718.5636      100.11794      4300.5593     -137163.45    
     17100   2445.4734     -13763.497      4359.5692     -137161.69    
     17200   2404.7392     -9391.2345      4370.7774     -137159.96    
     17300   2594.8792      5685.3333      4328.3285     -137156.72    
     17400   2656.5969      9070.9586      4328.3236     -137155.14    
     17500   2654.1143     -1797.3483      4382.2115     -137160.53    
     17600   2429.7187     -16795.965      4427.9232     -137157.63    
     17700   2517.4996      8800.6973      4383.8431     -137160.51    
     17800   2595.1164     -559.09633      4379.263      -137160.37    
     17900   2579.6796      6745.9139      4391.5581     -137156.92    
     18000   2495.7249     -995.87587      4433.5644     -137150.97    
     18100   2590.1672     -8158.4647      4479.3597     -137151.43    
     18200   2567.3262     -14724.895      4473.7413     -137155.44    
     18300   2449.7787      902.26872      4391.6094     -137159.93    
     18400   2430.8933      8635.404       4318.8753     -137160.54    
     18500   2497.7004     -2284.6451      4311.1164     -137160.13    
     18600   2713.794      -4853.8422      4320.6502     -137158.82    
     18700   2812.9032      8752.2407      4349.6202     -137155.01    
     18800   2636.6632     -2946.4363      4435.4797     -137156.95    
     18900   2434.9851     -16148.85       4494.5337     -137156.93    
     19000   2457.2298     -7985.3268      4439.2324     -137156.46    
     19100   2677.697       3225.0256      4320.5514     -137159.45    
     19200   2503.867       4087.3293      4231.3396     -137161.72    
     19300   2470.7668      10783.5        4198.8987     -137166.17    
     19400   2465.4603      4392.562       4221.6394     -137165.62    
     19500   2607.3157     -4722.7481      4296.4085     -137164.47    
     19600   2539.5841     -4973.9288      4365.816      -137157.9     
     19700   2619.5411     -871.20736      4400.2752     -137157.65    
     19800   2511.2829      2393.1022      4442.4919     -137155.26    
     19900   2525.0307     -13555.146      4489.5776     -137155.46    
     20000   2649.3685     -5798.8216      4474.939      -137158.43    
     20100   2458.4201     -3928.2772      4429.3507     -137157.17    
     20200   2365.7068      8459.8662      4375.4519     -137158.89    
     20300   2480.4714      423.4361       4345.6422     -137162.6     
     20400   2608.4566      3322.9575      4324.4339     -137158.78    
     20500   2485.4376      14287.148      4341.6942     -137152.71    
     20600   2278.2876     -9108.7957      4398.4308     -137153.57    
     20700   2406.9769     -11440.073      4373.1212     -137160.15    
     20800   2658.6046      6098.8352      4302.5972     -137158.58    
     20900   2732.3645      12867.7        4282.1189     -137155.9     
     21000   2458.3802     -2656.095       4328.3087     -137155.84    
     21100   2532.3675     -10413.714      4344.8474     -137160.46    
     21200   2530.424      -3653.6539      4309.8832     -137162.77    
     21300   2412.8283      8535.3966      4271.3398     -137162.82    
     21400   2384.4918      4304.3927      4288.5038     -137167.33    
     21500   2333.7141     -12246.486      4337.1195     -137162.63    
     21600   2604.3036      3359.2962      4332.6957     -137161.38    
     21700   2589.7098     -83.283401      4336.2202     -137160.55    
     21800   2364.0066     -90.162417      4340.1587     -137159.74    
     21900   2256.7893      5198.8083      4346.3714     -137158.06    
     22000   2714.1641     -6188.6119      4369.2338     -137160.07    
     22100   2618.8795      4887.0172      4357.3056     -137156.62    
     22200   2421.1077      7964.517       4347.0841     -137153.81    
     22300   2509.3614     -1995.438       4345.4933     -137159.14    
     22400   2355.7888     -2261.2248      4341.8819     -137160.46    
     22500   2219.2907     -8219.372       4312.0765     -137165.72    
     22600   2364.0381      8562.5         4220.1526     -137166.69    
     22700   2611.4667      16132.53       4165.785      -137163.79    
     22800   2461.6002      11026.947      4218.5348     -137161.53    
     22900   2412.468      -6800.5757      4332.996      -137158.85    
     23000   2469.7889     -6176.9948      4385.4713     -137154.88    
     23100   2576.0567     -3789.9841      4357.6706     -137155.66    
     23200   2575.8975      10481.349      4316.9002     -137161.39    
     23300   2282.0751     -7741.746       4355.7892     -137159.66    
     23400   2310.5442      6936.5232      4372.9148     -137156.05    
     23500   2476.1242      2136.2572      4395.3036     -137154.54    
     23600   2526.1868     -7565.3966      4426.5421     -137154.59    
     23700   2598.5344     -6146.3749      4446.2638     -137156.69    
     23800   2576.5832     -8912.0675      4439.1834     -137158.57    
     23900   2260.6042      2642.5994      4389.2981     -137158.23    
     24000   2455.1298     -1712.9462      4325.8144     -137164.12    
     24100   2553.2601      9930.7696      4275.4004     -137159.29    
     24200   2681.1929      12786.4        4281.6056     -137162.14    
     24300   2593.0099     -1301.376       4357.789      -137162.21    
     24400   2475.488       1330.6175      4439.5924     -137159.04    
     24500   2409.9145     -6144.1214      4493.6883     -137156.85    
     24600   2629.5687     -11878.045      4496.3084     -137156.36    
     24700   2843.3439     -6964.3913      4435.6274     -137156.53    
     24800   2626.3876      1676.1359      4355.665      -137156.79    
     24900   2503.8644      10412.338      4283.3166     -137159.06    
     25000   2564.8439      11391.55       4268.6574     -137163.75    
     25100   2507.5502      649.14726      4357.3081     -137164.36    
     25200   2397.567      -6075.2528      4463.453      -137156.89    
     25300   2511.5159     -5840.6985      4510.2891     -137152.34    
     25400   2591.6035     -5986.6056      4484.1713     -137155.25    
     25500   2598.5569     -10491.323      4410.9487     -137160.07    
     25600   2540.3301      9144.9511      4327.5068     -137162.49    
     25700   2477.6873      8651.7462      4302.9698     -137163.33    
     25800   2419.009      -3226.5592      4330.642      -137160.78    
     25900   2545.9046      7595.5876      4361.3973     -137159.21    
     26000   2569.5793      8287.0995      4412.6002     -137158.93    
     26100   2291.3193     -1046.5143      4488.8938     -137156.18    
     26200   2237.4202     -11621.85       4521.8901     -137158.06    
     26300   2438.0783      48.636364      4461.9043     -137155.62    
     26400   2672.8733      10303.281      4399.3942     -137156.84    
     26500   2564.8125      3244.5309      4384.4748     -137158.2     
     26600   2228.3694      4022.0992      4376.8158     -137154.72    
     26700   2414.2086      1768.0844      4367.0236     -137159.25    
     26800   2621.3728     -1868.4007      4372.0261     -137157.01    
     26900   2967.8657      2710.1189      4368.5332     -137160.94    
     27000   2613.5526      3172.8601      4394.9155     -137158.57    
     27100   2542.0672     -3142.9072      4431.1064     -137160.48    
     27200   2313.7549     -3312.6619      4457.9226     -137155.19    
     27300   2580.9979     -115.55942      4447.7971     -137157.59    
     27400   2729.8666     -2019.1294      4418.2926     -137158.3     
     27500   2595.7218     -964.83309      4380.089      -137160.3     
     27600   2388.8955      11113.575      4341.6227     -137162.2     
     27700   2524.0169     -187.86413      4367.8222     -137163.33    
     27800   2435.9389     -5197.637       4413.9084     -137156.68    
     27900   2482.5989      1927.7892      4446.1748     -137154.76    
     28000   2511.2253     -3778.2028      4466.1986     -137154.02    
     28100   2428.1791      1439.835       4429.6643     -137152.12    
     28200   2520.2583      592.54313      4372.434      -137155.55    
     28300   2536.3839     -3723.9823      4335.7944     -137157.05    
     28400   2580.2301     -5416.4434      4301.7559     -137162.38    
     28500   2279.3235     -1110.0518      4276.9279     -137163.7     
     28600   2486.1557      2829.9841      4262.6727     -137168.32    
     28700   2412.1833     -1301.3889      4254.7861     -137162.62    
     28800   2633.6236      2747.4816      4249.3265     -137164.07    
     28900   2540.7913      1234.487       4274.6316     -137161.7     
     29000   2518.6297      4968.8482      4314.4393     -137162.89    
     29100   2381.1126     -2227.4956      4381.7477     -137160.1     
     29200   2523.4114      82.518665      4426.6833     -137160.19    
     29300   2678.571       10961.621      4448.9379     -137157.44    
     29400   2699.9582     -7038.4328      4515.8703     -137152.04    
     29500   2641.787      -7699.8851      4557.1789     -137153.47    
     29600   2399.8793     -6541.054       4552.5296     -137155.91    
     29700   2400.2747     -1188.8505      4455.239      -137156.67    
     29800   2620.4013      8262.6207      4286.633      -137158.77    
     29900   2808.2914      12635.013      4180.9703     -137163.13    
     30000   2491.0094      13818.562      4186.8881     -137167.01    
     30100   2339.7859     -5355.069       4270.487      -137165.09    
     30200   2438.2675     -3490.0532      4343.0695     -137161.39    
     30300   2603.5458     -14200.09       4396.9071     -137159.66    
     30400   2603.8075     -175.63558      4404.4432     -137158.89    
     30500   2423.9214     -2334.1969      4395.3364     -137161.11    
     30600   2484.0081      4189.9687      4368.1475     -137163.69    
     30700   2538.685      -3307.0384      4367.5558     -137162.37    
     30800   2474.4568      6878.0814      4354.4491     -137158.49    
     30900   2488.3185     -7845.4648      4341.5413     -137160.75    
     31000   2278.6414      6259.2154      4307.7909     -137161.05    
     31100   2327.2174     -1456.2209      4274.007      -137163.07    
     31200   2542.7039      20728.459      4249.0412     -137160.21    
     31300   2505.2477      6567.5893      4324.8919     -137157.84    
     31400   2383.9428     -4503.1826      4445.9218     -137155.93    
     31500   2545.6        -13664.573      4521.7825     -137156.31    
     31600   2895.0862     -7153.3852      4518.0351     -137154.22    
     31700   2746.0834     -3706.948       4476.9692     -137155.57    
     31800   2385.1268      8927.6362      4434.0474     -137154.6     
     31900   2340.0945      6861.3576      4428.3826     -137156.61    
     32000   2432.2659     -11838.413      4440.9906     -137156.94    
     32100   2681.8002     -6169.1953      4395.846      -137156.16    
     32200   2677.959       5974.1424      4327.6626     -137154.53    
     32300   2689.0418      13900.515      4295.5311     -137161.79    
     32400   2382.6729      9250.8635      4341.1934     -137158.2     
     32500   2396.6575     -6779.2079      4423.2864     -137159.95    
     32600   2524.7221      1657.9002      4458.5677     -137158.73    
     32700   2576.4259      3338.2097      4470.4091     -137155.17    
     32800   2594.1181     -3490.8954      4478.8311     -137151.94    
     32900   2705.324       478.87409      4465.2725     -137151.76    
     33000   2440.8626     -1604.5755      4426.4397     -137153.4     
     33100   2587.0062     -14500.097      4365.8228     -137163.19    
     33200   2449.2757      14871.413      4266.5065     -137162.48    
     33300   2424.0354      9985.4466      4217.4378     -137162.84    
     33400   2488.3529      15888.803      4247.106      -137160.57    
     33500   2622.4616     -6874.3464      4382.3025     -137156.27    
     33600   2536.9139     -8924.2488      4493.4251     -137155.07    
     33700   2473.2116     -12722.294      4524.2575     -137157.82    
     33800   2325.1835      2708.3209      4476.5796     -137157.55    
     33900   2375.5462      71.726484      4430.0212     -137154.45    
     34000   2554.3712      8972.3071      4377.6718     -137152       
     34100   2612.26        13716.349      4358.3375     -137155.97    
     34200   2306.7047     -258.94629      4396.8236     -137156.33    
     34300   2450.6216     -5775.333       4416.5272     -137161.22    
     34400   2352.6545      3347.4911      4408.1148     -137155.72    
     34500   2601.4072      6412.5631      4394.1163     -137156.45    
     34600   2599.5361      2410.5553      4392.3178     -137156.15    
     34700   2595.8801     -3044.1117      4383.1209     -137159.59    
     34800   2683.1546     -2884.6002      4374.8062     -137164.65    
     34900   2385.8582      1725.924       4369.6373     -137161.45    
     35000   2460.3179     -7379.1473      4348.3579     -137164.85    
     35100   2697.6563      2563.7336      4292.3921     -137164.2     
     35200   2843.9139      13065.454      4271.2477     -137162.72    
     35300   2576.9236     -8891.8265      4354.1061     -137160.32    
     35400   2211.4378     -1297.3266      4427.6884     -137153.36    
     35500   2511.5351     -5375.8292      4459.5437     -137158.63    
     35600   2602.4846     -9864.7689      4432.5023     -137159.24    
     35700   2495.333       3355.0398      4347.5426     -137158.37    
     35800   2559.5126     -9904.6293      4273.2637     -137169.93    
     35900   2412.0274      7107.1469      4195.7226     -137169.25    
     36000   2425.1327      7315.3686      4180.0894     -137165.06    
     36100   2558.0324      10322.963      4235.9816     -137162.03    
     36200   2470.8527      118.93283      4371.7651     -137158.15    
     36300   2461.121      -9027.739       4494.8522     -137154.58    
     36400   2533.1146     -4792.924       4536.978      -137151.79    
     36500   2626.664      -3149.68        4508.0182     -137152.71    
     36600   2365.0088     -10299.903      4408.805      -137157.45    
     36700   2503.5909      7437.712       4280.7656     -137164.16    
     36800   2421.9433      10533.027      4207.8066     -137161.44    
     36900   2504.7974      4220.9997      4203.8215     -137162.32    
     37000   2544.1863      11417.842      4250.6364     -137158.33    
     37100   2745.1587     -790.01749      4340.9783     -137159.51    
     37200   2505.4044     -8765.1578      4433.3061     -137160.28    
     37300   2331.7697     -12444.044      4467.3534     -137160.68    
     37400   2528.9049     -5312.0513      4447.7883     -137160.84    
     37500   2743.0767     -3913.5981      4420.326      -137161.98    
     37600   2531.9063      4529.3804      4371.9705     -137157.99    
     37700   2414.6153     -1691.904       4343.8167     -137158.19    
     37800   2538.75       -8111.9386      4320.3533     -137167.57    
     37900   2420.0425      3927.1901      4305.882      -137169.69    
     38000   2350.5979     -4023.6862      4338.3022     -137163.49    
     38100   2485.5536     -3795.9012      4375.6087     -137158.41    
     38200   2496.3297      4719.1414      4409.4909     -137156.6     
     38300   2522.8087     -2477.0471      4448.0829     -137157.56    
     38400   2530.893      -14667.479      4466.9637     -137156.7     
     38500   2597.4102      4607.3457      4426.6052     -137156.28    
     38600   2589.642      -9044.3454      4410.4748     -137154.85    
     38700   2606.5561      108.9721       4373.5663     -137159.64    
     38800   2222.5282      837.97081      4343.4677     -137157.06    
     38900   2391.7586      3229.895       4293.6635     -137159.78    
     39000   2490.9376      2676.1081      4243.3557     -137157.37    
     39100   2558.5948      5387.985       4223.2756     -137159.99    
     39200   2577.9002      8919.3608      4241.0079     -137164.68    
     39300   2458.4574     -5512.0178      4317.1141     -137162.58    
     39400   2477.9183     -4295.6776      4388.1859     -137159.93    
     39500   2597.4867      2076.7804      4408.363      -137156.43    
     39600   2890.2954     -2485.8144      4410.7423     -137156.88    
     39700   2817.4248     -3290.5052      4414.0463     -137158.06    
     39800   2382.7186      6285.2636      4415.3055     -137157.56    
     39900   2419.1293     -6061.4234      4432.459      -137158.5     
     40000   2641.1073      3379.7027      4440.27       -137159.1     
     40100   2576.9695     -6143.8995      4485.5759     -137155.46    
     40200   2552.5458     -1286.1929      4525.5525     -137157.91    
     40300   2280.0184     -5708.5208      4540.9683     -137157.87    
     40400   2422.4313     -5523.9784      4507.1883     -137158.83    
     40500   2594.0255      3714.5314      4424.6557     -137157.4     
     40600   2638.0246      4092.4124      4344.4552     -137158.92    
     40700   2565.9244      3567.1147      4292.6691     -137160.26    
     40800   2404.3353      9719.6396      4286.7219     -137161.31    
     40900   2489.2062     -3811.5602      4321.6773     -137166.36    
     41000   2530.2148     -7291.6615      4349.8153     -137161.48    
     41100   2902.5349      799.45257      4345.0216     -137162.72    
     41200   2532.9696      5551.3014      4356.5904     -137160.36    
     41300   2224.8927      2999.1722      4389.2494     -137157.38    
     41400   2557.1971     -6844.3188      4435.3957     -137162.11    
     41500   2551.9952      2568.374       4470.8228     -137156.02    
     41600   2421.7652     -5657.3329      4492.863      -137150.72    
     41700   2548.9393     -3978.4284      4458.1691     -137153.95    
     41800   2407.8049     -823.54571      4388.146      -137157.49    
     41900   2387.7093      1533.1117      4300.438      -137163.23    
     42000   2369.1294      12997.729      4226.6972     -137162.27    
     42100   2490.8256      12863.844      4215.9222     -137161.78    
     42200   2473.3013      12964.762      4262.3284     -137157.97    
     42300   2522.3809      9847.5978      4388.5121     -137153.63    
     42400   2602.7315     -16374.048      4541.7085     -137154.2     
     42500   2358.8825     -16577.156      4589.396      -137152.87    
     42600   2172.8312     -4595.3511      4510.4434     -137152.46    
     42700   2463.4426      3570.9647      4371.6373     -137153.33    
     42800   2787.4898      16742          4249.2466     -137158.93    
     42900   2678.3765      5030.9299      4241.0236     -137162.76    
     43000   2487.9513     -4078.3908      4278.0367     -137163.11    
     43100   2233.1297      1626.6109      4286.8009     -137159.45    
     43200   2508.1018      5120.3089      4291.188      -137163.16    
     43300   2417.6927      11972.873      4337.68       -137152.95    
     43400   2620.4289     -3631.4645      4421.7521     -137156.72    
     43500   2462.5413     -4176.1441      4477.5145     -137153.39    
     43600   2537.2566     -1972.7906      4491.1189     -137156.02    
     43700   2374.1878     -931.07245      4470.0042     -137153.8     
     43800   2202.3529      3098.1003      4399.2947     -137156.89    
     43900   2454.4043     -6594.5855      4317.9691     -137163.06    
     44000   2644.6243      18842.825      4239.4264     -137161.13    
     44100   2534.1191      9179.9812      4260.7468     -137161.33    
     44200   2448.0087     -7596.2714      4336.9932     -137161.94    
     44300   2402.4947     -168.68167      4374.6085     -137159.11    
     44400   2536.2082     -6199.1544      4389.3855     -137160.9     
     44500   2604.197       6060.4365      4381.7322     -137159.81    
     44600   2589.1962     -8282.0798      4390.2693     -137156.89    
     44700   2423.6338      10530.95       4366.3253     -137151.76    
     44800   2432.9732     -414.14762      4380.5275     -137158.42    
     44900   2557.7789     -16568.335      4418.8211     -137164.55    
     45000   2617.4575     -6455.4797      4391.1435     -137162.38    
     45100   2652.9344      5128.5679      4336.4809     -137154.83    
     45200   2753.0553     -6628.6903      4303.266      -137159.5     
     45300   2496.0828      4293.3205      4279.1567     -137160.31    
     45400   2457.9127      7391.0764      4291.621      -137160.59    
     45500   2422.1464      4949.5905      4350.7895     -137158.4     
     45600   2427.0355     -154.35201      4428.846      -137155.45    
     45700   2630.0075      8800.1079      4490.7719     -137154.52    
     45800   2650.7339     -12693.336      4552.5286     -137154.4     
     45900   2290.7433     -13708.046      4551.4589     -137153.04    
     46000   2357.0413     -1527.3772      4467.311      -137159.64    
     46100   2603.1033      1576.1852      4354.9473     -137162.89    
     46200   2669.0827      9601.3636      4284.7216     -137160.21    
     46300   2330.3613     -7046.6907      4276.6488     -137162.11    
     46400   2412.831      -1839.9177      4252.6649     -137166.31    
     46500   2470.3337      6851.7464      4236.1295     -137161.74    
     46600   2665.698       6021.9087      4269.12       -137161.65    
     46700   2470.4822      4927.0818      4349.0215     -137159.2     
     46800   2476.7439     -10404.973      4420.278      -137162.91    
     46900   2250.1273      3067.2689      4430.5653     -137157.28    
     47000   2601.511       6227.9905      4440.8506     -137158.72    
     47100   2581.3351     -5857.8206      4471.3316     -137152.95    
     47200   2575.5052     -4135.1002      4467.8744     -137153.84    
     47300   2343.9288     -11093.288      4431.7925     -137155.29    
     47400   2485.2843     -5963.4442      4336.8546     -137161.8     
     47500   2438.1381      23362.032      4230.6586     -137158.11    
     47600   2697.9194      17418.93       4235.8574     -137156.38    
     47700   2776.9564      7397.28        4321.9556     -137158.78    
     47800   2470.841      -13120.279      4446.8279     -137160.16    
     47900   2453.3919     -9559.5223      4492.8816     -137158.68    
     48000   2556.9777     -6632.5071      4454.4916     -137156.85    
     48100   2613.7621      2828.0701      4397.4151     -137153.58    
     48200   2486.2891      6534.5448      4368.2017     -137154.69    
     48300   2312.232      -2911.9718      4355.2703     -137159.3     
     48400   2345.289       6370.9821      4342.6434     -137158.45    
     48500   2506.4731      2781.831       4354.3806     -137157.47    
     48600   2543.9807      8187.7737      4369.9361     -137155.86    
     48700   2441.2233     -9471.4352      4404.0812     -137159.29    
     48800   2281.1027     -9484.1437      4378.2132     -137161.93    
     48900   2485.8401      11662.289      4322.9819     -137163.03    
     49000   2700.71       -7296.4248      4335.395      -137164.95    
     49100   2487.5776     -3103.4933      4349.8279     -137158.96    
     49200   2497.315       3791.4905      4348.7979     -137159.26    
     49300   2518.7225     -6663.0741      4368.4802     -137161.75    
     49400   2228.693      -1253.7764      4380.1983     -137159.44    
     49500   2480.0863      1528.6384      4391.6045     -137160.86    
     49600   2505.0109      2705.8761      4400.5889     -137155.14    
     49700   2506.165       5682.4257      4389.8296     -137155.49    
     49800   2370.159      -4121.5265      4389.7024     -137157.23    
     49900   2286.2359     -59.365416      4372.4        -137160.25    
     50000   2443.2952     -6219.8939      4337.702      -137162.92    
     50100   2799.8577      6149.659       4297.9515     -137163.62    
     50200   2547.0425      6594.6246      4312.4752     -137156.95    
     50300   2556.2251     -12913.829      4375.3913     -137162.18    
     50400   2302.4119     -8269.7509      4403.084      -137159.24    
     50500   2461.9867     -3141.1688      4376.8534     -137158.29    
     50600   2763.6121      12928.273      4336.0237     -137158.45    
     50700   2583.5893     -2087.3985      4331.6539     -137158.63    
     50800   2362.0664      4238.6198      4331.564      -137158.41    
     50900   2451.2678     -4689.5485      4352.7775     -137160.16    
     51000   2591.9136     -2458.7926      4364.9625     -137158.26    
     51100   2710.4097      3856.3661      4370.6463     -137160.47    
     51200   2605.6169     -126.63222      4409.3846     -137160.5     
     51300   2384.4712     -10088.515      4463.5528     -137157.72    
     51400   2416.7987     -7497.1687      4470.2045     -137156.93    
     51500   2681.0974      2059.1442      4419.52       -137156.47    
     51600   2660.8567      1176.08        4363.7375     -137157.61    
     51700   2630.7173      291.50343      4331.8125     -137161.03    
     51800   2548.2112      2622.03        4334.88       -137159.68    
     51900   2671.0033     -3310.2251      4380.7195     -137162.61    
     52000   2356.9174     -4765.9284      4441.0023     -137156.69    
     52100   2443.692      -10514.011      4470.4965     -137157.31    
     52200   2708.0793     -10890.822      4444.4965     -137156.03    
     52300   2684.8798      2590.4505      4373.5083     -137156.81    
     52400   2600.4049      6423.071       4307.3897     -137162.91    
     52500   2586.8854     -685.37165      4280.0481     -137165.59    
     52600   2306.0776      10759.664      4271.7937     -137157.09    
     52700   2773.361      -5375.0842      4293.1289     -137164.26    
     52800   2483.9948      5895.9378      4336.0046     -137159.17    
     52900   2212.6671     -6874.0997      4394.9496     -137161.73    
     53000   2388.01       -1289.9151      4403.9049     -137163       
     53100   2495.5847     -5794.6948      4407.4932     -137159.28    
     53200   2562.6081     -1183.0605      4401.2448     -137156.64    
     53300   2484.0072      2580.2837      4398.9553     -137154.78    
     53400   2535.8515     -5909.2404      4407.8433     -137161.85    
     53500   2206.1287     -4814.2721      4370.1923     -137160.94    
     53600   2387.9779      9406.1851      4279.326      -137162.32    
     53700   2517.8334      1754.6455      4226.9956     -137162.72    
     53800   2372.2292      23060.357      4195.653      -137159.94    
     53900   2417.2245      424.02682      4253.694      -137161.41    
     54000   2662.6518     -6598.4505      4325.8186     -137163.75    
     54100   2502.7944      2463.1518      4386.3077     -137153.22    
     54200   2645.8377     -15146.3        4457.1813     -137152.68    
     54300   2441.4824     -8706.2658      4451.6352     -137152.38    
     54400   2206.8544     -11110.504      4372.1096     -137154.41    
     54500   2448.6247      8532.4197      4231.6601     -137161.57    
     54600   2654.2418      21482.727      4157.8176     -137166.53    
     54700   2557.9397      71.798309      4227.5016     -137165.72    
     54800   2387.9047     -5269.8896      4343.5094     -137160.39    
     54900   2374.7699     -4194.8589      4427.8465     -137155.05    
     55000   2408.6004      4760.6123      4453.5691     -137150.93    
     55100   2589.6991     -1086.9801      4455.9034     -137155.87    
     55200   2603.4917     -10059.681      4432.5913     -137160.24    
     55300   2582.9293     -4705.0864      4391.9506     -137162.91    
     55400   2528.7862     -10385.699      4363.33       -137164.96    
     55500   2289.0069     -10646.897      4322.1133     -137167       
     55600   2265.8537     -2555.9353      4250.3725     -137164.79    
     55700   2695.3965      18441.106      4190.0574     -137169.14    
     55800   2460.4223      9589.6484      4238.1527     -137161.67    
     55900   2500.1752      2784.7753      4360.7751     -137160.92    
     56000   2672.6574     -14041.994      4482.4511     -137157.41    
     56100   2777.8791     -10923.311      4519.6134     -137155.24    
     56200   2545.2187     -5605.1483      4496.3792     -137159.01    
     56300   2295.2649      6477.477       4440.1449     -137157.03    
     56400   2524.478       2910.1726      4414.9198     -137159.02    
     56500   2641.1199     -277.5523       4405.1107     -137158.25    
     56600   2610.3056      1876.7367      4391.4695     -137160.13    
     56700   2388.9246     -5157.1845      4373.6808     -137162.66    
     56800   2426.059       974.29232      4312.0996     -137163.86    
     56900   2606.131       10218.233      4246.0228     -137165.09    
     57000   2520.3439      8278.9517      4261.8042     -137162.65    
     57100   2560.0468      319.52446      4338.773      -137164.93    
     57200   2540.5157     -2016.0497      4420.7995     -137156.93    
     57300   2649.3512     -2677.9358      4498.0084     -137152       
     57400   2600.6373     -12559.147      4550.8463     -137155.72    
     57500   2445.7637     -7120.6852      4532.7172     -137156.46    
     57600   2548.7201     -7342.9301      4464.2994     -137159.1     
     57700   2542.7906      14806.035      4397.1284     -137154.27    
     57800   2681.122       8558.1496      4407.1271     -137154.97    
     57900   2350.8236     -5714.9192      4451.1676     -137153.74    
     58000   2389.4922     -3914.5824      4457.7778     -137157.55    
     58100   2396.318      -995.09148      4445.9074     -137154.28    
     58200   2558.2384      4879.581       4416.5603     -137152.35    
     58300   2679.5722      5943.592       4386.4711     -137149.17    
     58400   2582.0333     -2050.3684      4377.3862     -137155.39    
     58500   2484.9498     -3561.1593      4387.0515     -137158.86    
     58600   2491.2828      2346.243       4395.7887     -137158.59    
     58700   2476.0105     -283.51966      4408.318      -137157.02    
     58800   2644.9063     -10747.012      4399.1598     -137163.05    
     58900   2337.2947      149.21667      4332.4018     -137160.83    
     59000   2388.9021     -296.83704      4249.7341     -137164.22    
     59100   2626.0366      17209.761      4188.0716     -137163.22    
     59200   2832.1316      5282.832       4242.3633     -137165.2     
     59300   2369.4768      2138.1909      4358.8775     -137155.93    
     59400   2386.4569     -11426.577      4435.3916     -137155.58    
     59500   2463.2705     -149.2245       4423.127      -137155.73    
     59600   2488.2468     -5607.9926      4384.7589     -137155.57    
     59700   2451.604       7732.1315      4331.6047     -137154.91    
     59800   2553.5091      1675.6619      4307.3442     -137159.71    
     59900   2470.6918     -2100.2495      4301.6047     -137159.21    
     60000   2482.8397      5102.7901      4316.4782     -137159.77    
     60100   2503.6788      5016.2868      4356.6379     -137161.99    
     60200   2336.7354     -299.30525      4413.0971     -137158.89    
     60300   2593.8063     -6939.2246      4444.0197     -137157.13    
     60400   2749.2476     -1079.7253      4432.5105     -137155.18    
     60500   2512.1126     -4303.8792      4410.7837     -137153.89    
     60600   2522.0845      1020.0965      4355.9013     -137159.25    
     60700   2571.797       7428.5311      4308.6078     -137164.73    
     60800   2364.3827     -3023.844       4311.554      -137162.17    
     60900   2502.3527      1953.3169      4313.4097     -137160       
     61000   2756.8658      1181.4919      4342.4242     -137158.29    
     61100   2420.271      -4841.1252      4388.3794     -137155.68    
     61200   2473.9012     -7576.9587      4403.002      -137160.93    
     61300   2391.6475      3608.3249      4376.6651     -137159.59    
     61400   2613.0733     -609.1146       4335.9083     -137161.59    
     61500   2698.4624      11460.654      4293.9408     -137158.75    
     61600   2678.9857      13802.888      4340.6846     -137158.21    
     61700   2396.0316     -18890.134      4451.9994     -137159.47    
     61800   2356.5593     -12957.599      4452.4986     -137157.99    
     61900   2601.8532      797.09453      4359.7616     -137159.84    
     62000   2581.8112      7915.0528      4291.5001     -137158.36    
     62100   2654.111       4073.742       4266.3486     -137162.08    
     62200   2555.7835      14503.42       4289.3086     -137162.82    
     62300   2345.2242     -307.17937      4382.8383     -137158.7     
     62400   2479.4099     -9350.5057      4455.8508     -137158.18    
     62500   2645.9256     -14398.771      4481.1756     -137155.63    
     62600   2528.3885     -3706.0319      4454.4613     -137152.12    
     62700   2647.7189      2853.7486      4390.0176     -137158.71    
     62800   2342.9907      7453.8427      4348.0589     -137154.5     
     62900   2482.0253      4500.3602      4334.2685     -137159.14    
     63000   2503.2791      1853.2061      4349.9977     -137159.74    
     63100   2450.5152     -3182.8862      4380.8107     -137160.61    
     63200   2153.6418     -14025.039      4387.7495     -137161.16    
     63300   2240.0961     -908.25275      4318.5797     -137162.73    
     63400   2582.0552      10122.058      4254.7925     -137163.72    
     63500   2616.3864      6999.5647      4278.8811     -137161.45    
     63600   2412.9926      3370.4493      4369.9074     -137157.82    
     63700   2409.8735     -9255.5233      4480.2529     -137157.21    
     63800   2507.7941     -9063.8341      4529.1558     -137149.04    
     63900   2862.6396     -1275.8534      4496.8331     -137155.75    
     64000   2649.6761     -3405.6644      4473.0067     -137157.53    
     64100   2414.0329      443.96423      4439.8963     -137156.37    
     64200   2593.8316     -4585.2464      4387.2739     -137163.15    
     64300   2630.027      -3643.6863      4334.4169     -137163.99    
     64400   2667.1547      8301.4977      4281.2917     -137159.71    
     64500   2621.4976      2493.8588      4258.9047     -137158.42    
     64600   2453.5366      2324.5387      4258.2185     -137162.99    
     64700   2427.8369      4979.5326      4269.9239     -137163.52    
     64800   2519.9861     -6175.0973      4312.0319     -137162.46    
     64900   2695.2028     -2321.8477      4361.5278     -137160.63    
     65000   2705.9713      365.60843      4415.9648     -137159.28    
     65100   2245.8997      2828.6886      4497.2691     -137156.32    
     65200   2307.9504     -19232.865      4564.5931     -137158.01    
     65300   2438.6674      7141.8443      4515.6742     -137153.92    
     65400   2707.2589     -5857.5512      4456.5453     -137157.04    
     65500   2589.013       5749.6558      4384.5715     -137160.6     
     65600   2579.9078      24.690226      4333.3515     -137165.39    
     65700   2413.5165      8401.0881      4283.8098     -137164.4     
     65800   2488.1435      468.20857      4286.287      -137167.69    
     65900   2440.9066      8426.3344      4334.3163     -137158.04    
     66000   2480.2871     -8934.2839      4411.6278     -137153       
     66100   2564.0027     -3590.5959      4431.2811     -137156.2     
     66200   2484.7428     -6293.4773      4429.9239     -137157.78    
     66300   2348.5152      1889.1599      4414.666      -137155.93    
     66400   2641.7816      5610.2157      4400.8689     -137157.96    
     66500   2622.0836      5036.9428      4413.3042     -137155.25    
     66600   2550.5026     -18584.88       4444.0137     -137162.54    
     66700   2423.1429     -3852.8605      4408.9472     -137161.5     
     66800   2371.4697      6979.2283      4358.2815     -137155.71    
     66900   2523.0518      11887.574      4345.0362     -137157.16    
     67000   2487.0747     -5417.6224      4360.1643     -137159.61    
     67100   2218.5035     -5941.2799      4325.5909     -137163.45    
     67200   2323.907      -390.49383      4255.419      -137165.98    
     67300   2594.9944      11705.219      4197.4266     -137168.19    
     67400   2454.5946      18094.56       4214.0714     -137162.92    
     67500   2436.2942     -6413.1341      4325.5977     -137160.71    
     67600   2656.4767     -16622.368      4405.9154     -137155.72    
     67700   2720.9922      3349.8588      4421.1145     -137154.05    
     67800   2522.3249      1350.6136      4450.7281     -137152.36    
     67900   2402.3228     -4822.1795      4469.8366     -137154.18    
     68000   2519.4668     -7765.787       4453.1978     -137159.51    
     68100   2472.5508      3042.483       4420.9791     -137157.36    
     68200   2832.2721     -4416.4501      4387.9682     -137156.91    
     68300   2831.0403     -4541.696       4352.1712     -137157.71    
     68400   2565.2214     -8223.2186      4314.1515     -137160.09    
     68500   2503.9474      10094.096      4256.485      -137161.33    
     68600   2544.1346     -429.66367      4242.7839     -137165.11    
     68700   2346.9319      6307.4572      4251.3418     -137164.15    
     68800   2357.5449     -5053.6374      4279.877      -137164.84    
     68900   2541.7385     -3116.9751      4298.5527     -137160.26    
     69000   2822.4113     -7934.6088      4315.2606     -137166       
     69100   2499.9012      7268.516       4339.8376     -137161.52    
     69200   2387.6296     -8149.3108      4392.2512     -137162.69    
     69300   2467.5491     -7986.4178      4408.7435     -137164.09    
     69400   2523.6973      8397.6768      4403.6881     -137155.65    
     69500   2637.8944      6718.13        4428.4373     -137156.89    
     69600   2378.0069     -697.20397      4472.8913     -137154.23    
     69700   2255.3949     -7345.1738      4491.4997     -137153.9     
     69800   2547.5106      1245.6072      4449.1058     -137155.05    
     69900   2681.4558      7750.2192      4398.893      -137153.69    
     70000   2541.3387     -3681.3511      4401.0087     -137156.01    
     70100   2428.2487     -1181.0939      4407.4616     -137157.81    
     70200   2564.4235     -3665.212       4400.0948     -137161.37    
     70300   2438.7574      3030.1609      4389.88       -137156.37    
     70400   2633.318       8053.2442      4397.8684     -137154.92    
     70500   2704.2547      6732.6538      4444.1943     -137154.28    
     70600   2346.7418     -9112.0232      4536.1773     -137152.51    
     70700   2290.4255     -7954.7352      4573.9302     -137153.93    
     70800   2373.3306     -11570.138      4537.8293     -137151.69    
     70900   2639.4703     -5449.4341      4401.9629     -137157.26    
     71000   2567.7758      24850.039      4259.5888     -137156.98    
     71100   2520.8182      8557.3754      4243.6118     -137163.17    
     71200   2525.9329     -4033.5849      4294.8259     -137165.46    
     71300   2385.1968     -2612.073       4355.3372     -137159.88    
     71400   2632.6131     -7122.3266      4403.3387     -137160.64    
     71500   2577.6997     -3908.6698      4410.2974     -137156.86    
     71600   2394.8467     -3841.7922      4390.0107     -137163       
     71700   2298.2595     -2898.0936      4339.2533     -137164.17    
     71800   2576.4374      6900.5183      4263.9683     -137165.18    
     71900   2567.797       13166.903      4226.1623     -137160.55    
     72000   2606.7855      2536.5632      4260.821      -137160.27    
     72100   2552.5591     -10041.602      4320.7739     -137162.27    
     72200   2314.635      -5408.6295      4344.9945     -137162.33    
     72300   2292.99        7865.5365      4309.0732     -137160.45    
     72400   2681.2081      9011.8385      4270.7057     -137162.12    
     72500   2607.3561      6081.6393      4282.0703     -137161.15    
     72600   2500.8451     -4536.8996      4352.8181     -137161.48    
     72700   2530.5801     -9583.6233      4416.5379     -137162.16    
     72800   2533.241      -4977.1951      4437.5622     -137157.82    
     72900   2591.7172      5058.11        4436.7873     -137154       
     73000   2695.3623     -2749.3461      4430.9734     -137157.97    
     73100   2500.8831      2603.3819      4393.6546     -137157.24    
     73200   2337.2687     -2188.1874      4368.1873     -137156.29    
     73300   2509.1473     -1660.0398      4328.9051     -137161.62    
     73400   2475.2957      13573.609      4265.021      -137160.45    
     73500   2458.0511      8311.9396      4260.3527     -137162.4     
     73600   2350.5381      4706.0235      4301.6829     -137162.14    
     73700   2476.4036     -9654.4267      4362.2096     -137162.19    
     73800   2648.1671     -5613.0933      4381.2164     -137159.29    
     73900   2556.6511      1291.1176      4383.3368     -137154.19    
     74000   2581.0946     -3332.6089      4410.6585     -137156.09    
     74100   2346.5434     -17029.444      4433.9382     -137159.46    
     74200   2322.4432     -3944.8493      4353.018      -137162.88    
     74300   2641.6774      5390.7108      4256.6898     -137166.43    
     74400   2689.4188      3347.7659      4245.0115     -137164.72    
     74500   2538.2753     -6569.1842      4286.4592     -137162.39    
     74600   2459.3139      7203.2979      4337.9745     -137162.11    
     74700   2188.5576      847.11324      4407.1034     -137159.77    
     74800   2294.3495      3487.6434      4453.51       -137158.57    
     74900   2491.6078     -6707.2978      4485.2636     -137155.29    
     75000   2604.317      -4551.6103      4470.0372     -137156.53    
     75100   2587.37       -633.18326      4417.9038     -137158.8     
     75200   2417.3667      738.04233      4344.5058     -137161.29    
     75300   2486.5975     -2258.8685      4276.1432     -137165.16    
     75400   2510.6403      11153.426      4213.6439     -137161.08    
     75500   2784.0119      14444.837      4216.297      -137159.89    
     75600   2538.2303     -1139.5644      4315.7071     -137159.69    
     75700   2297.3036     -7976.1785      4427.5747     -137155.94    
     75800   2427.5257     -10756.445      4462.8763     -137156.32    
     75900   2534.1109      2906.4209      4442.026      -137156       
     76000   2514.5385     -2859.0548      4437.9571     -137157.14    
     76100   2441.0113     -5771.8859      4404.901      -137158.33    
     76200   2430.0146      9338.072       4353.9473     -137158.01    
     76300   2616.7833      9641.2174      4338.0339     -137155.18    
     76400   2630.14        5482.0103      4379.0537     -137150.52    
     76500   2437.745      -9160.2648      4429.8281     -137152.08    
     76600   2451.2805     -3742.0243      4405.2208     -137157.79    
     76700   2600.8181     -4272.2036      4350.4674     -137164.37    
     76800   2429.9937      4151.0025      4302.1394     -137162.23    
     76900   2529.862      -1379.3119      4286.0539     -137165.14    
     77000   2546.3437      2293.125       4293.3746     -137161.18    
     77100   2704.1626     -1071.2434      4335.2116     -137159.94    
     77200   2511.5626      2147.1388      4377.3547     -137155.93    
     77300   2393.3035     -5092.3186      4404.1702     -137158.23    
     77400   2366.9536     -5777.4534      4395.9429     -137160.47    
     77500   2527.7097      913.94933      4372.983      -137161.81    
     77600   2746.3288     -4015.055       4370.1225     -137159.88    
     77700   2512.1598     -86.477914      4374.0733     -137156.74    
     77800   2350.4556     -3901.6892      4383.1778     -137158.82    
     77900   2340.2742      1226.088       4371.0834     -137157.71    
     78000   2381.0997     -229.92864      4359.7434     -137156       
     78100   2551.8023      5445.6324      4353.174      -137159.44    
     78200   2522.5222     -3965.709       4366.4335     -137158.35    
     78300   2453.2361      929.23625      4383.7367     -137158.79    
     78400   2325.7769     -5971.7859      4411.0493     -137160.09    
     78500   2405.8168     -3757.6312      4420.3869     -137161.41    
     78600   2553.9177     -8422.5025      4422.5394     -137155.91    
     78700   2516.9411      9774.4865      4393.1334     -137153.07    
     78800   2465.5587      3217.0474      4395.6925     -137158.06    
     78900   2373.868      -7755.328       4416.707      -137157.19    
     79000   2505.0713      2184.3111      4387.1415     -137158.12    
     79100   2724.6379      1190.492       4350.3808     -137159.26    
     79200   2791.721       14191.822      4323.5411     -137156.12    
     79300   2588.2939     -10851.534      4353.3949     -137159.62    
     79400   2424.9373     -102.94015      4364.1041     -137160.15    
     79500   2444.0459      2606.4762      4355.922      -137161.94    
     79600   2420.4785      558.54092      4362.4554     -137157.6     
     79700   2561.9693      7564.7394      4378.1399     -137152.83    
     79800   2526.2385     -1579.6175      4402.6427     -137155.55    
     79900   2461.6348     -966.13846      4402.5599     -137157.82    
     80000   2429.9972      2622.453       4366.6713     -137157.32    
     80100   2674.0164     -7715.7255      4333.2773     -137163.31    
     80200   2434.8913      13564.845      4297.2806     -137160.38    
     80300   2292.6344      448.26895      4320.2255     -137164.3     
     80400   2175.1171      987.86323      4358.1599     -137159.41    
     80500   2468.8937     -9977.6801      4381.5355     -137158.6     
     80600   2458.5429      3776.4786      4358.475      -137155.96    
     80700   2606.9429      9720.1999      4327.8241     -137160.72    
     80800   2391.5981     -2408.9661      4335.7833     -137160.48    
     80900   2347.5732      1657.574       4354.179      -137160.23    
     81000   2556.8952      3234.4772      4386.7422     -137155.94    
     81100   2584.1905     -5685.9568      4422.337      -137155.59    
     81200   2375.6598     -3634.0621      4434.5411     -137153       
     81300   2397.8158     -1541.7203      4421.2041     -137154.06    
     81400   2473.3047     -5437.0477      4385.7224     -137155.08    
     81500   2575.4026      17867.808      4330          -137158.05    
     81600   2595.94       -2801.3889      4324.8594     -137162.33    
     81700   2419.3748      1467.5995      4325.693      -137159.95    
     81800   2431.3142      3360.9474      4334.1865     -137160.09    
     81900   2510.6791     -2754.9679      4348.8882     -137159.54    
     82000   2671.0015      1796.6575      4369.2167     -137156.75    
     82100   2635.3476      6497.7692      4413.4531     -137158.12    
     82200   2326.8447     -5283.3402      4470.6519     -137158.29    
     82300   2378.8005     -5132.0176      4477.5448     -137157.58    
     82400   2696.8755     -4294.0853      4433.3427     -137161.2     
     82500   2669.677      -305.3369       4363.6786     -137161.02    
     82600   2525.932      -1018.5174      4282.7009     -137163.32    
     82700   2474.2858      7887.2227      4219.1027     -137162.84    
     82800   2486.6865      11990.569      4218.9471     -137163.68    
     82900   2401.1385     -3971.629       4295.6908     -137161.49    
     83000   2546.2914     -4854.5899      4347.8301     -137160.99    
     83100   2618.6833      8886.9392      4360.2321     -137154.16    
     83200   2663.0599      2096.9481      4386.1078     -137156.08    
     83300   2457.2514     -4616.1785      4412.1706     -137159.55    
     83400   2534.5407     -9333.1723      4398.5391     -137163.03    
     83500   2590.1346      10608.82       4333.2424     -137163.82    
     83600   2481.8231      6190.106       4314.6263     -137161.5     
     83700   2385.9525     -749.4006       4318.3739     -137162.02    
     83800   2480.6477     -8548.1374      4303.6931     -137166.24    
     83900   2420.5112      5429.9702      4250.0262     -137159.74    
     84000   2760.4521      13657.1        4204.4101     -137163.09    
     84100   2527.4928      6133.6452      4233.5269     -137160.97    
     84200   2238.4057     -5733.8422      4324.4614     -137160.18    
     84300   2498.9958     -17061.308      4401.6656     -137163.26    
     84400   2695.8795     -838.46685      4397.9051     -137156.32    
     84500   2630.5909     -2145.3115      4374.2097     -137157.03    
     84600   2388.581       7403.8166      4326.9839     -137155.63    
     84700   2527.1412      4123.3287      4284.264      -137164.11    
     84800   2423.3968      2406.3204      4262.8425     -137165.17    
     84900   2319.3394      4649.5434      4254.6607     -137161.79    
     85000   2570.3711      8547.6452      4257.7257     -137158.6     
     85100   2668.0487      4190.003       4310.5849     -137159.05    
     85200   2296.0806     -11480.963      4408.9548     -137154.35    
     85300   2301.7571     -7933.0198      4445.4995     -137155.87    
     85400   2582.7738      9653.7388      4395.8854     -137154.17    
     85500   2779.4477      6904.5642      4370.1347     -137157.18    
     85600   2510.2368     -3930.0663      4399.7765     -137156.29    
     85700   2532.9875     -3195.0134      4400.4399     -137160.94    
     85800   2506.9475     -2155.2203      4380.1799     -137161.07    
     85900   2573.526      -6444.7158      4349.0119     -137163.79    
     86000   2561.9974      5542.8971      4317.0548     -137164.34    
     86100   2437.0158      6655.5327      4332.8391     -137160.36    
     86200   2547.7725     -4790.1231      4385.2586     -137157.61    
     86300   2552.0951     -5301.4536      4427.3034     -137156.68    
     86400   2360.8541     -8692.4282      4430.6341     -137156.97    
     86500   2394.82       -6997.2502      4370.9802     -137163.01    
     86600   2397.7029      2752.8682      4280.7117     -137164.23    
     86700   2582.4516      14708.915      4220.6575     -137162.34    
     86800   2727.8675      6038.4704      4238.4504     -137163.57    
     86900   2404.5647     -4065.9066      4288.6863     -137162.23    
     87000   2293.5181     -7985.0539      4310.2672     -137160.75    
     87100   2457.1486      19564.148      4295.1588     -137162.11    
     87200   2425.9916      5159.1275      4351.8005     -137160.2     
     87300   2425.278      -6376.4037      4430.489      -137158.43    
     87400   2550.9008     -1555.7719      4471.0918     -137158.03    
     87500   2670.1813     -2853.6649      4504.638      -137151.2     
     87600   2675.6083     -638.81045      4500.0127     -137154.27    
     87700   2451.1614     -1681.317       4454.7008     -137154.39    
     87800   2697.7165     -4543.0089      4390.082      -137161.85    
     87900   2573.3948      591.72639      4354.1788     -137159.72    
     88000   2359.371       1241.5084      4358.7232     -137160.8     
     88100   2272.9473     -3351.0088      4378.3166     -137164.22    
     88200   2381.4769      3317.4753      4395.8511     -137160.79    
     88300   2505.7841     -8520.927       4411.7847     -137159.86    
     88400   2569.8867     -1953.3505      4387.3996     -137159.12    
     88500   2587.9624      6542.8077      4352.8399     -137161.47    
     88600   2292.125      -5085.0422      4344.3325     -137159.22    
     88700   2376.1736     -1957.3425      4307.0343     -137164.62    
     88800   2525.8849      7037.0796      4279.6317     -137159.77    
     88900   2671.9409      1222.88        4297.0055     -137158.7     
     89000   2605.7186     -3694.6556      4350.2473     -137160.87    
     89100   2395.2407     -7702.6968      4406.3465     -137158.32    
     89200   2517.3128     -11991.919      4407.552      -137158.26    
     89300   2937.3252     -673.02543      4339.2971     -137158.62    
     89400   2735.1597      15322.906      4278.7347     -137158.85    
     89500   2367.9024      9897.0105      4312.6695     -137156.78    
     89600   2365.451      -8798.4795      4413.7036     -137159.12    
     89700   2526.9746     -8997.0481      4471.7355     -137160.44    
     89800   2548.9641     -2438.2364      4470.5152     -137154.87    
     89900   2694.8371      1110.0921      4450.9454     -137153.04    
     90000   2560.0881      3704.4103      4420.786      -137156.08    
     90100   2392.826      -4401.2197      4385.4058     -137159.49    
     90200   2555.1725     -8610.205       4313.0104     -137162.73    
     90300   2597.3103      10642.663      4212.2251     -137163.93    
     90400   2457.7883      2153.048       4159.5513     -137168.24    
     90500   2438.7754      7657.5082      4156.3208     -137169.61    
     90600   2325.1099      6144.6637      4203.8956     -137164.46    
     90700   2315.9998      3336.2971      4279.8807     -137159.17    
     90800   2469.0766      3008.2469      4358.1553     -137161.18    
     90900   2439.1179     -10053.218      4442.819      -137156.51    
     91000   2569.3899     -7635.6492      4484.3876     -137153.66    
     91100   2687.3792     -2963.6167      4478.1347     -137156.5     
     91200   2514.7963     -6316.3037      4452.5469     -137161.95    
     91300   2308.4847     -5284.3765      4397.7487     -137160.68    
     91400   2387.481       13429.875      4327.3136     -137156.85    
     91500   2715.2469      199.84242      4318.5639     -137163.06    
     91600   2304.3436      5318.6693      4346.5073     -137156.88    
     91700   2430.3841     -6098.6675      4380.8501     -137161.03    
     91800   2619.8053      10394.809      4374.8281     -137157.38    
     91900   2657.2857      4778.9125      4409.738      -137154.41    
     92000   2383.4257     -10044.365      4469.8601     -137153.42    
     92100   2314.9699     -11772.278      4454.9249     -137153.88    
     92200   2621.4116      1920.5737      4354.9754     -137159.86    
     92300   2541.37        19762.187      4262.1692     -137161.78    
     92400   2558.4019      7466.5228      4266.531      -137167.11    
     92500   2278.4558      4057.589       4315.1321     -137160.76    
     92600   2396.724      -1263.232       4377.0201     -137158.75    
     92700   2614.1384      1249.4286      4433.097      -137158.91    
     92800   2602.4027     -8845.4032      4483.5681     -137159.29    
     92900   2492.3095     -17827.807      4478.3767     -137158.66    
     93000   2494.2243      857.74427      4394.2457     -137157.79    
     93100   2861.7614      12398.202      4334.9556     -137157.67    
     93200   2777.7591     -3282.3765      4360.1245     -137160.17    
     93300   2376.8059     -4124.0441      4385.5393     -137157.23    
     93400   2469.718       1.1614024      4358.7945     -137160.75    
     93500   2409.1703      10498.494      4329.5856     -137157.06    
     93600   2706.8668      9962.6062      4357.6441     -137161.31    
     93700   2649.7396     -3182.9247      4439.3282     -137156.42    
     93800   2470.732      -8393.2741      4484.3424     -137154.55    
     93900   2378.0486     -11394.484      4473.4924     -137157.39    
     94000   2293.61        5838.3083      4390.2441     -137153.97    
     94100   2871.7398     -779.47156      4305.8148     -137160.42    
     94200   2659.136       14237.795      4253.8955     -137159.8     
     94300   2589.4433     -2963.4842      4260.4006     -137163.59    
     94400   2395.4165     -4168.7351      4265.2441     -137162.02    
     94500   2435.5596      7271.5472      4248.8839     -137163.33    
     94600   2460.9383      11186.971      4260.3052     -137158.5     
     94700   2797.8236      6056.2906      4315.7849     -137160.82    
     94800   2491.4121      2306.9923      4416.917      -137156.8     
     94900   2273.2686     -14874.073      4524.1597     -137156.33    
     95000   2378.6666     -7775.1769      4512.2602     -137156.54    
     95100   2663.4634      1988.5748      4425.0645     -137160.9     
     95200   2448.6706      13219.394      4378.5701     -137155.23    
     95300   2437.7898     -2659.6686      4384.6284     -137158.26    
     95400   2514.6219     -6080.0229      4377.9798     -137166.71    
     95500   2312.3557      322.5847       4348.6177     -137165.92    
     95600   2547.2925     -2176.4613      4321.1286     -137165.54    
     95700   2568.5884      7842.937       4320.096      -137159.28    
     95800   2503.869       5698.8451      4375.1484     -137158.84    
     95900   2408.36       -2299.7754      4433.2491     -137158.81    
     96000   2409.8705     -12102.205      4439.187      -137157.89    
     96100   2630.0854      10541.188      4382.3669     -137155.27    
     96200   2587.9339      5525.1887      4370.7852     -137153.96    
     96300   2497.6528     -1892.9024      4388.3487     -137160.71    
     96400   2329.6454     -1113.657       4391.4931     -137158.16    
     96500   2533.8825      6102.7414      4374.4662     -137158.75    
     96600   2716.2613      1443.3917      4386.1614     -137158.43    
     96700   2508.9677     -8152.1198      4397.6879     -137155.91    
     96800   2417.9764      3219.2357      4352.0688     -137159.52    
     96900   2462.7088     -3364.3687      4307.495      -137162.7     
     97000   2406.2797      7765.7771      4268.3799     -137161.02    
     97100   2518.9881     -1385.8634      4250.8991     -137161.94    
     97200   2510.3595      7602.3781      4243.6376     -137162.01    
     97300   2316.6762      1379.691       4249.5619     -137161.75    
     97400   2319.4295      9036.124       4252.0634     -137161.5     
     97500   2675.5921      5997.6736      4299.1521     -137161.26    
     97600   2634.6646     -4697.1157      4400.5737     -137158.85    
     97700   2525.9914     -16338.71       4491.0782     -137159.16    
     97800   2331.9326     -6471.6104      4504.0952     -137155.28    
     97900   2585.1248      3591.2641      4455.4052     -137152.94    
     98000   2728.8466      1115.3925      4420.8206     -137157.26    
     98100   2497.1332     -15145.42       4414.8976     -137159.36    
     98200   2486.2416      6844.8937      4367.2156     -137160.93    
     98300   2425.7551      1570.6448      4342.9533     -137157.99    
     98400   2642.6427      3091.3406      4328.3882     -137158.45    
     98500   2744.6132      405.45155      4360.4942     -137158       
     98600   2522.0122     -4849.3427      4433.072      -137159.26    
     98700   2270.1852     -11839.239      4483.3534     -137155.07    
     98800   2669.9781     -6351.3157      4436.709      -137160.18    
     98900   2563.2996      9931.1097      4368.9722     -137156.49    
     99000   2692.5646      3906.53        4379.7367     -137163.13    
     99100   2317.8476      1324.9315      4437.1562     -137156.85    
     99200   2496.4766     -23489.523      4467.9234     -137158.7     
     99300   2399.4837      7483.9629      4401.0014     -137151.54    
     99400   2687.9873      1066.6043      4367.056      -137157.77    
     99500   2513.5197     -4951.3979      4346.6941     -137159.25    
     99600   2356.9629     -4637.8755      4293.6701     -137164.86    
     99700   2502.0915      7506.1126      4218.8421     -137166.55    
     99800   2604.7713      12572.954      4194.9702     -137166.6     
     99900   2326.3346      5360.9945      4246.2409     -137159.88    
    100000   2498.1226     -937.11133      4309.1137     -137161.25    
    100100   2603.7266      401.89734      4355.1535     -137157.46    
    100200   2486.0336     -4052.0753      4394.8564     -137154.32    
    100300   2396.263      -7233.7654      4405.7292     -137158.88    
    100400   2262.0996      568.99927      4363.9627     -137161.49    
    100500   2469.6318      6911.1075      4311.8118     -137163.77    
    100600   2544.0098     -1248.3848      4300.6951     -137161.48    
    100700   2497.7941      12447.08       4306.8386     -137159.95    
    100800   2410.2915      1616.9236      4370.968      -137157.7     
    100900   2399.0253      1288.2791      4438.869      -137153.34    
    101000   2768.5653     -3084.26        4490.3494     -137154.39    
    101100   2612.7358     -1467.7176      4515.9681     -137153.69    
    101200   2577.0181     -2268.1853      4517.4034     -137158.15    
    101300   2366.6382     -2106.9743      4496.2555     -137155.59    
    101400   2551.5565      10397.23       4466.8548     -137158.13    
    101500   2470.0645     -582.72636      4471.6057     -137148.76    
    101600   2864.2273      721.06032      4466.9037     -137153.02    
    101700   2520.9952     -6341.9901      4472.2148     -137154.81    
    101800   2441.763      -2249.0663      4444.846      -137155.85    
    101900   2437.6178     -1072.239       4398.7216     -137154.8     
    102000   2650.417       2885.6887      4360.5393     -137159.46    
    102100   2395.8934      5658.2702      4343.1539     -137158.18    
    102200   2249.6073      1607.4208      4341.9078     -137159.99    
    102300   2418.502      -10650.39       4344.3802     -137160.12    
    102400   2625.0693      9477.7184      4315.2569     -137158.07    
    102500   2527.7675      222.14724      4319.8795     -137157.61    
    102600   2338.2413      3516.8927      4341.2305     -137155.71    
    102700   2439.1993     -2685.659       4371.3318     -137157.99    
    102800   2550.8342     -5258.707       4379.1657     -137156.48    
    102900   2722.8625      4373.2385      4361.3822     -137155.56    
    103000   2629.0922     -1063.6522      4369.8186     -137159.95    
    103100   2364.5589     -13834.23       4400.2931     -137158.5     
    103200   2312.5828     -7745.364       4352.4331     -137155.07    
    103300   2644.2407      14498.662      4249.2569     -137158.92    
    103400   2583.0952      10806.775      4219.3498     -137161.62    
    103500   2356.5029      5484.5222      4264.5646     -137163.3     
    103600   2345.867      -7014.1625      4336.1905     -137160.71    
    103700   2508.5238     -3157.1331      4377.6464     -137158.16    
    103800   2429.2951      2527.8259      4394.5215     -137152.31    
    103900   2516.7388      11496.234      4408.8479     -137153.95    
    104000   2447.2513     -18474.918      4464.7386     -137159.23    
    104100   2269.613      -5996.1294      4444.7572     -137158.82    
    104200   2472.2404      1522.4985      4361.8717     -137158.7     
    104300   2654.6042      6414.2988      4256.9605     -137161.01    
    104400   2618.0203      16460.428      4176.9244     -137162.86    
    104500   2598.51        8008.2698      4207.3028     -137167.06    
    104600   2337.467       206.12596      4314.8002     -137162.31    
    104700   2334.2873     -13334.252      4417.8075     -137158.14    
    104800   2470.1544      3056.6324      4448.8564     -137154.61    
    104900   2595.6068     -9687.4358      4464.4812     -137157.24    
    105000   2556.3406      70.099665      4437.9615     -137159.09    
    105100   2535.6475     -3644.1269      4420.3267     -137164.8     
    105200   2228.5456     -813.88978      4382.0477     -137161.52    
    105300   2653.2513      2497.798       4324.4803     -137163.55    
    105400   2807.4471      3047.147       4299.0063     -137163.72    
    105500   2357.0827      2997.1015      4319.35       -137158.34    
    105600   2347.3635      820.24714      4342.8163     -137160.25    
    105700   2534.6449      2950.2479      4356.9708     -137158.4     
    105800   2671.6712     -1850.5332      4384.8988     -137160.35    
    105900   2512.1983     -2640.9193      4418.0106     -137160.3     
    106000   2361.2256     -3454.8886      4444.7945     -137157.11    
    106100   2589.3459     -8513.3522      4435.9238     -137157.72    
    106200   2769.5706     -191.61918      4365.6204     -137159.19    
    106300   2404.4416      10931.187      4293.9123     -137161.89    
    106400   2373.3943      4810.5237      4283.0324     -137162.01    
    106500   2405.2615      2391.4141      4314.0872     -137158.46    
    106600   2601.7772     -5119.1407      4358.6671     -137157.04    
    106700   2765.5475     -4969.4851      4402.2737     -137160.15    
    106800   2397.778      -1835.9397      4432.9687     -137157.68    
    106900   2317.3407      2916.3212      4448.4316     -137156.11    
    107000   2587.3074     -8747.2506      4454.8526     -137160.66    
    107100   2495.0955     -3859.5338      4397.6175     -137155.3     
    107200   2737.3025      13232.377      4318.4113     -137155.73    
    107300   2669.7546      4193.7271      4301.6402     -137158.28    
    107400   2466.5971      7607.9616      4307.1661     -137163.07    
    107500   2343.2808      783.2507       4344.8363     -137161.2     
    107600   2640.6907     -5344.1157      4402.2343     -137163.01    
    107700   2540.6895      6552.5852      4443.1341     -137158.14    
    107800   2394.5002     -11293.923      4482.7433     -137154.49    
    107900   2770.655       3339.346       4471.4683     -137155.92    
    108000   2572.3698      6770.0109      4498.2184     -137151.1     
    108100   2470.5294     -18423.643      4565.5786     -137155.37    
    108200   2424.8096     -5991.7837      4558.4876     -137154.97    
    108300   2547.0772      295.25852      4499.4889     -137157.36    
    108400   2563.3153      2243.6602      4428.0532     -137159.89    
    108500   2292.2013     -5451.3605      4358.4617     -137163.4     
    108600   2372.4524      3845.3799      4265.8837     -137164.31    
    108700   2533.6158      9329.7567      4203.9404     -137164.32    
    108800   2412.1626      11185.249      4216.3257     -137161.99    
    108900   2375.887       3338.6444      4286.8741     -137162.13    
    109000   2591.8207      4399.4373      4374.667      -137158.35    
    109100   2591.5207     -10184.588      4471.2981     -137153.44    
    109200   2609.153      -14149.162      4473.8293     -137157.45    
    109300   2299.5048      1654.4484      4380.0393     -137156.83    
    109400   2517.2176      3926.9568      4275.1122     -137162.56    
    109500   2575.0243      6877.6118      4208.1734     -137162.02    
    109600   2336.7499      16756.258      4194.413      -137159.01    
    109700   2204.0819     -5321.8276      4239.0104     -137166.86    
    109800   2299.7357     -14315.196      4252.8683     -137169.11    
    109900   2547.3903      7715.0567      4223.1132     -137169.01    
    110000   2500.1832      3591.8383      4243.0333     -137163.44    
    110100   2609.2244     -11249.035      4296.6525     -137163.91    
    110200   2359.9282      5572.3457      4316.6675     -137156.43    
    110300   2459.9302     -3214.5029      4330.7006     -137158.05    
    110400   2610.1696     -6087.1498      4329.8889     -137157.2     
    110500   2681.4667      9472.2884      4310.659      -137160.45    
    110600   2356.3205      2507.0106      4341.515      -137159.84    
    110700   2426.5539     -2016.7753      4382.4564     -137163.44    
    110800   2319.2807      5720.7758      4416.1263     -137156.26    
    110900   2662.3366     -16948.31       4434.1352     -137161.59    
    111000   2548.3379      2394.6745      4368.203      -137158.37    
    111100   2546.551       8303.2771      4307.0466     -137158.38    
    111200   2393.6376      3024.7181      4278.7404     -137162.14    
    111300   2278.6124     -2095.9808      4255.8853     -137162.54    
    111400   2574.9708      10452.943      4222.8035     -137166.02    
    111500   2538.5049      10117.554      4260.288      -137163.52    
    111600   2363.7382     -3430.3337      4370.616      -137158.37    
    111700   2430.3456     -1931.6976      4456.6454     -137155.91    
    111800   2681.6484     -2019.2987      4515.6275     -137152.84    
    111900   2580.0756     -12591.46       4536.4778     -137150.92    
    112000   2487.8657     -8338.8694      4461.2806     -137154.21    
    112100   2439.3661      252.57874      4320.3264     -137158.49    
    112200   2605.5799      11935.446      4227.435      -137164.94    
    112300   2437.4411      4493.6671      4241.9294     -137165.13    
    112400   2094.7365      789.281        4291.7159     -137163.48    
    112500   2378.925       1852.5349      4344.3446     -137164.78    
    112600   2442.2489     -5759.5282      4417.1747     -137159.56    
    112700   2740.9242     -14033.599      4468.5475     -137163.12    
    112800   2441.2705     -2111.8521      4483.344      -137151.84    
    112900   2642.7154     -1546.2551      4466.7563     -137154.8     
    113000   2439.468      -8817.7659      4426.6399     -137156.77    
    113100   2341.6014      529.93184      4343.6894     -137160.37    
    113200   2447.8721      8079.4321      4279.5992     -137161.42    
    113300   2455.0632      7457.674       4271.1874     -137160.38    
    113400   2629.9439     -773.83518      4313.4103     -137158.83    
    113500   2812.0688      5672.0859      4370.2749     -137155.01    
    113600   2552.3103     -8224.6384      4433.9902     -137153.96    
    113700   2618.4177     -7686.2454      4454.1539     -137159.79    
    113800   2511.7549     -883.36122      4431.2515     -137160.12    
    113900   2532.5107     -8005.6982      4386.2731     -137162.23    
    114000   2454.7316      7988.4008      4317.7871     -137159.88    
    114100   2545.8939      4465.4558      4300.2581     -137158.07    
    114200   2688.453      -867.16664      4328.0937     -137158.25    
    114300   2478.9922     -1362.4706      4368.2951     -137156.96    
    114400   2450.928      -3620.9646      4396.1992     -137161.6     
    114500   2424.6701     -7331.8157      4389.0213     -137164.48    
    114600   2328.5114      1992.6835      4336.2244     -137162.63    
    114700   2590.7672      11763.716      4298.0451     -137160.74    
    114800   2538.5961     -2265.0024      4331.1936     -137158.65    
    114900   2318.8445     -2167.1835      4372.6102     -137157.78    
    115000   2551.8274     -7112.3311      4394.0435     -137162.34    
    115100   2685.8899     -3655.4357      4371.3273     -137156.4     
    115200   2639.304       5406.3938      4347.6553     -137156.22    
    115300   2563.0757     -581.81148      4360.5343     -137159.19    
    115400   2582.2111     -8021.8914      4374.5416     -137162.96    
    115500   2363.4349     -2614.9357      4381.351      -137157.93    
    115600   2590.4733      1488.1293      4358.3072     -137158.57    
    115700   2878.154      -7108.1109      4326.5688     -137162.59    
    115800   2565.2801      596.74229      4275.1159     -137164.66    
    115900   2476.958       12732.513      4258.1706     -137164.58    
    116000   2302.9837      2975.7636      4327.8557     -137157.65    
    116100   2697.9686     -7665.047       4413.1734     -137163.06    
    116200   2475.1915     -9143.1958      4469.6075     -137156.74    
    116300   2387.2029     -5578.736       4452.723      -137156.84    
    116400   2491.5229     -11040.626      4355.9624     -137162.14    
    116500   2585.1639      9179.195       4197.1297     -137162.9     
    116600   2744.2136      13127.936      4091.883      -137169.36    
    116700   2502.3348      5019.0634      4079.6217     -137171.16    
    116800   2316.4025      6507.1726      4136.1381     -137167.85    
    116900   2409.3626     -3537.1382      4237.3958     -137165.81    
    117000   2443.7812     -2294.5612      4335.6079     -137158.88    
    117100   2488.2565      1786.1396      4407.3015     -137158.09    
    117200   2455.0235     -3879.071       4468.4001     -137155.79    
    117300   2603.4763     -5265.7883      4503.8318     -137156.5     
    117400   2754.7445     -5369.8831      4500.5913     -137157.11    
    117500   2600.8807     -4729.788       4474.5193     -137154.91    
    117600   2326.1892     -4078.5204      4438.8188     -137155.99    
    117700   2391.2624     -4613.9406      4382.3025     -137157.77    
    117800   2540.8762      6792.6211      4322.7539     -137157.92    
    117900   2646.0632      7947.1709      4330.9169     -137156.62    
    118000   2399.7357      7124.9286      4379.0595     -137156.5     
    118100   2435.05       -10683.466      4433.2647     -137163.48    
    118200   2383.2975      2510.5341      4422.7248     -137159.97    
    118300   2685.0816      2504.0526      4400.7095     -137160.88    
    118400   2522.4831      677.76066      4384.2782     -137157.09    
    118500   2504.9292      3133.1294      4365.9747     -137159.8     
    118600   2540.3655      1468.1204      4339.4133     -137162.05    
    118700   2485.5061      5913.665       4326.4443     -137159.35    
    118800   2463.9121     -1672.3764      4339.9024     -137160.08    
    118900   2482.4329     -9555.576       4353.0871     -137162.84    
    119000   2298.5258      1658.783       4340.1629     -137161.07    
    119100   2490.508       543.46026      4351.0631     -137161.53    
    119200   2639.0471      4193.6547      4381.4219     -137158.51    
    119300   2494.5381     -2073.7731      4424.1104     -137154.77    
    119400   2547.0528     -11553.004      4444.3472     -137159.26    
    119500   2317.6811     -10726.296      4393.0703     -137162.81    
    119600   2540.3756     -1190.0757      4301.5587     -137168.62    
    119700   2492.3348      10764.097      4238.1399     -137163.63    
    119800   2607.1676      7918.804       4251.0881     -137166.72    
    119900   2366.9499     -3349.4043      4328.9426     -137160.4     
    120000   2485.368      -9074.6476      4400.4964     -137161.54    
    120100   2637.1635     -1193.7479      4427.8148     -137164.93    
    120200   2496.8468      4769.8486      4450.9428     -137162.3     
    120300   2356.3052     -1464.2568      4494.1011     -137161.23    
    120400   2403.0735     -10049.226      4522.639      -137157.2     
    120500   2637.5449      1182.5339      4504.4953     -137155.69    
    120600   2579.6904      6314.8624      4512.7978     -137153.75    
    120700   2472.0082     -11299.119      4549.8436     -137154.71    
    120800   2410.1619     -8072.6942      4524.1107     -137157.84    
    120900   2479.5242      1550.3025      4439.5541     -137158.75    
    121000   2651.7997      5270.8282      4349.032      -137154.1     
    121100   2592.3243      12143.388      4297.3634     -137155.4     
    121200   2478.6388      4891.6332      4325.201      -137158.65    
    121300   2583.0899     -895.01797      4374.7134     -137161.65    
    121400   2572.4988      1137.7417      4419.9582     -137161.97    
    121500   2348.8718     -10318.574      4447.1203     -137156.92    
    121600   2611.5045      724.89748      4399.5846     -137157.52    
    121700   2843.2331      7611.6839      4357.6166     -137160.94    
    121800   2492.3297     -2735.8499      4360.7769     -137159.53    
    121900   2418.2944     -6030.5989      4371.7886     -137158.98    
    122000   2580.7711      548.3105       4366.3963     -137158.68    
    122100   2552.4117      2575.7793      4354.5224     -137158.05    
    122200   2422.0862      6412.9823      4350.7997     -137163.53    
    122300   2222.2636     -1945.1169      4390.3415     -137162.61    
    122400   2413.1748     -10534.889      4425.0982     -137162.6     
    122500   2609.5066     -6262.027       4395.9064     -137161.4     
    122600   2749.4605     -564.83046      4341.0812     -137160.64    
    122700   2656.4928      6235.3818      4321.0115     -137161.58    
    122800   2245.0943     -4930.6685      4370.2911     -137158.14    
    122900   2295.3404     -7180.2107      4411.4697     -137155.9     
    123000   2558.0396     -6886.4894      4391.2022     -137157.82    
    123100   2781.5929     -421.35511      4326.2735     -137163.37    
    123200   2365.7683      15506.639      4306.805      -137157.76    
    123300   2450.6616     -4434.9529      4353.0827     -137166.13    
    123400   2284.9341     -9115.7861      4385.1939     -137165.73    
    123500   2417.2066      87.389086      4358.2094     -137169.93    
    123600   2508.8933      362.55695      4316.8        -137163.77    
    123700   2650.7018      11602.396      4288.0766     -137162.71    
    123800   2452.4977      4868.9422      4326.1602     -137159.39    
    123900   2415.9818     -4859.6099      4395.2924     -137158.67    
    124000   2518.6709      4314.113       4435.0154     -137154.31    
    124100   2624.8072     -9747.9868      4459.7636     -137151.87    
    124200   2591.3052      4449.3705      4427.1213     -137154.34    
    124300   2380.4425     -11842.611      4409.9895     -137157.33    
    124400   2513.5737      3508.3739      4342.0881     -137161.03    
    124500   2564.4772     -2929.8097      4275.3233     -137160.83    
    124600   2650.6749      10859.893      4251.0338     -137161.09    
    124700   2327.642      -5302.1863      4297.4459     -137157.74    
    124800   2270.3872     -3429.4868      4327.0717     -137161.09    
    124900   2348.3398      1631.389       4322.8408     -137158.49    
    125000   2596.0445      6201.5779      4333.6446     -137157.72    
    125100   2578.5382     -7355.656       4384.0948     -137160.09    
    125200   2427.2048     -9708.0471      4410.6188     -137160.13    
    125300   2465.1987     -2132.1702      4394.3979     -137159.46    
    125400   2589.3271      6501.6179      4368.0126     -137152.5     
    125500   2733.2605      4713.7517      4371.8578     -137156.82    
    125600   2555.0803     -1046.6105      4404.3823     -137158.15    
    125700   2422.3038     -4560.0167      4438.9685     -137156.8     
    125800   2501.1427     -1012.4814      4438.0525     -137157.44    
    125900   2637.6709      456.2958       4409.9884     -137155.52    
    126000   2905.6579      6394.3922      4392.7869     -137156.33    
    126100   2479.9589     -996.77978      4423.768      -137155.52    
    126200   2403.2884     -15121.475      4450.7127     -137156.6     
    126300   2517.9921      8869.8602      4393.5214     -137159.26    
    126400   2607.5998      6243.3276      4369.6109     -137160.02    
    126500   2375.1418     -2971.5712      4382.583      -137155.27    
    126600   2504.809       3080.1192      4373.8199     -137161.67    
    126700   2375.3224     -3426.8189      4377.9838     -137158.97    
    126800   2591.096      -5496.0064      4355.1553     -137159.64    
    126900   2715.8552      12992.222      4309.3005     -137159.96    
    127000   2473.025       4288.4231      4325.4566     -137162.78    
    127100   2389.3502     -8764.6524      4382.7218     -137163.74    
    127200   2485.7552     -14808.369      4418.9483     -137162.2     
    127300   2586.9197      3710.5576      4395.7701     -137159.67    
    127400   2555.2243      168.5167       4375.1899     -137159.07    
    127500   2591.5025      1815.4754      4358.7744     -137160.98    
    127600   2445.552      -2629.4581      4373.6181     -137157.34    
    127700   2515.9187     -4209.9685      4396.0097     -137157.32    
    127800   2748.0753     -3330.7542      4386.7419     -137159.17    
    127900   2496.3063      3860.6245      4354.5851     -137157.71    
    128000   2355.927       646.79715      4323.5976     -137160.2     
    128100   2385.0652      2218.8233      4276.758      -137160.95    
    128200   2698.3035      15934.793      4233.6131     -137162.82    
    128300   2714.1492      2851.2676      4281.2942     -137160.29    
    128400   2307.7644     -5443.0826      4370.8053     -137160.07    
    128500   2275.5724     -7558.6813      4428.8545     -137158.3     
    128600   2610.2205     -696.95698      4407.5708     -137161.88    
    128700   2509.6821     -4324.3869      4381.0756     -137156.44    
    128800   2480.5046      2481.1842      4360.5707     -137156.28    
    128900   2477.5415      9947.0923      4353.4108     -137160.35    
    129000   2286.2488     -12171.034      4379.7931     -137162.18    
    129100   2314.5385      4245.1565      4370.4142     -137161.71    
    129200   2549.526       1712.8109      4398.335      -137159.39    
    129300   2520.9005     -2574.7086      4433.8824     -137156.82    
    129400   2487.9347     -6178.9604      4444.823      -137156.44    
    129500   2335.6811      2678.1424      4407.7714     -137152.13    
    129600   2560.7743      2947.1057      4357.5826     -137157.78    
    129700   2584.0883     -7642.1244      4315.7551     -137163.2     
    129800   2413.453       6538.1124      4276.0903     -137163.28    
    129900   2366.0416      7486.2282      4276.5786     -137161.66    
    130000   2600.0323      2242.0047      4305.1096     -137158.67    
    130100   2707.5449      4280.9274      4354.0454     -137159.15    
    130200   2466.0744     -5130.2266      4441.6516     -137156.4     
    130300   2540.5226     -15666.085      4508.8337     -137159.42    
    130400   2460.8428     -9279.2127      4490.1045     -137156.77    
    130500   2498.154      -8973.6242      4391.3566     -137156.94    
    130600   2818.8981      4769.6531      4258.6798     -137164.97    
    130700   2469.1507      12441.44       4199.5388     -137165.53    
    130800   2359.82       -3333.5085      4224.2923     -137166.22    
    130900   2359.2015      1814.2648      4260.3998     -137162.78    
    131000   2437.9592     -437.15539      4323.8572     -137157.63    
    131100   2634.3587     -5492.981       4386.7268     -137159.89    
    131200   2381.1998      2907.9085      4440.3404     -137154.97    
    131300   2359.9885     -8602.6091      4507.1819     -137152.98    
    131400   2633.0845     -11194.259      4508.4082     -137152.3     
    131500   2626.714       10589.472      4449.0734     -137148.11    
    131600   2519.8924      8544.5942      4415.5172     -137155.1     
    131700   2532.3288      5395.7664      4405.4671     -137159.38    
    131800   2521.5126     -7946.2914      4420.8905     -137161.7     
    131900   2429.7128     -1981.2484      4409.5761     -137162.1     
    132000   2517.0165     -5577.2742      4382.3284     -137163.38    
    132100   2629.6499     -4753.7323      4340.9432     -137158.07    
    132200   2612.1397      1423.0337      4297.1935     -137157.12    
    132300   2519.718       5939.0325      4264.1199     -137162.15    
    132400   2334.0558      6722.6276      4288.7396     -137158.23    
    132500   2454.6136     -2319.8583      4358.5285     -137159.15    
    132600   2588.8128     -7898.7206      4440.1981     -137157.35    
    132700   2579.3207      2639.3451      4506.3134     -137152.39    
    132800   2362.745      -4825.1467      4562.4751     -137151.77    
    132900   2147.3086     -10791.82       4562.3611     -137153.61    
    133000   2449.1438     -7390.4063      4456.8133     -137157.71    
    133100   2722.8637      14818.689      4314.2943     -137159.36    
    133200   2457.9712      12971.95       4262.4195     -137154.77    
    133300   2414.4242      4917.8935      4312.398      -137158.97    
    133400   2218.7396      622.34515      4389.3961     -137153.04    
    133500   2428.1811     -1951.5615      4432.0597     -137154.79    
    133600   2676.6884      2051.1003      4432.2294     -137160.25    
    133700   2438.2777     -2393.7177      4427.4503     -137156.05    
    133800   2216.604      -200.97808      4396.2525     -137154.93    
    133900   2335.7825     -2778.0804      4336.8654     -137164.23    
    134000   2363.5759      5551.5953      4288.1602     -137164.86    
    134100   2653.5058     -831.1391       4280.9215     -137163.01    
    134200   2513.8084      12850.183      4284.4152     -137157.58    
    134300   2431.8082      1037.0852      4342.2472     -137158.76    
    134400   2434.0862     -10798.508      4408.9939     -137156.07    
    134500   2700.9735      926.0453       4412.7664     -137152.46    
    134600   2765.7374     -538.45409      4422.2268     -137155.66    
    134700   2570.0216     -2503.9288      4419.427      -137157.18    
    134800   2617.1238     -2521.4006      4398.2006     -137162.06    
    134900   2286.0828      353.66283      4381.2565     -137157.07    
    135000   2590.786      -4718.3529      4392.3492     -137160.4     
    135100   2599.3536      8596.3805      4403.1255     -137155.46    
    135200   2568.1534     -1822.3261      4435.7132     -137159.57    
    135300   2245.3793     -7894.7608      4444.8297     -137160.76    
    135400   2324.3199     -2096.5502      4387.1543     -137158.05    
    135500   2715.0302      5446.2116      4307.1328     -137162.37    
    135600   2425.7105      14669.688      4283.1014     -137155.98    
    135700   2367.7718      2509.3901      4329.1246     -137161.33    
    135800   2286.8787     -9610.3241      4363.9335     -137163.72    
    135900   2471.211      -6592.244       4355.4326     -137164.96    
    136000   2497.3606     -1852.1981      4340.7903     -137160.86    
    136100   2506.09        6601.3695      4333.1174     -137158.91    
    136200   2567.32       -2710.5717      4363.5469     -137160.66    
    136300   2391.9338      6550.3735      4382.7907     -137160.37    
    136400   2320.7094     -11580.83       4403.2175     -137162.33    
    136500   2522.4272     -11629.097      4380.9043     -137161.05    
    136600   2738.1849     -886.66513      4319.9589     -137161.47    
    136700   2564.597       685.12577      4258.2339     -137161.45    
    136800   2460.3171      6442.1401      4204.2629     -137165.57    
    136900   2421.4074      9917.387       4190.8218     -137165.5     
    137000   2465.7659      2565.2358      4225.8028     -137163.81    
    137100   2623.1342     -2794.3692      4272.6017     -137163.85    
    137200   2690.6126     -417.61757      4311.1145     -137159.78    
    137300   2659.736       3087.0827      4362.661      -137158.13    
    137400   2478.389      -5796.2525      4448.625      -137158.33    
    137500   2417.2628     -15772.721      4504.2992     -137158.46    
    137600   2529.1185     -5087.9538      4460.2003     -137158.5     
    137700   2851.5498      3926.7943      4406.5341     -137161.03    
    137800   2552.261      -8123.1447      4417.1862     -137159.08    
    137900   2429.6299     -3350.8931      4401.7082     -137160.91    
    138000   2399.4669     -4125.3037      4356.2004     -137161.18    
    138100   2429.7507      6300.362       4298.1665     -137160.38    
    138200   2568.4557      15463.952      4294.6105     -137158.61    
    138300   2549.6031      4837.2897      4364.9573     -137157.11    
    138400   2321.0683     -8847.3693      4461.3125     -137160.84    
    138500   2373.1427     -22364.668      4523.1741     -137162.74    
    138600   2465.7488     -5865.4957      4489.833      -137156.53    
    138700   2549.2279      631.50114      4431.6142     -137155.43    
    138800   2594.7629     -7284.4829      4390.1944     -137158.51    
    138900   2346.1504      7531.9789      4330.7666     -137157.6     
    139000   2447.9711      6172.367       4313.7862     -137163.77    
    139100   2419.2443      7454.1936      4354.7001     -137163.42    
    139200   2531.646      -4144.3942      4429.9116     -137159.31    
    139300   2522.6375     -4215.6017      4478.2182     -137154.11    
    139400   2531.7922     -3825.2268      4483.9855     -137156.62    
    139500   2409.1661     -4641.8789      4455.9667     -137159.37    
    139600   2308.9063     -15471.742      4369.1999     -137163.96    
    139700   2368.5939      9618.608       4219.0917     -137164.1     
    139800   2641.5233      31288.32       4158.1605     -137159.69    
    139900   2491.3922      11401.462      4239.4736     -137159.28    
    140000   2463.9238     -7876.7299      4348.0814     -137163       
    140100   2287.8068     -7357.5257      4400.9748     -137156.23    
    140200   2693.2323     -3879.4479      4378.6327     -137160.53    
    140300   2721.8556      5627.5649      4341.9014     -137160.1     
    140400   2343.4583     -241.90888      4347.8893     -137160.95    
    140500   2338.0808      7622.199       4359.9938     -137162.85    
    140600   2459.3395      1719.3269      4383.5708     -137160.83    
    140700   2588.6777     -7931.27        4413.0448     -137158.05    
    140800   2418.2105      5249.25        4418.674      -137150.5     
    140900   2700.5905     -3308.4377      4426.7569     -137156.29    
    141000   2381.1163      3695.2904      4424.3822     -137153.93    
    141100   2367.7355     -1172.5815      4424.6685     -137160.4     
    141200   2428.1571     -11292.641      4405.5341     -137160.99    
    141300   2702.0919     -2204.0979      4354.4883     -137160.59    
    141400   2731.018       5890.4547      4323.5835     -137163.11    
    141500   2529.4074     -8057.4744      4350.2356     -137163.56    
    141600   2436.1841     -1234.5305      4366.4696     -137161.97    
    141700   2515.7248     -3513.365       4354.0479     -137162.1     
    141800   2602.2964      4249.2252      4329.0375     -137159.49    
    141900   2980.4796      10315.153      4351.1521     -137159.95    
    142000   2510.5286     -457.45936      4452.4466     -137151.62    
    142100   2357.9752     -10960.584      4528.0191     -137152.46    
    142200   2508.4406     -8420.2641      4514.1224     -137155.82    
    142300   2669.8879      352.76238      4432.4927     -137157.89    
    142400   2527.048       9371.1762      4355.4754     -137157.26    
    142500   2339.5549      8161.7544      4333.0525     -137159.38    
    142600   2329.7043     -1714.4681      4344.1828     -137158.93    
    142700   2587.5564     -1499.3167      4357.7282     -137159.06    
    142800   2758.0095      4485.3724      4377.9597     -137154.27    
    142900   2631.2098     -330.53598      4415.1751     -137154.21    
    143000   2534.1734     -8070.8904      4444.671      -137162.66    
    143100   2444.0821     -8226.8168      4426.707      -137159.91    
    143200   2575.0956     -128.39551      4383.0329     -137157.83    
    143300   2558.891       5223.2259      4369.1934     -137152.88    
    143400   2618.6551      6014.1954      4378.4968     -137158.79    
    143500   2422.2545     -795.87236      4399.4277     -137161.74    
    143600   2427.578      -3371.0523      4420.376      -137159.39    
    143700   2527.0735     -5224.9972      4426.1078     -137156.75    
    143800   2572.0939     -3839.8748      4373.5112     -137157.35    
    143900   2480.7856      5724.909       4263.1664     -137162.53    
    144000   2329.2313      9716.5859      4164.399      -137165.58    
    144100   2595.8872      15864.993      4122.608      -137170.69    
    144200   2600.8649      6894.4276      4190.6467     -137168.75    
    144300   2413.9547     -12733.363      4344.3847     -137161.03    
    144400   2775.0425     -9649.2162      4461.4436     -137159.85    
    144500   2622.13       -4412.3846      4537.0601     -137156.65    
    144600   2401.2733     -5697.8559      4575.1457     -137154.81    
    144700   2413.3845     -8318.6141      4549.285      -137154.9     
    144800   2910.4579      3125.6953      4468.9751     -137158.98    
    144900   2660.6405      1437.8102      4430.8119     -137154.02    
    145000   2446.497       4259.1831      4424.2015     -137155.49    
    145100   2510.5405     -8904.3858      4428.9217     -137158.47    
    145200   2421.3798      9583.7826      4414.827      -137156.15    
    145300   2453.122      -8143.2095      4414.51       -137155.34    
    145400   2739.163       6164.6331      4385.1934     -137155.66    
    145500   2536.4006     -4501.3083      4388.8829     -137152.13    
    145600   2486.433       707.16936      4380.4075     -137158.17    
    145700   2325.9033      7537.6399      4365.0956     -137156.27    
    145800   2416.1575      3629.9255      4377.1092     -137156.93    
    145900   2474.6471      5774.2726      4420.4303     -137155.9     
    146000   2469.9654     -9054.6987      4485.0211     -137153.62    
    146100   2580.6843     -4782.6429      4504.5047     -137155.71    
    146200   2587.1482     -8108.5557      4467.802      -137156.04    
    146300   2708.866       2460.345       4382.6188     -137161.21    
    146400   2509.449       18048.997      4347.1542     -137157.65    
    146500   2555.1735     -8119.504       4410.2865     -137161.16    
    146600   2323.6159     -8246.5772      4442.1131     -137162.65    
    146700   2285.6893     -12949.147      4397.4828     -137164.68    
    146800   2459.1082      7173.8671      4270.4223     -137158.57    
    146900   2794.1825      12044.016      4181.0276     -137166.5     
    147000   2483.2328      12674.967      4173.5303     -137164.49    
    147100   2186.3874      6320.8004      4265.6513     -137159.61    
    147200   2313.4117     -8789.8311      4395.3045     -137155.61    
    147300   2669.0658     -15422.337      4467.2058     -137158.42    
    147400   2582.0278     -7942.0047      4469.6714     -137155.98    
    147500   2641.8284     -12647.881      4429.4832     -137161.11    
    147600   2424.2484      749.34897      4346.5386     -137159.49    
    147700   2477.1688      10820.938      4267.2815     -137165.8     
    147800   2155.3515      11401.821      4268.9136     -137162.5     
    147900   2446.8417     -5081.3699      4324.6678     -137165.18    
    148000   2310.2196      9495.0442      4380.0868     -137153.28    
    148100   2733.4148     -9470.9334      4448.1505     -137164.12    
    148200   2435.9829     -17663.783      4469.9592     -137158.98    
    148300   2406.7139      5239.1369      4382.0554     -137159.09    
    148400   2584.6912      7408.738       4288.5165     -137156.96    
    148500   2742.3673      11198.355      4253.3939     -137159.5     
    148600   2525.6817      12460.84       4285.1765     -137164.62    
    148700   2278.5473     -2467.2726      4380.7988     -137160.03    
    148800   2506.2822     -5519.0632      4459.1669     -137161.53    
    148900   2449.5345     -4270.3981      4493.5601     -137153.33    
    149000   2781.0804     -6996.4658      4511.355      -137158.51    
    149100   2655.4822     -8440.2863      4502.0775     -137158.6     
    149200   2466.2399      2349.6596      4454.6036     -137157.25    
    149300   2413.1662      1897.1721      4417.7046     -137155.18    
    149400   2555.8916      2757.8013      4385.756      -137155.63    
    149500   2659.0817      4570.7222      4365.6479     -137156.97    
    149600   2279.2478     -320.6088       4368.2214     -137154.92    
    149700   2398.2227      1229.5438      4364.3673     -137160.71    
    149800   2565.784      -3503.9986      4356.6635     -137162.73    
    149900   2561.2899      4448.0642      4350.0523     -137154.57    
    150000   2753.7658     -7282.8887      4341.0795     -137163.7     
    150100   2568.2939     -5471.2631      4348.2339     -137162.42    
    150200   2375.2415     -3685.6229      4352.0486     -137158.1     
    150300   2421.7929      4407.8325      4330.5377     -137157.19    
    150400   2656.0562      1845.4855      4328.8612     -137155.56    
    150500   2927.0697      4305.2073      4354.6287     -137159.98    
    150600   2535.301      -3663.5104      4405.1274     -137161.41    
    150700   2469.0895     -10616.472      4408.199      -137160.77    
    150800   2411.393       6470.7646      4354.4182     -137157.68    
    150900   2461.6146     -2780.7526      4312.8691     -137155.39    
    151000   2704.2165      6776.1501      4263.7025     -137158.4     
    151100   2692.6362      1194.6318      4259.2782     -137167.36    
    151200   2197.0567      4469.1941      4275.277      -137157.8     
    151300   2447.2681      5676.7281      4299.2253     -137158.26    
    151400   2651.7547     -1252.8856      4345.9371     -137159.86    
    151500   2638.7993     -7392.3297      4377.3621     -137161.94    
    151600   2221.5088      3241.6631      4375.6097     -137158       
    151700   2329.7152      2804.0852      4358.4892     -137164.14    
    151800   2670.541      -500.85367      4360.191      -137162.3     
    151900   2588.6846     -4644.0472      4379.801      -137157.48    
    152000   2444.9352      1694.0026      4383.6117     -137159.13    
    152100   2360.8542     -8949.7041      4375.6281     -137160.66    
    152200   2523.5456      1274.5005      4324.4903     -137160.49    
    152300   2666.289       10321.068      4284.4678     -137157.13    
    152400   2574.0893      6360.7804      4303.2661     -137158.55    
    152500   2289.488      -10249.496      4348.7005     -137162.93    
    152600   2457.6683     -2748.4548      4349.0243     -137165.16    
    152700   2512.5636      2518.4458      4329.2439     -137160.29    
    152800   2554.8086      9584.1519      4328.5166     -137157.99    
    152900   2437.0902     -2386.1831      4369.1862     -137156.39    
    153000   2338.7223     -5939.5057      4353.2448     -137161.87    
    153100   2349.6065      7036.7384      4284.5457     -137164.08    
    153200   2522.3987      2641.1699      4252.4944     -137161.39    
    153300   2506.7971      14462.3        4263.1018     -137157.29    
    153400   2574.1204     -4177.8767      4348.6514     -137160.62    
    153500   2460.6669     -8757.84        4439.514      -137158.29    
    153600   2549.1934     -12713          4470.8801     -137157.1     
    153700   2807.9699      1021.3682      4413.7361     -137156.61    
    153800   2871.4949     -10023.497      4354.4626     -137160.7     
    153900   2560.2639      1054.1606      4278.0865     -137163.37    
    154000   2534.2965      1532.1935      4221.7905     -137166.25    
    154100   2452.1863      3826.7695      4194.3749     -137166.06    
    154200   2392.2434      10378.029      4202.0839     -137163.58    
    154300   2470.1054      4958.2747      4271.2647     -137158.9     
    154400   2363.3576      2783.2112      4372.7977     -137150.67    
    154500   2640.3505     -3625.9735      4460.9977     -137153.39    
    154600   2726.5231     -7643.7925      4513.7027     -137153.31    
    154700   2567.634      -1610.8365      4530.7302     -137150.87    
    154800   2437.2862     -7540.5344      4516.5551     -137154.62    
    154900   2352.8544     -7525.7658      4441.2833     -137156.01    
    155000   2404.8509      10172.771      4314.0268     -137156.83    
    155100   2750.7165      5570.6391      4225.7271     -137162.82    
    155200   2515.2308      17401.854      4228.2252     -137161.2     
    155300   2358.9909     -18853.131      4305.2433     -137164.05    
    155400   2521.5329     -6655.4225      4309.1763     -137164.64    
    155500   2574.8639      210.56847      4283.7299     -137161.77    
    155600   2716.9277      7481.8259      4269.9838     -137165.85    
    155700   2524.1375     -6180.4021      4301.6382     -137164.68    
    155800   2440.9392     -3333.5654      4310.3736     -137163.15    
    155900   2548.3682      18632.471      4313.1903     -137154.11    
    156000   2687.7455      219.43705      4389.4141     -137157.69    
    156100   2440.4585     -16734.4        4463.8494     -137155.79    
    156200   2431.4893     -7471.7583      4436.9689     -137158.17    
    156300   2507.8184      2509.1658      4355.7478     -137159.2     
    156400   2652.4312      12336.584      4310.022      -137155.48    
    156500   2743.6626     -8398.0148      4323.6957     -137158.69    
    156600   2562.8991      5065.5199      4322.772      -137162.3     
    156700   2460.8438      2378.1367      4351.4009     -137162.21    
    156800   2428.7037     -13885.711      4403.4091     -137160.72    
    156900   2614.4851     -8332.1684      4402.6802     -137161.07    
    157000   2787.7965      1321.2625      4368.8098     -137155.37    
    157100   2726.0827     -6647.9955      4353.5225     -137157.86    
    157200   2352.8828      4736.7056      4322.5971     -137153.78    
    157300   2278.2072      8582.7476      4285.5088     -137154.07    
    157400   2592.2879      3010.7901      4274.6162     -137162.04    
    157500   2618.672       2046.6232      4300.872      -137158.43    
    157600   2785.8517      5291.9503      4347.0599     -137157.88    
    157700   2481.4857     -6666.6248      4419.3463     -137157.09    
    157800   2269.5151     -303.48167      4450.9153     -137155.35    
    157900   2350.2167      7274.4124      4467.0752     -137154.44    
    158000   2570.556      -5449.7585      4501.5918     -137155.76    
    158100   2625.2129     -9073.7746      4496.6796     -137155.4     
    158200   2438.1708     -5091.1378      4448.2609     -137156.38    
    158300   2297.2262     -888.76648      4367.7272     -137158.16    
    158400   2510.4451      1293.7531      4270.9471     -137165.37    
    158500   2635.5592      6011.3798      4212.7848     -137167.31    
    158600   2549.1903      7107.0141      4235.7638     -137162.23    
    158700   2545.5622      6085.0863      4322.57       -137159.1     
    158800   2491.396      -6384.9784      4438.7401     -137156.08    
    158900   2632.0127     -11464.551      4509.3827     -137156.73    
    159000   2706.1791     -4498.5642      4497.9353     -137154.35    
    159100   2602.2138     -642.53374      4453.3058     -137152.31    
    159200   2383.1452      3124.6738      4381.1514     -137156.33    
    159300   2374.5778      4907.6699      4322.1081     -137159.42    
    159400   2428.1547     -2564.2054      4297.3459     -137158.99    
    159500   2615.3689      9163.1366      4285.4827     -137158.58    
    159600   2774.0335     -2276.4012      4322.4937     -137157.03    
    159700   2574.4787     -2840.1275      4372.5702     -137155.97    
    159800   2326.7983     -2949.4122      4404.3602     -137157.32    
    159900   2328.9946      7015.9055      4405.7847     -137156.07    
    160000   2658.5729      5247.1087      4418.6844     -137158.48    
    160100   2562.3063      3345.2629      4451.0432     -137155.08    
    160200   2498.1053     -7626.2631      4483.311      -137156.63    
    160300   2066.1024     -5673.228       4475.7396     -137152.08    
    160400   2380.1794      3009.2868      4423.726      -137156.78    
    160500   2648.4876      293.59598      4384.8448     -137158.11    
    160600   2526.4015     -2918.3054      4373.6523     -137156.83    
    160700   2533.1647     -4751.8114      4367.3508     -137161.58    
    160800   2371.7006     -4293.0872      4335.2514     -137162.9     
    160900   2061.728       9736.2185      4291.4353     -137162.72    
    161000   2190.3683     -3238.9343      4283.192      -137166.33    
    161100   2451.2234      8990.0947      4273.908      -137164.02    
    161200   2385.7586      1798.1541      4283.9971     -137159.27    
    161300   2461.2986      4748.4105      4301.4494     -137158.76    
    161400   2611.2045      8080.4014      4338.0729     -137160.83    
    161500   2487.1227     -11981.707      4411.0411     -137161.01    
    161600   2154.1697     -2893.6344      4440.8383     -137156.67    
    161700   2489.8106     -4375.5686      4405.9566     -137160.48    
    161800   2844.2567      680.25975      4327.2587     -137164.71    
    161900   2459.6018      3300.4861      4276.8078     -137158.71    
    162000   2574.1811      2499.0296      4265.3404     -137163.91    
    162100   2436.9188      8033.3965      4276.8315     -137164.12    
    162200   2215.1055      3057.9339      4330.6718     -137159.14    
    162300   2573.6395     -2791.016       4393.4627     -137158.08    
    162400   2652.8565      5047.5746      4459.3664     -137158.51    
    162500   2349.1067     -13723.951      4546.1293     -137154.43    
    162600   2395.7948     -18404.677      4539.4051     -137154.87    
    162700   2620.1345      937.08992      4420.4492     -137154.81    
    162800   2593.8351      15762.724      4288.4649     -137161.59    
    162900   2513.5999      2683.8895      4245.3462     -137165.48    
    163000   2380.0083      13014.454      4252.1713     -137163.38    
    163100   2438.847      -1434.2502      4299.546      -137164.42    
    163200   2602.2678     -4035.8427      4346.3071     -137162       
    163300   2541.253       256.06589      4377.2409     -137155.38    
    163400   2571.387      -2699.1124      4405.3625     -137155.4     
    163500   2324.7104     -9114.8599      4410.8346     -137155.6     
    163600   2355.1227     -4627.1265      4344.8521     -137161.81    
    163700   2466.6617      8579.8907      4249.6049     -137161.27    
    163800   2680.9071      15456.288      4204.8611     -137162.66    
    163900   2453.3159      5592.7448      4245.8863     -137162.27    
    164000   2182.4724     -4845.0782      4312.9188     -137161.27    
    164100   2291.8257      8474.4715      4333.985      -137157.89    
    164200   2443.5751      7449.4711      4370.6219     -137156.31    
    164300   2604.5003     -11488.929      4433.7169     -137160.32    
    164400   2382.5901      2146.0558      4451.2653     -137155.4     
    164500   2652.5067     -5059.983       4461.9754     -137157.86    
    164600   2777.2015     -6129.3495      4434.0284     -137156.77    
    164700   2478.5174     -1426.4981      4372.5177     -137157.03    
    164800   2494.1877      8800.4311      4301.7062     -137162.01    
    164900   2440.1712      14932.062      4291.6003     -137161       
    165000   2375.4797     -12932.047      4346.4056     -137158.82    
    165100   2495.9333     -139.27794      4328.9837     -137159.01    
    165200   2670.6563      3835.661       4311.1406     -137159.85    
    165300   2509.3282      6842.069       4331.8259     -137157.38    
    165400   2342.7446      871.37028      4384.1871     -137157.19    
    165500   2363.1292     -11418.976      4418.5432     -137159.74    
    165600   2682.9083      4672.7532      4416.3457     -137159.97    
    165700   2668.6793     -12270.492      4442.0357     -137156.58    
    165800   2552.2555     -8551.0658      4411.5388     -137158.84    
    165900   2398.0673      1774.9287      4338.5379     -137159.6     
    166000   2397.4107      7270.2334      4288.6269     -137159.66    
    166100   2520.2071      9023.3431      4280.4482     -137161.62    
    166200   2463.5869      6686.75        4328.3352     -137159.89    
    166300   2563.6963     -10158.377      4421.5642     -137159.75    
    166400   2555.9666     -4217.7898      4453.9578     -137150.99    
    166500   2739.5457     -2237.4139      4446.7647     -137153.75    
    166600   2365.9271     -8096.9813      4421.1443     -137152.83    
    166700   2702.0224     -2731.2715      4328.8075     -137164.53    
    166800   2531.0403      9163.9363      4231.3582     -137163.22    
    166900   2432.7621      8109.0292      4195.4169     -137165.48    
    167000   2304.0909      3945.562       4230.5493     -137165.15    
    167100   2456.5418     -1386.1238      4288.2794     -137164.81    
    167200   2674.0762     -1393.8164      4333.2114     -137162.71    
    167300   2578.1231     -1667.4361      4372.4079     -137159.57    
    167400   2569.964       1563.685       4395.3081     -137164.13    
    167500   2320.5742     -7765.0779      4400.8185     -137162.94    
    167600   2392.3198     -127.47679      4367.479      -137160.32    
    167700   2737.0407      7212.6824      4347.9751     -137159.57    
    167800   2537.5567     -1053.4295      4388.8319     -137158.41    
    167900   2549.6292     -15537.231      4428.0476     -137163.36    
    168000   2583.5744     -2423.9643      4398.1462     -137162.64    
    168100   2738.1771     -2360.058       4362.6822     -137159.16    
    168200   2733.059       8662.3734      4337.3649     -137160.17    
    168300   2347.9365      433.09359      4330.2412     -137158.97    
    168400   2488.7676      6863.7291      4315.1609     -137163.53    
    168500   2546.3641     -5552.5046      4336.3229     -137162.99    
    168600   2648.4959      1226.9743      4342.3631     -137160.96    
    168700   2660.8152     -9443.9035      4371.1704     -137158.27    
    168800   2567.7785     -1942.93        4382.8706     -137160.49    
    168900   2347.5263     -5743.9652      4376.8316     -137161.81    
    169000   2501.5579      233.92129      4364.904      -137162.59    
    169100   2453.8365      14378.047      4368.8967     -137155.87    
    169200   2515.7227     -4788.2817      4426.7934     -137157.06    
    169300   2346.2446      3035.0908      4485.2193     -137154.44    
    169400   2438.5319     -3279.1034      4520.5973     -137156.61    
    169500   2418.1736     -8848.1669      4497.5076     -137154.03    
    169600   2593.251      -2913.4534      4421.2656     -137157.83    
    169700   2551.1092      6247.5021      4356.1915     -137158.33    
    169800   2592.0258     -3675.8739      4336.3997     -137162.49    
    169900   2289.1167     -5394.0917      4297.1718     -137159.44    
    170000   2438.1981      13937.008      4230.0633     -137160.48    
    170100   2719.0254      8593.3091      4225.0745     -137166.34    
    170200   2311.5497     -4471.0831      4275.4175     -137169.35    
    170300   2301.1385     -6805.3309      4320.4669     -137166.33    
    170400   2569.5801      3039.0061      4345.2144     -137163.78    
    170500   2619.7837      1166.2683      4374.0385     -137161.05    
    170600   2482.3115     -1258.0569      4408.8981     -137158.23    
    170700   2404.5713     -8729.9786      4419.899      -137155.86    
    170800   2541.1585      1237.8102      4364.188      -137156.6     
    170900   2519.4626      6028.9932      4296.5847     -137158.06    
    171000   2432.5327      3679.7695      4245.3573     -137164.05    
    171100   2459.3542      12248.973      4228.5691     -137163.89    
    171200   2455.4216      2099.5034      4277.7241     -137162.52    
    171300   2493.4877     -4047.0721      4350.7275     -137160.16    
    171400   2693.2817     -3480.7463      4422.1018     -137156.33    
    171500   2578.9461     -8658.7273      4484.2199     -137153.91    
    171600   2413.8447     -7912.0862      4494.6866     -137154.5     
    171700   2411.3834     -13442.318      4437.3079     -137159.22    
    171800   2438.9595      8151.8931      4321.0838     -137161.92    
    171900   2557.7268      7737.9879      4243.1635     -137164.74    
    172000   2610.0879      9481.5644      4219.8283     -137168.28    
    172100   2388.4525      3269.5822      4254.1949     -137165.97    
    172200   2362.8875      11743.647      4312.827      -137160.34    
    172300   2691.789      -5131.7286      4421.1199     -137162.15    
    172400   2498.5402     -4374.3391      4506.9559     -137155.7     
    172500   2510.3468     -14822.545      4526.7218     -137153.75    
    172600   2572.5716     -6377.1245      4455.4226     -137153.66    
    172700   2445.2656      2491.2039      4352.1803     -137156.45    
    172800   2485.2782     -2687.9502      4289.6125     -137164.08    
    172900   2513.9839      11531.877      4262.9765     -137165.78    
    173000   2403.052       5842.9964      4302.1349     -137161.35    
    173100   2641.9656     -1652.1457      4366.6494     -137160.53    
    173200   2677.9527     -9364.7378      4418.3407     -137156.86    
    173300   2644.816      -7728.8168      4424.5437     -137160.06    
    173400   2374.2702     -12983.04       4399.3311     -137160.84    
    173500   2319.6108      6868.9981      4331.0628     -137159.11    
    173600   2528.9942      10103.863      4297.8599     -137161.53    
    173700   2540.3652      8515.1305      4332.9333     -137161.14    
    173800   2374.0478     -16265.164      4398.8096     -137156.54    
    173900   2638.526      -3562.5712      4403.5653     -137158.43    
    174000   2694.6805     -4145.7587      4372.9466     -137154       
    174100   2710.3166      11084.292      4337.518      -137157.12    
    174200   2424.1242     -1497.8295      4358.0271     -137158.62    
    174300   2480.7457      3244.0815      4365.0249     -137161.7     
    174400   2570.0048     -4522.5965      4376.2067     -137162.87    
    174500   2541.196      -6103.094       4395.8114     -137156.19    
    174600   2682.6959      10117.571      4418.3245     -137156.08    
    174700   2349.2054     -5372.1457      4488.8328     -137156.39    
    174800   2347.1151     -13079.575      4493.9515     -137158.57    
    174900   2549.1996     -2983.7971      4395.6913     -137160.24    
    175000   2699.8564     -1009.9349      4294.1396     -137163.31    
    175100   2373.4243      6591.9323      4218.2104     -137163.28    
    175200   2444.1034      3908.2416      4200.8976     -137166.73    
    175300   2390.6272      3643.2785      4230.7906     -137162.08    
    175400   2561.2672      7141.8377      4300.4714     -137161.28    
    175500   2385.2487     -2912.6015      4402.1235     -137155.39    
    175600   2521.975      -13084.184      4477.2953     -137155.53    
    175700   2608.5708     -5856.6615      4485.2723     -137155.27    
    175800   2660.2759     -1335.4248      4460.0492     -137158.59    
    175900   2536.2288     -5964.7415      4432.6857     -137160.35    
    176000   2354.0507     -4157.8725      4385.6736     -137159.39    
    176100   2492.9398      3007.4566      4339.8815     -137161.3     
    176200   2647.1875      13513.613      4328.7744     -137153.12    
    176300   2826.5274      958.70552      4384.6223     -137157.65    
    176400   2434.7668      2643.1869      4469.4166     -137155.28    
    176500   2327.5567     -15528.05       4547.5612     -137153.86    
    176600   2437.4128     -6430.9857      4537.633      -137151.34    
    176700   2711.8077     -2394.9936      4473.3537     -137155.39    
    176800   2711.227      -3739.4403      4386.8738     -137159.77    
    176900   2563.163       2068.6759      4303.9571     -137159.22    
    177000   2601.2393     -359.83898      4251.6875     -137163.51    
    177100   2435.8762      5671.9664      4234.2914     -137163.77    
    177200   2303.8773      162.47802      4251.8923     -137162.14    
    177300   2649.7285      4240.2705      4280.8116     -137160.58    
    177400   2679.7894     -1786.6057      4324.951      -137161.35    
    177500   2351.7116     -5078.5708      4355.6976     -137158.55    
    177600   2583.4751      1621.8077      4349.7224     -137164.15    
    177700   2505.1509      8623.9278      4350.4403     -137158.92    
    177800   2805.2056      11959.502      4391.9038     -137158.01    
    177900   2637.1824     -2834.2245      4473.635      -137153.08    
    178000   2272.976      -12385.332      4521.4991     -137150.31    
    178100   2326.9309     -11219.145      4477.2637     -137154.89    
    178200   2629.1109      10593.942      4365.3114     -137157.65    
    178300   2777.8728      10343.366      4315.2659     -137157.86    
    178400   2421.2835     -742.91352      4360.3226     -137158.02    
    178500   2390.9769     -150.38411      4429.3622     -137160.67    
    178600   2393.6003     -1532.8364      4487.804      -137156.86    
    178700   2620.9819     -6299.7568      4519.6444     -137155.57    
    178800   2522.3876     -7180.2013      4502.1392     -137152.4     
    178900   2521.013      -587.23717      4421.8125     -137156.05    
    179000   2524.4156     -1446.4131      4333.031      -137161.05    
    179100   2556.5545      14011.787      4253.7397     -137164.99    
    179200   2449.3943     -396.20388      4244.7175     -137163.54    
    179300   2453.812       1203.6337      4265.2721     -137161.91    
    179400   2649.9615      12161.858      4311.2148     -137158.34    
    179500   2703.6161      2275.7497      4385.2578     -137159.99    
    179600   2317.2274     -3466.8316      4453.4674     -137160.48    
    179700   2325.571      -3221.9445      4486.6237     -137156.88    
    179800   2643.7946     -1422.214       4476.0878     -137158.05    
    179900   2569.5014     -951.6726       4459.4435     -137154.87    
    180000   2436.0684      4918.1249      4451.3446     -137155.73    
    180100   2404.2701     -18302.986      4443.7155     -137160.85    
    180200   2576.7668     -1850.0166      4341.4618     -137163.16    
    180300   2807.1555      11980.215      4256.4345     -137159.46    
    180400   2718.141       8700.6248      4268.6814     -137162.78    
    180500   2374.7869     -3979.5707      4352.6875     -137159.74    
    180600   2509.9019     -10945.289      4391.6854     -137161.94    
    180700   2609.24       -1057.4493      4360.5932     -137159.42    
    180800   2703.3743      2014.8063      4336.2957     -137161.12    
    180900   2332.074       498.79407      4360.793      -137162.48    
    181000   2274.6658     -9082.3367      4397.4204     -137159.67    
    181100   2725.0994     -3340.6133      4385.8056     -137164.88    
    181200   2603.4296      1380.3269      4389.7998     -137161.73    
    181300   2466.5243     -2902.5839      4418.4872     -137161.03    
    181400   2280.5552      2081.195       4431.7236     -137158.76    
    181500   2503.0044      1498.1093      4436.9902     -137159.45    
    181600   2686.42        2483.9091      4442.6575     -137159.48    
    181700   2552.6314     -3606.2643      4474.7712     -137159.42    
    181800   2257.299      -4556.7121      4491.6368     -137156.6     
    181900   2421.2746     -8379.9053      4469.6822     -137158.35    
    182000   2559.2831      3945.9821      4419.3923     -137151.93    
    182100   2823.0287     -4181.6343      4395.2971     -137160.64    
    182200   2358.3809      9697.2378      4367.958      -137156.24    
    182300   2503.9908      13224.932      4365.1181     -137162.57    
    182400   2483.2756     -2534.2803      4400.9413     -137163.15    
    182500   2473.007      -3564.6961      4407.2337     -137160.3     
    182600   2787.1718     -4680.5547      4393.813      -137159.8     
    182700   2572.803       7120.3588      4393.607      -137156.39    
    182800   2370.3737     -2385.1409      4423.2101     -137157.76    
    182900   2335.2213     -8567.531       4411.7167     -137157.42    
    183000   2454.7829      1440.9053      4345.1542     -137156.93    
    183100   2799.0538      15878.701      4287.7933     -137165.95    
    183200   2405.8569     -3691.52        4311.6285     -137160.01    
    183300   2363.3781      1310.8193      4333.3843     -137159.69    
    183400   2444.4891     -3989.7153      4323.8885     -137157.67    
    183500   2663.6501      17526.812      4295.6087     -137154.81    
    183600   2723.6523      587.36251      4338.517      -137158.93    
    183700   2474.6634      1193.8006      4416.7703     -137156.53    
    183800   2299.3862     -12572.774      4483.0787     -137153.34    
    183900   2525.2828     -8684.9946      4480.5961     -137154.94    
    184000   2601.3633      584.01445      4448.8679     -137151.87    
    184100   2618.6647      3066.2352      4412.4917     -137156.12    
    184200   2310.5251     -4432.5389      4373.2551     -137158.04    
    184300   2451.4496      3679.4471      4307.3173     -137162.31    
    184400   2514.8106      8722.5725      4262.3557     -137161.52    
    184500   2542.3052      9990.7895      4273.6705     -137159.31    
    184600   2821.9681     -214.58536      4341.5294     -137162.1     
    184700   2596.2016     -4801.8791      4416.6925     -137158.14    
    184800   2308.8889     -7059.2732      4446.3613     -137159.1     
    184900   2323.3301     -3033.7708      4424.4027     -137159.96    
    185000   2527.095      -1523.5295      4397.5576     -137159.56    
    185100   2534.4176      3042.0639      4398.1812     -137156.26    
    185200   2682.7901     -10787.381      4409.6951     -137161.95    
    185300   2382.5723      4597.4705      4382.7938     -137156.75    
    185400   2434.4854     -1689.0761      4348.3756     -137157.25    
    185500   2680.0228      8670.2911      4294.4729     -137161.74    
    185600   2491.6024      7713.4349      4274.8562     -137157.31    
    185700   2479.1759     -1886.6198      4290.7332     -137162.78    
    185800   2359.6108      2481.166       4310.6267     -137159.9     
    185900   2426.1146      7183.1033      4338.2231     -137159.53    
    186000   2580.2641     -2006.3091      4411.2862     -137155.17    
    186100   2711.7214     -4849.2504      4474.7748     -137156.7     
    186200   2443.0719     -7771.0444      4509.2302     -137155.27    
    186300   2463.7218     -6213.95        4489.6523     -137156.32    
    186400   2611.2621     -6420.7372      4407.0149     -137158.83    
    186500   2766.1964      2406.3522      4313.494      -137163.94    
    186600   2539.9955     -2697.114       4282.6599     -137165.59    
    186700   2374.7283      7282.2804      4285.114      -137165.02    
    186800   2255.7457      5879.749       4321.153      -137159.36    
    186900   2462.098      -5479.5382      4366.0224     -137159.35    
    187000   2583.3176     -1202.2596      4349.5039     -137159.73    
    187100   2507.3961      7655.3434      4313.4753     -137161.2     
    187200   2351.7636      1239.9348      4323.1568     -137165.16    
    187300   2234.9244     -8855.7498      4342.2228     -137158.79    
    187400   2572.9136      22.439632      4300.7393     -137163.57    
    187500   2493.6128      10780.11       4259.9064     -137161.32    
    187600   2422.6096      4257.0828      4280.974      -137161.57    
    187700   2580.189      -5774.7333      4323.4873     -137164.13    
    187800   2588.6936     -2272.2563      4358.053      -137155.74    
    187900   2703.437      -6354.5037      4391.4578     -137156.95    
    188000   2355.5579     -5882.187       4402.2648     -137152.2     
    188100   2495.8873      6131.5123      4378.4054     -137156.28    
    188200   2510.2864     -9331.5754      4378.2567     -137157.91    
    188300   2373.1693      1120.0199      4348.2158     -137155.95    
    188400   2698.3529      900.43319      4309.5893     -137165.15    
    188500   2404.4869      5892.3933      4287.2149     -137161.91    
    188600   2194.2206     -1754.7095      4288.1365     -137164.66    
    188700   2280.9313      4890.5826      4284.2344     -137164.89    
    188800   2528.3381      8823.2956      4299.4424     -137162.56    
    188900   2429.2606     -1975.1551      4370.9457     -137159.68    
    189000   2390.7259     -5110.6929      4444.3708     -137156.3     
    189100   2652.9893     -6337.4023      4480.6471     -137156.01    
    189200   2799.4285     -8210.9237      4480.3163     -137158.83    
    189300   2484.4839     -326.07391      4447.9837     -137158.47    
    189400   2411.468       570.74359      4415.4086     -137159.61    
    189500   2427.0516      3954.1962      4391.0209     -137159.47    
    189600   2553.1813     -624.41828      4377.0575     -137159.3     
    189700   2645.7401      5359.1124      4351.5912     -137155.86    
    189800   2859.8672     -6115.4519      4338.8336     -137159.87    
    189900   2478.984       9427.7018      4326.6736     -137162.22    
    190000   2362.2602     -2356.1858      4347.1121     -137163.09    
    190100   2515.4815     -8116.4358      4358.397      -137162.19    
    190200   2543.8707      7955.6985      4347.8454     -137158.5     
    190300   2495.3247     -10677.782      4367.939      -137157.43    
    190400   2463.8242     -2182.1084      4347.697      -137159.05    
    190500   2362.7076     -6952.4154      4308.6031     -137163.39    
    190600   2519.0969     -391.30309      4264.5715     -137166.86    
    190700   2617.5392      10615.704      4246.8631     -137162.04    
    190800   2598.3231      3862.9277      4288.1334     -137159.37    
    190900   2367.4825     -251.51209      4371.0041     -137156.05    
    191000   2362.3589     -10777.451      4433.8235     -137160.44    
    191100   2462.8437     -9552.2714      4409.6395     -137168.64    
    191200   2521.8499      187.66994      4341.1433     -137165.91    
    191300   2694.8099      11291.462      4308.5484     -137163.59    
    191400   2561.707      -86.695495      4346.0522     -137162.83    
    191500   2339.6596     -5550.6211      4393.8512     -137160.91    
    191600   2503.9458     -8690.2037      4414.5727     -137159.72    
    191700   2795.1779      5267.9841      4398.0377     -137158.99    
    191800   2527.0892      2993.9273      4410.4978     -137156.16    
    191900   2491.7205      3784.6387      4445.9183     -137159.03    
    192000   2354.6157     -6810.6137      4495.1654     -137156.59    
    192100   2727.3884      2250.196       4502.7787     -137157.89    
    192200   2731.9018      3717.4905      4507.0377     -137154.34    
    192300   2551.3356     -10908.709      4506.5824     -137154.47    
    192400   2468.9839     -2180.0171      4443.931      -137157.37    
    192500   2563.8532      12389.881      4349.542      -137163.13    
    192600   2359.3309      6083.9497      4321.6624     -137158.56    
    192700   2399.8789      12118.17       4340.2429     -137157.9     
    192800   2473.3125      6125.1067      4408.1636     -137158.18    
    192900   2495.8216     -6340.0891      4508.3485     -137154.32    
    193000   2691.6994     -10287.218      4557.6033     -137153.96    
    193100   2345.9153     -1592.5433      4525.6763     -137146.48    
    193200   2375.1209     -6946.3233      4425.1966     -137159.97    
    193300   2447.0455      7355.6707      4293.3132     -137162.9     
    193400   2545.1435      5787.2067      4206.0381     -137163.94    
    193500   2573.7228      20930.874      4191.805      -137159.85    
    193600   2525.6495      1721.0295      4299.8396     -137157.25    
    193700   2543.8349     -10748.753      4444.1188     -137157.07    
    193800   2469.2058     -7958.039       4531.4845     -137154.82    
    193900   2560.3295     -9694.2993      4539.5454     -137156.27    
    194000   2492.8043     -10223.188      4470.2271     -137154.43    
    194100   2458.8838      9643.0751      4335.1301     -137159.3     
    194200   2353.8073      17205.459      4248.2244     -137162.18    
    194300   2528.6234     -3822.7739      4265.9259     -137165.48    
    194400   2661.8247     -1137.4097      4287.3581     -137160.19    
    194500   2692.2251      9979.5051      4332.9617     -137156.61    
    194600   2540.38       -9135.7046      4422.7286     -137157.47    
    194700   2626.6168     -15388.884      4467.5925     -137162.1     
    194800   2393.9326      1748.2449      4456.2435     -137154.95    
    194900   2703.346       6756.5092      4436.4609     -137154.27    
    195000   2610.2752      7951.1116      4453.7413     -137149.41    
    195100   2549.4122     -8035.6556      4486.4354     -137153.4     
    195200   2626.7299     -1565.55        4449.9221     -137160.22    
    195300   2469.2946      491.1128       4396.8979     -137160.3     
    195400   2354.9401      2904.2658      4364.7454     -137159.5     
    195500   2461.2637     -3329.1722      4336.7682     -137161.29    
    195600   2484.5426      10812.762      4288.0971     -137153.29    
    195700   2655.7594      13453.291      4282.7401     -137158.64    
    195800   2400.5384     -9018.2392      4352.0179     -137159.01    
    195900   2467.2536      1684.2162      4378.2975     -137160.64    
    196000   2525.2012     -3206.9942      4390.1931     -137161.06    
    196100   2477.2861     -2599.9692      4391.503      -137159.78    
    196200   2479.904       581.64914      4382.5486     -137156.96    
    196300   2669.2861      4948.197       4368.2832     -137156.65    
    196400   2775.5314      9079.5049      4405.7659     -137154.75    
    196500   2364.9541     -18797.359      4513.4941     -137151.73    
    196600   2299.5255     -12778.801      4525.3684     -137151.73    
    196700   2663.8725     -2789.4035      4446.2567     -137155.73    
    196800   2691.2076      1435.4698      4340.3224     -137159.2     
    196900   2483.3108      13243.077      4265.2566     -137157.65    
    197000   2596.0403      7958.8823      4258.0028     -137164.38    
    197100   2399.894       15632.791      4288.3638     -137165.24    
    197200   2120.1426     -514.86946      4371.057      -137157.36    
    197300   2488.958      -4328.407       4419.9993     -137159.37    
    197400   2558.4047     -4079.9008      4416.7129     -137158.76    
    197500   2551.1674     -6291.8373      4384.9566     -137158.36    
    197600   2367.287       8468.2676      4345.077      -137158.33    
    197700   2403.6965     -3113.3712      4332.7604     -137163.98    
    197800   2489.0469     -402.42962      4328.4877     -137163.36    
    197900   2757.1871     -4119.1585      4324.4162     -137160.65    
    198000   2557.0243      8407.0003      4315.5116     -137157.44    
    198100   2400.1854     -2369.0699      4338.8354     -137158.21    
    198200   2370.1423      4162.1207      4354.4696     -137156.69    
    198300   2547.5999      3783.0836      4348.9501     -137160.29    
    198400   2343.8163     -1205.4091      4344.7906     -137160.71    
    198500   2400.7992     -3131.9626      4337.7276     -137163.72    
    198600   2609.3626      8984.9354      4306.2013     -137164.78    
    198700   2549.4501      4148.5978      4325.5396     -137161.16    
    198800   2371.6925     -9387.4862      4370.9099     -137161.89    
    198900   2285.8449     -13135.494      4359.4422     -137165.09    
    199000   2448.5976      6378.4546      4297.3842     -137163.57    
    199100   2660.5002      9482.9739      4285.7702     -137163.72    
    199200   2604.7398     -8798.768       4355.7716     -137161.36    
    199300   2483.5245     -9057.0131      4414.8942     -137157.92    
    199400   2520.0708     -3040.5909      4429.6403     -137153.86    
    199500   2678.6516      2890.6933      4410.4687     -137151.13    
    199600   2591.7694     -3678.4276      4383.1585     -137155.42    
    199700   2635.3209      6105.7777      4342.4919     -137160.88    
    199800   2609.0626     -2450.2519      4347.4947     -137163.55    
    199900   2402.7164     -5353.8264      4341.2027     -137161.41    
    200000   2503.432       11331.81       4318.5461     -137162.15    
    200100   2619.6016      5767.8427      4356.0635     -137155.01    
    200200   2533.0144     -3269.1044      4410.7613     -137153.7     
    200300   2524.2961     -6219.2314      4420.7002     -137157.63    
    200400   2653.6095     -3664.2824      4387.1943     -137162.95    
    200500   2360.3601      8333.3403      4355.3075     -137157.89    
    200600   2257.7865     -553.85362      4360.0633     -137161.3     
    200700   2420.3365      1666.7349      4357.7259     -137163.19    
    200800   2579.8023      3318.2849      4336.8619     -137160.02    
    200900   2664.7102      1981.1884      4345.644      -137159.97    
    201000   2564.5431     -449.17383      4381.8049     -137162.09    
    201100   2381.2221     -5485.8513      4420.3617     -137160.16    
    201200   2451.1934     -2554.9814      4433.1165     -137160.3     
    201300   2412.9551     -3403.4175      4419.5487     -137157.05    
    201400   2556.9906      7908.4595      4372.6849     -137157.62    
    201500   2588.6187      8529.9907      4363.2072     -137159.49    
    201600   2353.2594     -1792.0251      4399.5001     -137160.15    
    201700   2257.8734     -5016.9698      4416.987      -137156.78    
    201800   2730.6563     -628.19042      4398.5987     -137159.98    
    201900   2622.9918      269.39226      4377.9461     -137159.95    
    202000   2491.3142      5338.7883      4374.0546     -137161.78    
    202100   2505.0732     -3168.5689      4402.1292     -137164.42    
    202200   2226.0458     -7509.377       4407.387      -137157.16    
    202300   2591.2144      8856.7652      4371.3432     -137156.37    
    202400   2655.1129     -153.44183      4378.8753     -137159.56    
    202500   2481.9913     -3369.3463      4397.6746     -137160.99    
    202600   2348.762       1630.148       4392.9223     -137159.79    
    202700   2541.7807      3481.2992      4373.113      -137161.94    
    202800   2861.3321      1450.0571      4362.9587     -137161.12    
    202900   2575.2339      4452.7598      4374.9396     -137155.71    
    203000   2475.4466     -9159.3156      4393.4816     -137159.4     
    203100   2277.9127      1918.0236      4371.6663     -137154.24    
    203200   2660.8447     -66.613332      4315.7281     -137162.63    
    203300   2590.093       248.02072      4267.2483     -137163.04    
    203400   2303.5821      5431.9782      4264.3436     -137163.63    
    203500   2365.2706     -230.59713      4303.5702     -137163.63    
    203600   2517.4545     -9994.1772      4344.9993     -137161.75    
    203700   2619.6695     -2022.4076      4344.1687     -137164.21    
    203800   2287.354       642.76314      4322.2238     -137158.26    
    203900   2485.1003      6557.3875      4311.4529     -137161.94    
    204000   2792.2829     -2592.3832      4361.0473     -137162.21    
    204100   2598.1334      289.52499      4429.4586     -137158.31    
    204200   2263.2433     -6948.8721      4491.3262     -137156.46    
    204300   2238.6687     -13781.789      4485.0676     -137163.56    
    204400   2151.2913     -4775.6452      4376.3463     -137162.44    
    204500   2541.0168      8695.3207      4231.166      -137161.96    
    204600   2597.7027      16924.35       4162.0656     -137162.18    
    204700   2312.5114      5944.2509      4209.4014     -137160.83    
    204800   2238.1192     -6454.8446      4277.898      -137160.97    
    204900   2544.3458      3994.358       4307.1275     -137161.98    
    205000   2539.7871      1747.8355      4355.1049     -137156.07    
    205100   2475.7042     -327.48648      4410.3869     -137155.95    
    205200   2467.6218     -14440.542      4455.5081     -137156.95    
    205300   2494.7472     -1670.7898      4425.3107     -137156.75    
    205400   2577.647       5627.1423      4355.3255     -137157.06    
    205500   2677.8281     -1048.4531      4322.8899     -137162.02    
    205600   2292.0545      5988.4904      4320.1406     -137159.2     
    205700   2385.9137     -1993.4239      4343.2976     -137163.07    
    205800   2324.0678     -603.85578      4361.8963     -137156.13    
    205900   2649.4249      1321.024       4367.9799     -137155.86    
    206000   2576.8235      2190.216       4395.0342     -137155.25    
    206100   2467.5174     -12601.855      4444.0571     -137157.6     
    206200   2351.6124     -12027.444      4434.0803     -137158.44    
    206300   2441.2632     -1806.5662      4336.5923     -137159.31    
    206400   2916.9598      12411.325      4234.453      -137160.91    
    206500   2621.4855      19376.78       4225.4887     -137156.86    
    206600   2600.2413     -3683.0969      4298.6531     -137163.03    
    206700   2417.4783     -3198.593       4360.1679     -137160.89    
    206800   2561.0839     -7066.9683      4399.9581     -137160.45    
    206900   2574.5049      7486.0268      4412.1175     -137155.44    
    207000   2673.2946      2288.9655      4457.9362     -137155.66    
    207100   2508.3238     -3498.6635      4518.4482     -137157.65    
    207200   2206.4596     -10566.166      4547.6485     -137153.94    
    207300   2553.693      -6176.1995      4509.7302     -137157.02    
    207400   2739.5867     -2414.9404      4435.2897     -137158.65    
    207500   2550.393      -1227.6315      4364.3783     -137154.93    
    207600   2357.1165      9743.6337      4309.3427     -137156.36    
    207700   2340.4764      326.15644      4283.4981     -137164.07    
    207800   2320.4828      9718.5201      4273.5839     -137162.04    
    207900   2515.5435      2799.9574      4297.9498     -137162.38    
    208000   2591.8645      1130.1035      4320.5824     -137160.55    
    208100   2458.2387      9957.18        4351.5825     -137160.42    
    208200   2289.9978     -13643.128      4394.3171     -137163.06    
    208300   2318.9771     -882.35631      4376.2122     -137161.2     
    208400   2495.6952     -240.7616       4357.9592     -137161.19    
    208500   2480.1594     -105.156        4343.6352     -137159.58    
    208600   2675.5961      262.14773      4339.8879     -137161.9     
    208700   2646.6201     -1397.5461      4360.7504     -137158.95    
    208800   2626.1572     -5385.6014      4389.8594     -137159.14    
    208900   2443.32       -5483.3035      4414.2832     -137160.16    
    209000   2377.061      -4165.9828      4411.7019     -137161.17    
    209100   2452.416      -4929.3447      4394.1408     -137157.9     
    209200   2717.2878     -1315.3254      4371.6442     -137156.74    
    209300   2716.6489     -3306.0018      4371.2476     -137157.32    
    209400   2631.2945     -6881.0079      4370.0715     -137160.57    
    209500   2609.0678     -5685.564       4358.052      -137163.16    
    209600   2541.9025     -2557.8651      4349.7235     -137161.17    
    209700   2614.0373      3297.2913      4333.4677     -137159.34    
    209800   2672.0787      2734.9466      4331.7633     -137158.05    
    209900   2659.617       1135.8525      4362.4865     -137163.39    
    210000   2297.0324     -4092.7567      4400.0207     -137159.21    
    210100   2349.6935     -7769.8295      4405.4963     -137157.28    
    210200   2758.3685     -7066.7198      4372.4317     -137161.22    
    210300   2632.4634      11950.079      4343.3064     -137159.66    
    210400   2432.6363     -2169.0069      4373.9107     -137158.25    
    210500   2443.4794      9101.0128      4413.8535     -137158.2     
    210600   2498.25       -14070.778      4479.217      -137155.53    
    210700   2834.2531     -5345.3442      4466.0419     -137156.78    
    210800   2616.6164     -3661.01        4413.8938     -137156.31    
    210900   2598.7795     -2145.5201      4367.0155     -137163.35    
    211000   2747.1471     -1007.6452      4332.8792     -137168.62    
    211100   2354.5768     -3507.7463      4312.8266     -137162.46    
    211200   2391.3855      6816.5654      4301.5503     -137162.86    
    211300   2515.8971      6622.9629      4343.1411     -137156.76    
    211400   2548.1249     -601.13801      4422.41       -137154.79    
    211500   2635.007      -15125.755      4492.913      -137157.92    
    211600   2472.4208     -2275.3997      4490.8897     -137157.59    
    211700   2146.2501     -2920.0685      4465.2281     -137158.84    
    211800   2236.4652     -2255.8376      4396.826      -137161.22    
    211900   2390.198       11083.662      4326.6892     -137158.79    
    212000   2547.5513      11962.364      4301.2562     -137161.38    
    212100   2382.4713      5594.8887      4320.6652     -137159.95    
    212200   2366.4021     -6082.1389      4359.5307     -137162.12    
    212300   2384.4042     -1274.3619      4354.4643     -137161.82    
    212400   2596.6797      1198.4538      4336.6088     -137158.67    
    212500   2745.6195     -2245.1489      4333.4425     -137160.12    
    212600   2458.2441     -733.68349      4331.4502     -137159.25    
    212700   2470.1702     -4020.961       4328.3533     -137162.72    
    212800   2447.2638      8491.9814      4313.9874     -137159.51    
    212900   2626.9381     -420.22362      4318.1521     -137161.52    
    213000   2510.9861      1275.6684      4349.7851     -137157.53    
    213100   2394.9791     -2258.8942      4411.0781     -137154.61    
    213200   2428.6973     -9172.8016      4492.6287     -137154.74    
    213300   2385.847       80.811907      4529.9317     -137149.62    
    213400   2679.8332     -9451.7562      4533.4047     -137154.43    
    213500   2624.0655     -7200.8006      4485.4488     -137155.81    
    213600   2564.0971      2475.2778      4383.0513     -137156.67    
    213700   2469.3317      15966.451      4282.7039     -137157.2     
    213800   2444.9258      7079.3855      4251.0449     -137164.22    
    213900   2321.5942      5361.8617      4275.3259     -137162.42    
    214000   2315.0148      8537.471       4334.7499     -137159.01    
    214100   2502.8434      3602.7603      4425.0629     -137158.17    
    214200   2432.9298     -10889.982      4515.4306     -137152.51    
    214300   2653.2419     -7178.9064      4549.8417     -137155.67    
    214400   2571.7862     -7890.1535      4526.0884     -137156.38    
    214500   2404.8194     -4075.6797      4454.5792     -137160.18    
    214600   2241.0118      5532.0558      4341.3382     -137163.52    
    214700   2672.9068     -3081.4118      4248.2885     -137168.48    
    214800   2521.8841      17354.332      4200.3267     -137160.37    
    214900   2567.6842      4805.1064      4245.4855     -137161.97    
    215000   2431.427      -1954.1083      4342.5235     -137159.54    
    215100   2452.2115     -17039.482      4420.9007     -137159.56    
    215200   2691.1202     -3323.1435      4409.2921     -137159.12    
    215300   2748.5065      4089.9049      4391.1945     -137159.15    
    215400   2551.3446     -4726.4529      4419.9405     -137161.69    
    215500   2397.9484     -1533.1273      4446.7322     -137161.3     
    215600   2388.3836     -3907.0467      4476.1415     -137158       
    215700   2335.0961     -13474.789      4464.397      -137152.32    
    215800   2598.128       4404.2668      4357.876      -137156.08    
    215900   2719.361       4545.544       4273.7914     -137162.38    
    216000   2621.5642      11501.928      4250.1135     -137164.45    
    216100   2549.6292      55.815176      4296.6974     -137164.14    
    216200   2481.0816     -6211.9732      4345.5721     -137162.36    
    216300   2689.6749     -5351.2214      4370.935      -137161.48    
    216400   2699.5212     -6767.1905      4383.0631     -137156.72    
    216500   2606.8026     -3563.5803      4369.5981     -137160.61    
    216600   2319.2434      4333.4708      4345.5968     -137158.87    
    216700   2523.6074     -2898.6789      4340.3793     -137161.93    
    216800   2570.4339      5755.2153      4335.7099     -137161.8     
    216900   2323.8197      7045.4073      4363.3523     -137157.11    
    217000   2471.913      -2840.5776      4404.4226     -137159.48    
    217100   2576.248       2812.0865      4421.4192     -137154.22    
    217200   2823.1748     -10220.417      4421.4814     -137159.84    
    217300   2635.2764     -4642.5056      4388.2899     -137161.63    
    217400   2513.033      -7073.3294      4346.5234     -137160.5     
    217500   2395.9783      14012.272      4279.1097     -137157.38    
    217600   2403.2801      11650.476      4267.2843     -137157.07    
    217700   2384.1037     -6399.6378      4287.8088     -137162.25    
    217800   2295.5029     -4028.2485      4288.7995     -137163.43    
    217900   2473.9576      12066.639      4279.0139     -137161.39    
    218000   2444.1987      12330.22       4335.8889     -137156.93    
    218100   2508.3513     -846.28129      4445.3929     -137157.95    
    218200   2532.7554     -11257.002      4532.6681     -137156.38    
    218300   2502.951      -1617.1296      4536.0197     -137153.29    
    218400   2484.4922     -4073.1578      4505.4947     -137152.87    
    218500   2460.9298     -10833.337      4446.8984     -137161.36    
    218600   2437.2681      1522.5185      4339.8169     -137165.46    
    218700   2434.7125      7851.5479      4256.6555     -137164.4     
    218800   2465.4658      11374.231      4244.3045     -137159.51    
    218900   2705.7764      1508.9858      4286.201      -137161.13    
    219000   2501.7659     -7446.9137      4335.2486     -137160.79    
    219100   2264.1544     -6634.0605      4352.3254     -137161.74    
    219200   2489.4896      1410.2737      4321.6829     -137164.03    
    219300   2480.1742      12205.452      4308.6821     -137159.67    
    219400   2385.3323      1646.3651      4368.2327     -137155.42    
    219500   2538.9377     -9548.1707      4437.4854     -137157.6     
    219600   2426.9472     -1879.3178      4433.4941     -137154.44    
    219700   2576.4709      174.99902      4395.0179     -137158.56    
    219800   2506.81       -4843.2252      4365.7147     -137161.52    
    219900   2446.1098     -4165.4182      4327.6451     -137162.52    
    220000   2462.8205      11565.062      4285.482      -137158.95    
    220100   2530.8215      17693.658      4313.3879     -137152.88    
    220200   2575.4006      941.40139      4410.0939     -137154.37    
    220300   2206.9606     -15529.755      4479.3842     -137153.43    
    220400   2189.1129     -6766.24        4447.3391     -137152.7     
    220500   2503.7229      1539.1774      4369.908      -137158.2     
    220600   2543.5484      11392.384      4303.0183     -137160.08    
    220700   2412.6373      14152.166      4300.681      -137159.81    
    220800   2371.2447     -7007.7883      4349.3001     -137165.19    
    220900   2397.9476     -6372.9767      4373.3286     -137165.18    
    221000   2574.315       3175.6787      4372.5156     -137158.27    
    221100   2629.4341     -11037.698      4387.6134     -137158.75    
    221200   2514.0091     -5634.7927      4355.1873     -137157.99    
    221300   2615.8618      6332.5723      4305.6771     -137164.47    
    221400   2301.1561     -4754.7758      4299.7285     -137164.4     
    221500   2280.6374      4650.4589      4280.2046     -137162.4     
    221600   2501.9672      1267.659       4272.8508     -137162.98    
    221700   2542.0261     -6050.5924      4266.7561     -137162.95    
    221800   2620.6206      10780.257      4271.0576     -137161.7     
    221900   2603.9666     -2568.3483      4344.1772     -137159.82    
    222000   2269.2178     -3233.7393      4420.0712     -137156.39    
    222100   2354.7233     -6465.2314      4445.609      -137161.45    
    222200   2542.5447     -992.03862      4432.2777     -137158.49    
    222300   2739.4508     -41.586314      4390.1728     -137161.71    
    222400   2629.8243      4760.0112      4364.7906     -137162.99    
    222500   2533.0815     -2137.2085      4393.5028     -137161.84    
    222600   2507.1541     -1582.1283      4421.837      -137159.82    
    222700   2547.467      -1697.2723      4431.7042     -137155.04    
    222800   2958.5251     -3215.9816      4412.9401     -137158.46    
    222900   2581.0167      6639.327       4386.3061     -137157.07    
    223000   2409.8375      7365.671       4388.0874     -137158.63    
    223100   2291.3417     -5539.3279      4432.9164     -137157.67    
    223200   2658.8442     -9688.5921      4463.3485     -137163.21    
    223300   2585.4892     -1256.1201      4449.6198     -137153.13    
    223400   2605.4665      2299.6511      4408.5651     -137153.64    
    223500   2642.1231     -5208.0236      4378.8205     -137157.68    
    223600   2513.015      -1462.1051      4352.3644     -137158.65    
    223700   2391.1482      10265.256      4336.6411     -137158.23    
    223800   2468.0626     -6368.0982      4359.4613     -137160.15    
    223900   2480.1595     -6097.7018      4359.7653     -137159.38    
    224000   2578.0364      1323.5901      4345.8211     -137161.7     
    224100   2502.3191      3503.2225      4343.5153     -137161.61    
    224200   2340.2365     -1677.2046      4359.6633     -137158.97    
    224300   2551.9154     -7316.8787      4347.3479     -137162.66    
    224400   2926.7118     -2822.1934      4313.3197     -137162.63    
    224500   2827.7531      1851.3514      4315.7734     -137160.97    
    224600   2430.0927      3227.516       4349.9666     -137159.32    
    224700   2478.2289     -5810.995       4382.1883     -137161.42    
    224800   2456.4285     -10673.907      4393.6795     -137157.14    
    224900   2586.7851      7918.6002      4357.8843     -137154.2     
    225000   2592.9421      15937.327      4356.1308     -137155.29    
    225100   2275.6543     -10766.689      4418.1128     -137157.35    
    225200   2399.185      -883.63159      4409.0989     -137160.4     
    225300   2500.8113      2476.2182      4353.8291     -137159.39    
    225400   2672.7126      7197.5754      4303.2223     -137163.65    
    225500   2455.1502     -6583.0968      4298.0768     -137167.32    
    225600   2405.408      -1261.7118      4269.8892     -137168.61    
    225700   2412.932       4999.9831      4251.0207     -137165.56    
    225800   2448.5709      5853.6411      4270.8105     -137162.62    
    225900   2450.9397     -1772.8885      4321.3833     -137159.24    
    226000   2526.3474     -4980.0526      4349.7442     -137159.78    
    226100   2464.5556      503.75871      4344.2234     -137158.24    
    226200   2517.3392     -5272.0396      4333.5097     -137159.21    
    226300   2621.658       1353.9717      4292.7973     -137164.32    
    226400   2384.2272      2345.6052      4273.0978     -137165.18    
    226500   2380.6728     -4085.782       4268.5008     -137170.01    
    226600   2466.0666      2911.0801      4262.5488     -137167.11    
    226700   2421.0266      4616.6504      4297.2736     -137162.48    
    226800   2400.7222     -8522.3244      4366.8703     -137158.4     
    226900   2621.3473     -2630.943       4400.2339     -137157.16    
    227000   2654.438      -8534.897       4417.3572     -137158.65    
    227100   2493.8373      3341.4676      4384.4133     -137160.11    
    227200   2480.9266     -7232.1305      4351.8152     -137160.77    
    227300   2517.5215      11253.377      4307.0749     -137161.44    
    227400   2428.2195      10809.493      4299.0364     -137159.03    
    227500   2427.3381     -2679.5832      4342.318      -137155.76    
    227600   2868.6713      680.05887      4394.5731     -137157.78    
    227700   2588.073      -10147.529      4464.1261     -137154.69    
    227800   2321.9264     -3044.9763      4467.5883     -137153.13    
    227900   2380.9817      9335.103       4410.4762     -137154.95    
    228000   2683.53        6978.1219      4362.3531     -137162.69    
    228100   2467.1652     -9735.5894      4345.856      -137162.4     
    228200   2241.2276     -4880.088       4295.9661     -137162.58    
    228300   2577.625      -1308.5577      4226.7971     -137168.54    
    228400   2788.9605      16493.4        4200.2655     -137164.41    
    228500   2521.7348      11791.516      4293.9915     -137157.82    
    228600   2348.2671     -8292.9733      4448.0058     -137154.18    
    228700   2518.9538     -12302.67       4528.6947     -137155.87    
    228800   2678.3045     -5499.566       4518.623      -137157.42    
    228900   2505.2088     -8093.3903      4468.0662     -137157.35    
    229000   2399.1483     -1359.6661      4369.6287     -137165.66    
    229100   2462.449       7851.34        4258.8427     -137166.68    
    229200   2522.1063      15373.296      4227.5085     -137163.79    
    229300   2498.3189      2496.1808      4289.2756     -137158.79    
    229400   2736.7375     -1373.1987      4355.7579     -137157.83    
    229500   2634.9029     -1536.0484      4412.2052     -137157.07    
    229600   2332.308      -384.55135      4458.7779     -137158.45    
    229700   2429.4579     -9941.182       4488.7597     -137158.9     
    229800   2539.5724     -327.30503      4450.1481     -137156.21    
    229900   2533.304       3958.7065      4397.6151     -137153.83    
    230000   2594.2122     -1107.404       4359.1432     -137159.62    
    230100   2194.8299      842.11675      4329.9741     -137159.49    
    230200   2421.2358     -1093.8375      4298.3117     -137163.51    
    230300   2512.8625      5541.6491      4254.5729     -137162.54    
    230400   2581.0295      7204.089       4241.7891     -137163.29    
    230500   2471.199       4720.8717      4279.7954     -137165.14    
    230600   2094.6412     -1798.2013      4337.1173     -137160.25    
    230700   2472.4087     -3378.8413      4352.0641     -137163.68    
    230800   2550.3666      1139.7468      4354.9406     -137160.55    
    230900   2536.4635     -6868.5288      4360.8175     -137159.95    
    231000   2326.5695      9765.1792      4330.2985     -137158.01    
    231100   2304.5645      1178.0463      4305.5002     -137162.25    
    231200   2374.3195      8239.1845      4310.1969     -137161.68    
    231300   2532.2863     -6732.1919      4370.911      -137156.47    
    231400   2657.951      -1595.6651      4400.7523     -137159.56    
    231500   2302.5913     -2875.9635      4409.6833     -137155.02    
    231600   2496.5742     -3313.0252      4369.923      -137161.38    
    231700   2806.3965      2128.9121      4325.1835     -137163.38    
    231800   2686.2094      12277.352      4319.1029     -137156.33    
    231900   2550.1556      1022.1312      4351.1299     -137161.24    
    232000   2418.7415     -3099.5403      4378.5982     -137160.47    
    232100   2187.4261     -4452.5405      4382.979      -137152.09    
    232200   2630.8357     -3771.7868      4326.9544     -137158.91    
    232300   2696.6791      14310.759      4213.1424     -137161.23    
    232400   2476.3352      21983.579      4173.8504     -137159.74    
    232500   2360.654      -2926.909       4274.9072     -137159.55    
    232600   2496.5994     -2280.7645      4409.6769     -137160.34    
    232700   2540.3174     -14451.066      4535.7936     -137154.35    
    232800   2629.396      -5448.4267      4575.2734     -137152.65    
    232900   2567.865      -8837.9674      4547.9845     -137154.75    
    233000   2369.936      -1147.455       4464.8805     -137155.26    
    233100   2441.5106      12937.612      4358.5422     -137156.42    
    233200   2617.9007      8996.2052      4304.5189     -137159.93    
    233300   2515.117       31.868704      4315.2127     -137160.4     
    233400   2233.1496      1516.3741      4348.1369     -137157.82    
    233500   2558.4123     -799.24876      4397.9429     -137163.01    
    233600   2773.3803     -11227.599      4449.6872     -137159.51    
    233700   2553.1995     -9762.312       4479.9913     -137154.03    
    233800   2445.1373     -3709.2239      4462.3694     -137155.35    
    233900   2209.6214      1236.4228      4393.148      -137160.46    
    234000   2475.7553      2332.6894      4317.0828     -137166.31    
    234100   2498.0374      10662.096      4258.4214     -137161.28    
    234200   2633.4505      10458.898      4259.0644     -137163.03    
    234300   2591.5245     -4684.0786      4335.8645     -137164.79    
    234400   2344.0359     -17024.888      4415.9503     -137166.08    
    234500   2140.1801     -4833.0303      4412.7795     -137160.89    
    234600   2386.9413      242.84552      4341.6551     -137158.81    
    234700   2396.7157      12333.996      4257.6902     -137155.1     
    234800   2766.6731      1719.3067      4230.3842     -137165.09    
    234900   2405.5014      8782.6881      4263.215      -137163.1     
    235000   2232.2218     -4567.9931      4338.4993     -137159.96    
    235100   2487.5316     -10565.734      4388.1949     -137161.37    
    235200   2378.3258     -2925.5186      4401.0039     -137157.09    
    235300   2471.0028      5202.743       4400.6768     -137157.62    
    235400   2501.9703      2597.4557      4405.1719     -137157.85    
    235500   2313.5661     -1108.2895      4410.3795     -137160.37    
    235600   2226.6878     -8262.6962      4391.0517     -137161.23    
    235700   2585.0318      2755.9208      4310.5198     -137163.71    
    235800   2454.2026      7408.6167      4242.4765     -137159.52    
    235900   2587.6169      9918.7745      4232.435      -137165.71    
    236000   2455.1137     -7006.6985      4293.386      -137164.82    
    236100   2276.2459      551.17443      4334.7598     -137162.86    
    236200   2496.916      -1487.1472      4363.0729     -137164.42    
    236300   2558.1937     -4924.6326      4364.971      -137158.93    
    236400   2647.7828      1003.7336      4359.2588     -137162.11    
    236500   2365.6837     -496.76609      4390.8453     -137158.6     
    236600   2494.9855      2061.3997      4432.0306     -137158.93    
    236700   2629.7094     -6665.8783      4450.1504     -137154.46    
    236800   2464.9265      11101.547      4424.6003     -137150.95    
    236900   2424.4653      8728.5043      4420.0882     -137158.04    
    237000   2438.8909     -6833.5787      4439.8506     -137162.01    
    237100   2337.369      -567.16039      4421.3574     -137158.22    
    237200   2389.4618      8350.8964      4394.4485     -137155.84    
    237300   2591.856       930.78502      4381.9386     -137159.06    
    237400   2573.7882     -3592.4333      4388.9643     -137159.18    
    237500   2219.1375      738.25603      4397.6301     -137161.5     
    237600   2238.722      -5305.6484      4389.696      -137161.24    
    237700   2426.3977      4042.3697      4350.026      -137157.99    
    237800   2617.1006      9262.6641      4319.6602     -137158.74    
    237900   2580.3947      891.21343      4331.0179     -137157.36    
    238000   2411.2119     -7451.1352      4351.5213     -137160.21    
    238100   2354.1961     -6771.7118      4348.4418     -137162.86    
    238200   2491.109      -4172.4591      4300.9398     -137164.77    
    238300   2554.5621      9846.4786      4241.809      -137163.69    
    238400   2472.8089      14179.292      4250.3519     -137162.24    
    238500   2291.7863      1995.1407      4335.0819     -137158.05    
    238600   2535.7341     -9164.5958      4420.4443     -137158.61    
    238700   2853.5934     -4496.8607      4480.0394     -137161.63    
    238800   2514.8404     -4480.2642      4535.1905     -137154.13    
    238900   2499.2934     -5258.3978      4549.6317     -137153.93    
    239000   2513.2951     -14313.412      4519.1847     -137152.79    
    239100   2829.5233     -252.86304      4410.5875     -137152.82    
    239200   2883.4122      13975.142      4311.0372     -137155.47    
    239300   2640.4736      6886.219       4292.3978     -137161.92    
    239400   2490.8455      13439.138      4309.2836     -137165.54    
    239500   2131.751      -2159.0251      4374.009      -137158.73    
    239600   2544.0151     -12878.075      4410.3105     -137161.73    
    239700   2649.196      -144.13709      4378.5431     -137161.07    
    239800   2541.4024      1021.4543      4346.2232     -137161.33    
    239900   2315.2276      1038.606       4355.0456     -137161.15    
    240000   2280.4028     -9137.7742      4382.4461     -137160.34    
    240100   2624.7773      1277.4674      4366.7981     -137157.97    
    240200   2523.3264      2508.3149      4352.0152     -137155.7     
    240300   2455.6508     -2030.4512      4336.1842     -137159.04    
    240400   2404.2513      5182.3723      4317.11       -137159.65    
    240500   2589.4157     -11124.712      4306.8327     -137161.25    
    240600   2661.2407      11733.232      4269.5261     -137154.75    
    240700   2678.2681      6778.8203      4277.9744     -137160.82    
    240800   2518.112       817.31739      4333.0835     -137163.02    
    240900   2373.4398     -13055.753      4392.9323     -137157.72    
    241000   2614.4037      1046.6862      4393.5004     -137157.67    
    241100   2741.6033      6727.4904      4405.5165     -137161.55    
    241200   2383.1833     -7366.5695      4462.1207     -137158.25    
    241300   2310.2105     -6355.0372      4484.9852     -137153.96    
    241400   2510.4576      4620.3518      4457.3211     -137154.64    
    241500   2547.5489      1299.01        4450.7272     -137152.25    
    241600   2470.816      -3746.2479      4453.2475     -137154.47    
    241700   2451.7448     -4842.0081      4431.2268     -137160.74    
    241800   2374.2494     -6115.2868      4363.6189     -137158.23    
    241900   2608.2722      16589.444      4265.48       -137161.33    
    242000   2529.0493      6270.3632      4244.0196     -137160.22    
    242100   2496.0513      3973.9054      4285.1364     -137163.65    
    242200   2244.3448     -11694.305      4367.3626     -137163.92    
    242300   2343.0517     -9082.2177      4378.8713     -137166.22    
    242400   2345.0008      2889.3278      4340.0981     -137155.36    
    242500   2653.9063      12278.639      4312.8679     -137161.39    
    242600   2505.2738      502.82809      4351.893      -137160.41    
    242700   2363.4403     -4008.5614      4406.3901     -137158.94    
    242800   2389.9373      1254.3895      4415.1361     -137154.44    
    242900   2808.8037     -1991.1536      4406.9382     -137157.49    
    243000   2438.3524     -1900.8055      4400.751      -137152.04    
    243100   2405.7648      1333.4445      4377.2998     -137156.68    
    243200   2350.3841      6920.9131      4342.6431     -137157.37    
    243300   2377.9581      2391.6716      4326.9523     -137156.75    
    243400   2789.5998      2648.3004      4318.4139     -137158.97    
    243500   2764.6722      20339.583      4347.8441     -137154.38    
    243600   2559.3147     -10815.047      4483.8196     -137156.66    
    243700   2418.5877     -16838.897      4565.1916     -137153.92    
    243800   2505.8402     -5201.0043      4522.2736     -137155.75    
    243900   2560.2952     -4705.6577      4425.3841     -137157.91    
    244000   2451.4189      6201.2712      4313.6223     -137160.11    
    244100   2351.0232      10373.109      4244.0658     -137163.89    
    244200   2328.2576      716.75516      4235.2253     -137164.31    
    244300   2561.2164      3919.3383      4246.6987     -137162.12    
    244400   2498.6535      8801.1049      4289.5498     -137159.19    
    244500   2495.3947     -2108.0317      4384.7556     -137160.94    
    244600   2351.2926     -7082.8002      4451.6899     -137157.04    
    244700   2745.0598      2834.7643      4456.6185     -137158.18    
    244800   2574.4588      2488.2101      4444.4838     -137152.1     
    244900   2480.9138     -2942.5365      4425.2754     -137154.85    
    245000   2584.377       8044.9809      4392.6905     -137159.41    
    245100   2467.021      -2414.1974      4379.0611     -137157.65    
    245200   2585.7896     -1256.4435      4364.8473     -137160.53    
    245300   2644.3687      1086.758       4358.4        -137160.07    
    245400   2495.5246      3169.1294      4386.8803     -137157.27    
    245500   2345.0723     -5746.9605      4446.089      -137158.7     
    245600   2237.1466     -8027.6737      4467.6836     -137156.1     
    245700   2623.577      -6737.4956      4413.4256     -137157.45    
    245800   2690.1569      2558.4733      4338.5162     -137157.95    
    245900   2604.8988      8830.5202      4316.4686     -137161.55    
    246000   2482.4313     -1717.3851      4349.2325     -137161.66    
    246100   2425.8067     -625.0027       4402.9929     -137157.37    
    246200   2543.6622     -1906.6743      4443.5444     -137156.67    
    246300   2708.1328     -874.11399      4445.1382     -137154.81    
    246400   2963.831       2146.8364      4425.6684     -137154.28    
    246500   2579.6704      14359.523      4410.0019     -137155.04    
    246600   2377.3351     -1588.1513      4444.7235     -137155.7     
    246700   2410.7634     -12941.009      4484.2685     -137158.21    
    246800   2545.6033     -4469.5196      4460.8351     -137157.34    
    246900   2631.8043      7416.0963      4429.7354     -137153.19    
    247000   2668.7428      2818.138       4432.1298     -137157.11    
    247100   2338.7087     -3719.0503      4446.4554     -137152.69    
    247200   2532.204      -2081.5706      4439.2283     -137159.08    
    247300   2374.9443     -6125.9551      4405.8808     -137155.62    
    247400   2608.8385      3350.5443      4331.9166     -137160.64    
    247500   2794.5234      12874.932      4286.4658     -137163.13    
    247600   2491.4749      4319.1118      4305.3276     -137159.16    
    247700   2403.5341     -5117.768       4363.1477     -137162.66    
    247800   2293.824      -12805.656      4407.3945     -137158.18    
    247900   2621.8632      4468.3416      4401.5839     -137158.8     
    248000   2607.2502      1806.1875      4421.9683     -137157.85    
    248100   2327.7948      447.60569      4440.1545     -137152.33    
    248200   2627.5264     -2492.1         4435.3493     -137157.91    
    248300   2788.6077      7256.2762      4416.2449     -137153.84    
    248400   2702.0625     -3456.1261      4431.6102     -137155.4     
    248500   2516.5034     -7131.9676      4429.6411     -137158.66    
    248600   2436.1132     -10888.994      4391.438      -137157.3     
    248700   2440.4801      12720.073      4314.0965     -137155.67    
    248800   2726.5175      9620.2876      4299.1249     -137162.57    
    248900   2384.1805     -4870.3008      4359.8834     -137162.1     
    249000   2213.782      -4571.8975      4386.7707     -137158.47    
    249100   2533.2155     -3034.3779      4361.6068     -137160.39    
    249200   2656.8588      3982.7424      4335.7094     -137161.9     
    249300   2363.2182      2440.0897      4350.7313     -137157.81    
    249400   2319.943       3292.1778      4365.6402     -137159.32    
    249500   2306.3188     -7324.96        4378.3327     -137160.2     
    249600   2610.676      -2366.9768      4356.5658     -137161.92    
    249700   2634.9348      12842.26       4340.9968     -137159.1     
    249800   2358.7406      6900.5693      4382.8539     -137157.63    
    249900   2228.2716     -1248.2983      4440.1089     -137156.1     
    250000   2546.4835     -3119.93        4446.1061     -137156.94    
    250100   2660.3868     -8454.6294      4424.1679     -137155.59    
    250200   2681.9855      3694.1188      4394.2935     -137159.55    
    250300   2461.7524     -4951.9249      4376.3244     -137159.55    
    250400   2418.8895     -4569.4728      4347.0006     -137160.11    
    250500   2688.5475      6921.0241      4309.2762     -137162.45    
    250600   2911.7426      6735.1947      4316.1514     -137158.91    
    250700   2489.0395      11202.582      4389.2277     -137153.51    
    250800   2358.3808     -14829.15       4491.7731     -137154.46    
    250900   2431.0699     -5285.6228      4521.0604     -137153.06    
    251000   2664.6746     -8981.2845      4495.4131     -137154.38    
    251100   2671.0705      304.28016      4411.9901     -137157.12    
    251200   2317.0818      1100.238       4331.8893     -137155.35    
    251300   2475.7196      13139.984      4217.0801     -137162.52    
    251400   2497.3622      15745.105      4125.8221     -137164.09    
    251500   2380.2787      9446.2722      4139.7254     -137162       
    251600   2414.4343      12850.84       4234.1119     -137162.2     
    251700   2640.3379     -6820.6614      4403.9549     -137157.15    
    251800   2574.7955     -15851.717      4551.1905     -137151.78    
    251900   2441.9369     -10682.625      4562.834      -137151.24    
    252000   2387.1938     -3312.4318      4463.5988     -137156.49    
    252100   2402.4299      5905.7812      4323.1141     -137160.48    
    252200   2550.9932      16845.196      4232.7455     -137155.36    
    252300   2616.2709      22798.584      4263.7547     -137153.99    
    252400   2454.9338     -8169.7777      4389.0563     -137156.12    
    252500   2476.1841     -12692.285      4457.6826     -137159.99    
    252600   2268.6934      1781.1329      4438.668      -137153.49    
    252700   2519.8652     -3428.8348      4409.5668     -137157.66    
    252800   2445.1341      3539.8813      4389.2481     -137154.53    
    252900   2550.5211      1007.5191      4377.6614     -137158.75    
    253000   2541.8769     -5400.8539      4377.6564     -137163.57    
    253100   2333.4385     -9786.2564      4353.1705     -137165.78    
    253200   2286.6389      9814.9013      4291.2773     -137164.32    
    253300   2569.1107      16865.332      4283.0583     -137161.41    
    253400   2395.194       3345.4747      4363.8123     -137157.78    
    253500   2413.4315     -8628.2178      4456.9016     -137158.75    
    253600   2407.9659     -6130.2308      4486.3439     -137157.57    
    253700   2567.2475     -5341.8692      4467.7435     -137156.43    
    253800   2732.2175      1167.6019      4427.9301     -137155.1     
    253900   2552.5984      244.55075      4401.1641     -137157.25    
    254000   2493.4338      1390.5579      4379.5765     -137160.07    
    254100   2541.6662      3037.5418      4356.4657     -137162.6     
    254200   2316.2092      5408.739       4349.2907     -137158.65    
    254300   2474.7371      8933.1248      4363.1074     -137160.07    
    254400   2714.6402     -6955.8281      4419.6259     -137158.14    
    254500   2749.6322     -7350.6996      4474.3888     -137155.95    
    254600   2530.2608     -10648.923      4484.0037     -137156.34    
    254700   2525.7189     -6199.5946      4424.9078     -137161.14    
    254800   2555.8626     -4743.5956      4315.3848     -137162.39    
    254900   2558.0855      9542.1466      4200.404      -137165.13    
    255000   2349.1299      19261.974      4170.0563     -137165.69    
    255100   2434.4778     -10437.35       4229.0687     -137166.45    
    255200   2643.5538      7520.033       4254.1856     -137162.62    
    255300   2509.6821      8973.6322      4308.7122     -137159.77    
    255400   2355.2693      116.97051      4403.168      -137157.62    
    255500   2571.5443     -14793.396      4465.8409     -137158.83    
    255600   2608.6923     -2418.3356      4439.1572     -137155.14    
    255700   2571.5721      1310.2557      4373.3802     -137159.21    
    255800   2414.62        6511.2193      4299.7768     -137163.91    
    255900   2453.0431      7781.5603      4264.2331     -137163.43    
    256000   2445.1094      4442.0458      4297.4062     -137160.21    
    256100   2589.1777      335.96828      4366.6645     -137159.6     
    256200   2798.0862     -1133.3444      4441.0122     -137156.23    
    256300   2655.4535     -7485.2142      4519.7286     -137153.46    
    256400   2380.8699     -16255.305      4545.9607     -137155.11    
    256500   2452.6757     -3912.063       4460.0094     -137156.31    
    256600   2630.5653      8787.9843      4371.0737     -137158.01    
    256700   2522.9662      11464.129      4339.1422     -137158.54    
    256800   2227.8208      4500.7698      4355.1553     -137158.14    
    256900   2340.274      -2266.677       4378.0293     -137161.77    
    257000   2391.2964      7811.7184      4391.9436     -137159.94    
    257100   2585.3266     -3197.0146      4432.3554     -137162.8     
    257200   2558.6696     -3634.6847      4470.7634     -137160.07    
    257300   2462.5238     -7738.0399      4487.3432     -137155.31    
    257400   2553.3817     -2512.6896      4439.393      -137155.86    
    257500   2604.06        11615.352      4369.8866     -137156.01    
    257600   2380.784       2947.2741      4313.0164     -137157.15    
    257700   2397.1401      8261.7153      4281.5257     -137161.49    
    257800   2387.7185      4434.3685      4307.6023     -137160.38    
    257900   2733.659      -5763.3047      4336.1885     -137164.04    
    258000   2775.634      -6352.8905      4350.0593     -137159.78    
    258100   2469.353      -426.4201       4349.14       -137159.17    
    258200   2391.5132     -559.67472      4340.4501     -137162.65    
    258300   2499.4102     -3137.5126      4324.7331     -137163.87    
    258400   2618.6188      811.35043      4293.0073     -137161.65    
    258500   2518.4997      16620.865      4291.9626     -137155.62    
    258600   2363.3515      4745.7662      4373.4302     -137153.12    
    258700   2365.9652     -17043.564      4459.1341     -137158.61    
    258800   2398.2983     -6331.9981      4451.184      -137157.78    
    258900   2611.8174      5943.6086      4365.7799     -137157.59    
    259000   2675.7084      6955.2627      4294.0178     -137159.2     
    259100   2341.5196      5157.3876      4284.3148     -137160.18    
    259200   2324.5364     -6081.8536      4305.5295     -137160.36    
    259300   2388.1861      3061.2418      4306.5186     -137158.79    
    259400   2677.4175     -1067.0467      4329.3739     -137164.46    
    259500   2398.9513      6969.5786      4392.8726     -137155.87    
    259600   2660.8903      2115.0282      4489.2057     -137157.27    
    259700   2521.6774     -7317.2734      4584.0463     -137149.92    
    259800   2571.04       -6358.3865      4639.0395     -137152.34    
    259900   2354.7942     -13378.895      4625.2816     -137150.12    
    260000   2592.3987     -10258.499      4487.982      -137159.8     
    260100   2560.3184      5277.9927      4324.8666     -137164.68    
    260200   2457.8786      5040.6015      4231.5959     -137168.03    
    260300   2262.0565      12168.139      4206.6883     -137163.34    
    260400   2596.8612      2732.0638      4242.4367     -137164.7     
    260500   2731.3066     -54.937276      4303.0357     -137161.74    
    260600   2540.2147     -3220.6139      4367.5958     -137158.74    
    260700   2543.5897     -1041.742       4396.9131     -137160.19    
    260800   2638.2165     -8480.3683      4409.9148     -137162.69    
    260900   2472.9236     -6492.9608      4393.2883     -137159.15    
    261000   2514.1191     -5368.9189      4357.2324     -137158.71    
    261100   2458.3271      12566.85       4323.8754     -137154.94    
    261200   2591.1967      1308.8331      4353.4036     -137156.82    
    261300   2611.6205      548.13402      4410.6426     -137160.11    
    261400   2311.9871     -8865.7462      4476.0722     -137158.57    
    261500   2286.4307     -9432.2283      4466.4916     -137157.12    
    261600   2700.5454     -2676.0653      4371.0701     -137160.25    
    261700   2669.7793      3423.423       4276.0694     -137161.46    
    261800   2520.0191      4088.0788      4232.8545     -137162.09    
    261900   2514.9483      6128.0414      4244.0415     -137165.21    
    262000   2541.8254     -4622.4737      4301.568      -137167.1     
    262100   2512.9767     -5065.7391      4341.3934     -137162.88    
    262200   2736.2052     -2288.144       4357.4224     -137160.34    
    262300   2686.4199      1946.4612      4380.9507     -137159.15    
    262400   2327.1499      4719.532       4430.809      -137157.08    
    262500   2311.1841     -13055.344      4462.5438     -137155.99    
    262600   2473.1107     -1595.5641      4414.6947     -137156.18    
    262700   2599.5486      381.05881      4354.2763     -137159.54    
    262800   2496.8229      10206.281      4310.2178     -137160.23    
    262900   2307.9471     -1116.0762      4296.1451     -137159.3     
    263000   2334.3224      8779.0175      4273.9992     -137164.25    
    263100   2347.999      -859.13999      4288.263      -137165.96    
    263200   2433.9366      6984.5513      4308.177      -137160.12    
    263300   2506.0647      6851.3445      4367.1679     -137156.19    
    263400   2627.687      -877.00495      4455.2901     -137156.92    
    263500   2741.1596     -17274.01       4517.591      -137159.5     
    263600   2420.7516     -19978.35       4493.4061     -137159.31    
    263700   2433.2754     -7262.9686      4375.0461     -137163.34    
    263800   2659.4585      3847.6584      4267.6713     -137163.38    
    263900   2572.955       6564.0787      4234.7354     -137160.78    
    264000   2556.0226      8063.8746      4254.7686     -137162.28    
    264100   2522.4491      864.44702      4319.2974     -137164.93    
    264200   2252.897      -7632.1567      4377.4551     -137161.97    
    264300   2382.0255      4601.2106      4388.7526     -137162.88    
    264400   2563.2792     -7555.1401      4394.7763     -137159.07    
    264500   2645.6491     -859.29769      4373.0753     -137158       
    264600   2465.4449     -2986.3028      4363.2415     -137155.75    
    264700   2335.9208     -2552.5781      4346.3844     -137159.42    
    264800   2294.1841      1492.2666      4303.9674     -137161.67    
    264900   2625.8215      7635.8803      4250.8494     -137159.97    
    265000   2608.9457      10210.514      4245.215      -137158.04    
    265100   2563.7578     -2677.446       4312.9586     -137162.66    
    265200   2478.346      -7874.3444      4396.0828     -137163.05    
    265300   2539.5372     -3384.8993      4451.8248     -137160.4     
    265400   2761.8174      7412.1125      4498.2757     -137157.62    
    265500   2511.3735     -18586.704      4557.2488     -137153.76    
    265600   2181.0579     -205.52653      4502.8775     -137154.13    
    265700   2464.7571     -3932.2024      4385.4116     -137158.08    
    265800   2714.0617      9677.915       4251.6476     -137160.67    
    265900   2607.3223      13133.518      4208.4746     -137165.15    
    266000   2535.3581     -511.96547      4268.3255     -137166.69    
    266100   2413.8077     -3494.0884      4360.505      -137162.06    
    266200   2414.3881     -555.70871      4443.2048     -137155.1     
    266300   2535.7036     -9099.3783      4487.6757     -137153.55    
    266400   2617.0553     -5714.7336      4454.1469     -137157.84    
    266500   2476.3748      4839.8785      4388.0195     -137157.08    
    266600   2519.4047      3555.6348      4337.3538     -137161.26    
    266700   2439.5853      3606.3376      4318.0671     -137160.89    
    266800   2651.7742      2433.9121      4324.1929     -137164.72    
    266900   2882.0397      4165.9353      4355.0873     -137161.3     
    267000   2539.1299     -6247.1648      4426.8321     -137153.1     
    267100   2275.117      -4277.0171      4463.768      -137152.9     
    267200   2454.3254     -6771.9391      4456.7934     -137159.16    
    267300   2477.6416      4024.6908      4418.0496     -137158.21    
    267400   2544.0882      1247.0478      4388.3231     -137156.52    
    267500   2917.1178      10104.57       4361.7197     -137154.65    
    267600   2705.7759     -112.02197      4397.4855     -137158.12    
    267700   2438.6085     -9627.8752      4457.9325     -137156.66    
    267800   2523.8348     -4451.9952      4463.4655     -137157.62    
    267900   2743.6694     -8752.7016      4429.0203     -137159.11    
    268000   2585.4058     -1304.2849      4383.609      -137157.38    
    268100   2268.8035     -1043.4347      4337.1902     -137157.93    
    268200   2462.4259     -409.35176      4269.5766     -137162.57    
    268300   2573.3247      15118.13       4213.9586     -137163.35    
    268400   2499.0781     -1209.6022      4238.3968     -137162.04    
    268500   2519.9331     -2319.4229      4294.244      -137163.97    
    268600   2616.3549     -3027.7527      4364.5204     -137160.8     
    268700   2647.7943     -1536.146       4418.2003     -137156.93    
    268800   2633.8233     -996.36842      4458.2919     -137156.49    
    268900   2272.4388     -2877.1175      4477.9671     -137155.31    
    269000   2290.526      -7157.2991      4478.8283     -137157.18    
    269100   2541.8146     -6701.5413      4427.1651     -137159.95    
    269200   2758.6425     -2132.1795      4346.4398     -137165.21    
    269300   2384.7386      10500.144      4273.658      -137159.15    
    269400   2456.1569      2143.0929      4265.3449     -137163.01    
    269500   2483.8935      2011.0861      4314.9606     -137163.79    
    269600   2604.5217     -1818.1846      4401.9512     -137160.64    
    269700   2628.0234     -9150.512       4494.5321     -137154.39    
    269800   2461.7632      11774.436      4558.7133     -137150.85    
    269900   2439.7467     -20800.34       4633.5772     -137152.89    
    270000   2478.3087     -19096.192      4584.6329     -137151.47    
    270100   2673.1352      2510.4037      4425.5771     -137150.06    
    270200   2776.0869      20164.127      4302.5869     -137157.36    
    270300   2602.6889     -3826.0651      4318.3144     -137161.61    
    270400   2500.489      -3269.4364      4360.6232     -137161.02    
    270500   2483.8559     -3372.1994      4384.9602     -137158.24    
    270600   2587.7382      9330.5465      4399.5536     -137156.04    
    270700   2663.8333     -1692.1894      4438.7221     -137155.24    
    270800   2534.7063     -10169.987      4467.0203     -137156.6     
    270900   2399.0187     -6473.4083      4448.6931     -137159.82    
    271000   2369.504       9461.9109      4391.1933     -137157.37    
    271100   2642.6508      5749.0984      4349.7418     -137159.4     
    271200   2535.3297     -328.57421      4332.4947     -137157.14    
    271300   2274.2084     -206.09485      4305.8661     -137158.69    
    271400   2613.8973     -1184.1378      4269.6579     -137168.8     
    271500   2531.8475      551.74671      4241.7629     -137167.46    
    271600   2405.515       12817.513      4230.5179     -137168.3     
    271700   2206.26        427.85323      4267.913      -137164.32    
    271800   2429.513       6941.6998      4314.9427     -137161.52    
    271900   2582.3075     -1803.7404      4389.1624     -137161.21    
    272000   2463.4399     -8327.8097      4442.5886     -137157.42    
    272100   2485.0777     -3220.9611      4464.6291     -137155.54    
    272200   2667.1466      4138.1441      4471.2653     -137152.14    
    272300   2682.6974     -4519.8385      4478.5474     -137152.67    
    272400   2467.7833     -2229.1425      4441.914      -137158       
    272500   2524.4104      836.07892      4392.0612     -137161.54    
    272600   2614.5746      1750.6636      4359.8443     -137165.42    
    272700   2384.4622     -1345.8949      4332.7752     -137161.41    
    272800   2386.1262     -1155.7462      4300.3498     -137161.66    
    272900   2737.1694      190.51784      4272.8273     -137165.81    
    273000   2531.233       14683.015      4261.047      -137159.36    
    273100   2324.9866     -6005.2022      4302.5164     -137160.65    
    273200   2349.4737     -5529.7238      4324.1858     -137163.54    
    273300   2558.3482      5320.3813      4295.9115     -137160.23    
    273400   2633.3123      16920.845      4287.5262     -137158.7     
    273500   2522.6565      4103.0777      4337.6652     -137161.61    
    273600   2435.196      -9405.8713      4394.4405     -137162.8     
    273700   2402.2989     -3366.0811      4397.9535     -137159.53    
    273800   2882.3996     -204.6322       4346.2111     -137163.04    
    273900   2655.1313      7689.3846      4305.6598     -137157.47    
    274000   2643.7532     -1793.7876      4322.1836     -137162.49    
    274100   2545.8477      1414.1673      4364.4525     -137161.55    
    274200   2552.3702     -2720.1805      4417.3358     -137161.28    
    274300   2459.5085     -8628.8122      4462.8853     -137154.91    
    274400   2659.0278     -316.68394      4469.6756     -137152.01    
    274500   2616.158       1370.3308      4447.0555     -137153.13    
    274600   2510.2057     -1957.1433      4394.2963     -137156.24    
    274700   2488.8678      12199.585      4330.563      -137157.34    
    274800   2544.7335      4487.0586      4310.9141     -137161.1     
    274900   2455.3789     -5432.3732      4327.7265     -137164.56    
    275000   2274.2182     -5599.8228      4342.2445     -137164.96    
    275100   2348.973       6106.9304      4322.657      -137159.81    
    275200   2593.6805      6683.6064      4295.5453     -137159.24    
    275300   2542.4785      10452.482      4302.9822     -137160.13    
    275400   2353.9304     -9301.8037      4376.6695     -137159.72    
    275500   2237.8128     -3457.71        4428.7398     -137155.82    
    275600   2629.3953     -6530.2557      4445.3433     -137156.99    
    275700   2717.634       6593.0783      4437.2075     -137158.18    
    275800   2342.2426      1979.0678      4463.7006     -137152.26    
    275900   2447.5729     -7455.6578      4466.0264     -137157.43    
    276000   2402.6252     -3611.2776      4413.1353     -137156.4     
    276100   2674.9804      4572.3541      4316.4609     -137162.33    
    276200   2590.4789      1093.2825      4227.7885     -137165.62    
    276300   2330.2633      7934.7893      4169.084      -137168.59    
    276400   2399.5091      7752.4304      4158.6762     -137167.09    
    276500   2589.4352      10846.495      4202.9593     -137165.61    
    276600   2505.81       -4281.4262      4324.5783     -137161.27    
    276700   2402.0744      2309.9259      4450.7826     -137152.83    
    276800   2668.3428     -3791.1897      4556.257      -137150.85    
    276900   2558.941      -6538.7723      4626.1218     -137148.44    
    277000   2548.0152     -6161.2694      4626.4801     -137152.02    
    277100   2519.4488     -8592.1987      4549.7877     -137157.26    
    277200   2473.495      -2575.3254      4420.7678     -137156.07    
    277300   2777.0322      6846.0402      4290.4829     -137161.33    
    277400   2472.3648      10288.498      4228.3968     -137163.11    
    277500   2313.2924      7244.7992      4248.862      -137162.7     
    277600   2457.0922     -11519.935      4305.2191     -137161.8     
    277700   2529.9547      3667.0224      4305.3024     -137156.96    
    277800   2603.2284      10073.051      4287.6664     -137158.17    
    277900   2353.2619      4476.3041      4302.1636     -137155.79    
    278000   2303.2186     -2823.0005      4319.2797     -137160.95    
    278100   2319.5744     -2433.9562      4312.8112     -137163.49    
    278200   2630.9691      18936.937      4323.3886     -137162.71    
    278300   2567.3253     -9961.596       4420.4754     -137157.9     
    278400   2526.6654     -7455.6629      4475.7682     -137156.34    
    278500   2547.9948     -8791.8141      4472.7412     -137153.77    
    278600   2778.8126     -4163.2891      4411.004      -137154.16    
    278700   2549.1486      15476.722      4350.9744     -137153.43    
    278800   2612.5813     -8050.5423      4338.3388     -137163.87    
    278900   2468.9239      1020.309       4299.8974     -137162.57    
    279000   2412.0016      7193.6289      4272.0529     -137160.06    
    279100   2507.7238      13546.386      4281.4881     -137160.09    
    279200   2566.8149      6901.7053      4360.7351     -137155.69    
    279300   2571.7642     -517.49292      4459.7416     -137151.78    
    279400   2634.1879     -4564.5696      4524.3539     -137155.87    
    279500   2252.6177     -3943           4537.6039     -137155.05    
    279600   2455.6257     -2601.9777      4498.3291     -137159.79    
    279700   2571.0712      3958.3768      4448.9891     -137158.61    
    279800   2639.6468     -3639.1605      4441.273      -137159.8     
    279900   2459.7786      6292.0316      4462.1747     -137157.18    
    280000   2521.4715     -14064.86       4489.7326     -137159.25    
    280100   2527.257      -11981.068      4437.8231     -137156.57    
    280200   2812.8581      4750.9967      4351.0785     -137155.29    
    280300   2632.5167      4571.569       4315.2274     -137160.73    
    280400   2144.0984      11288.473      4319.3202     -137154.28    
    280500   2447.5546     -9023.0851      4348.7673     -137159.57    
    280600   2643.3785      3811.916       4334.1504     -137160.04    
    280700   2740.9328     -5676.7965      4318.7113     -137163.53    
    280800   2327.6765     -2855.6495      4287.0292     -137161.72    
    280900   2438.6717      6311.888       4250.3066     -137164.27    
    281000   2598.4142     -336.5533       4246.9292     -137164.9     
    281100   2545.4581     -1039.224       4271.0633     -137163.3     
    281200   2485.1262     -7546.2824      4319.7832     -137160.56    
    281300   2747.0535     -2630.6927      4345.1869     -137155.32    
    281400   2740.0131     -4074.0617      4372.2679     -137158.3     
    281500   2494.0943      1887.2185      4392.8609     -137159.08    
    281600   2428.9222      291.06786      4408.8901     -137158.73    
    281700   2496.1766      2174.2717      4424.462      -137156.19    
    281800   2778.3634     -3585.6461      4444.8986     -137156.51    
    281900   2624.303      -3571.4678      4446.9049     -137154.78    
    282000   2709.037      -8644.531       4416.0053     -137159.91    
    282100   2563.3795      7615.441       4361.9424     -137159.08    
    282200   2178.9299      5890.8005      4336.8786     -137150.83    
    282300   2567.277       5582.5791      4293.8684     -137160.2     
    282400   2766.7458      10598.804      4282.45       -137158.45    
    282500   2733.0711     -4956.8554      4354.7112     -137160.83    
    282600   2391.0782     -6163.2155      4465.8336     -137158.73    
    282700   2321.9564     -15422.502      4536.0988     -137153.8     
    282800   2532.4601     -3359.3573      4490.2813     -137155.24    
    282900   2598.5822      3851.2084      4391.4833     -137157.85    
    283000   2344.3331      8333.3614      4318.3683     -137152.72    
    283100   2477.2903      9572.6832      4283.8627     -137160.6     
    283200   2276.0693     -5180.7914      4284.3632     -137165.95    
    283300   2326.1785     -1144.5168      4276.5656     -137166.08    
    283400   2510.3164      106.93885      4265.6033     -137165.59    
    283500   2502.2823      9171.4112      4266.7531     -137161.9     
    283600   2543.0775     -2547.4569      4307.6422     -137161.2     
    283700   2468.7        -5840.5627      4339.6594     -137158.07    
    283800   2683.0135      3962.2985      4338.7523     -137163.32    
    283900   2427.6729     -3527.9968      4360.2395     -137160.33    
    284000   2408.5563     -216.45872      4378.8276     -137163.11    
    284100   2601.241      -3537.5952      4396.5706     -137164.57    
    284200   2630.7413     -3134.9363      4397.2502     -137156.62    
    284300   2718.8627     -131.56195      4396.2479     -137158.41    
    284400   2534.441       172.69798      4394.5734     -137158.93    
    284500   2489.2262      4991.7446      4411.8217     -137158       
    284600   2660.0591     -6112.4529      4470.1332     -137161.39    
    284700   2431.5079     -8879.8797      4513.5288     -137158.08    
    284800   2142.0878      3336.418       4492.216      -137155.15    
    284900   2443.8869     -1840.1857      4428.6627     -137159.79    
    285000   2609.3987      7068.0359      4350.1563     -137157.08    
    285100   2646.002       6326.0148      4300.5597     -137158.7     
    285200   2499.2636      5811.8645      4299.008      -137161.96    
    285300   2414.5802      165.13916      4333.1536     -137164.11    
    285400   2386.6975     -554.84409      4384.6261     -137160.82    
    285500   2462.5972     -8432.5993      4431.4513     -137156.86    
    285600   2578.5701     -1153.1825      4419.6091     -137156.18    
    285700   2395.5656     -4420.4944      4392.4179     -137155.17    
    285800   2249.7523      5285.7166      4350.9639     -137158.93    
    285900   2420.504       6774.0798      4303.9578     -137162.4     
    286000   2892.8756      7692.722       4286.5306     -137162.88    
    286100   2780.3812     -2329.8145      4337.3146     -137162.15    
    286200   2400.9603     -9550.1019      4415.6218     -137159.71    
    286300   2475.9637     -17391.81       4449.974      -137161.75    
    286400   2525.4663      2902.0292      4395.949      -137156.86    
    286500   2551.7695      15192.883      4337.4217     -137154.57    
    286600   2581.6747      393.61402      4358.9793     -137158.94    
    286700   2266.1934     -3544.6739      4402.6263     -137160.72    
    286800   2163.7784      5475.4098      4392.3666     -137157.93    
    286900   2375.4796      4269.2869      4368.6209     -137158.01    
    287000   2502.9301      2100.8845      4384.2958     -137156.81    
    287100   2503.6362      306.76855      4418.5864     -137155.11    
    287200   2489.7252     -3079.4272      4437.8911     -137155.48    
    287300   2448.7976     -9439.9459      4427.532      -137160.62    
    287400   2314.655      -3235.9336      4381.8288     -137160.63    
    287500   2511.9911      1744.5719      4321.777      -137159.63    
    287600   2560.7681      14736.534      4298.7738     -137156.49    
    287700   2438.924      -947.23848      4359.293      -137154.73    
    287800   2529.4006     -4331.7342      4423.1038     -137158.46    
    287900   2415.1827     -4957.3628      4465.9821     -137156.27    
    288000   2848.5521     -1783.2989      4493.9044     -137158.69    
    288100   2692.7431     -2676.5382      4516.1107     -137151.33    
    288200   2495.962      -4984.238       4512.3107     -137154.39    
    288300   2591.324      -9551.2442      4465.0431     -137161.15    
    288400   2644.9467     -313.32889      4373.1098     -137165.65    
    288500   2360.7732      5427.7377      4278.6184     -137160.51    
    288600   2586.6472      17751.995      4212.0192     -137163.33    
    288700   2695.4894      423.34734      4218.3681     -137165.84    
    288800   2369.0243      3751.7043      4276.9719     -137162.73    
    288900   2374.4674     -8019.9529      4353.7685     -137163.97    
    289000   2507.3796     -1622.1373      4380.9554     -137158.66    
    289100   2552.006      -2061.4769      4379.5701     -137156.51    
    289200   2501.0521      880.6205       4364.0938     -137158.25    
    289300   2477.6266     -1011.2917      4342.3006     -137160.28    
    289400   2362.7073      8578.5418      4316.323      -137159.44    
    289500   2463.6039      1871.9902      4321.0684     -137162.01    
    289600   2650.9326      3402.1428      4343.0596     -137161.98    
    289700   2573.2746     -1104.2034      4380.5546     -137156.37    
    289800   2543.1824      865.21673      4411.9704     -137156.89    
    289900   2297.8223     -8538.9969      4440.6742     -137157.38    
    290000   2226.3504      3.9799284      4432.1747     -137156.38    
    290100   2468.1068      1682.8097      4414.3996     -137154.51    
    290200   2613.9597     -4822.5613      4403.9154     -137156.56    
    290300   2500.2508      8084.5482      4365.7073     -137158.04    
    290400   2455.223      -5006.0892      4354.1757     -137160.5     
    290500   2407.6613     -3629.3067      4306.6393     -137161.63    
    290600   2299.6321      6023.3837      4222.186      -137163.43    
    290700   2249.9239      2629.3969      4164.7614     -137166.41    
    290800   2395.5549      16312.381      4133.3031     -137164.37    
    290900   2426.6281      12817.692      4193.4124     -137159.31    
    291000   2538.7834     -6241.6986      4328.8628     -137162.32    
    291100   2463.7201     -3668.3902      4446.9451     -137157.38    
    291200   2801.919      -5962.8318      4511.2867     -137156.18    
    291300   2653.7979     -1144.4983      4532.0641     -137151.96    
    291400   2605.8897     -14283.442      4523.462      -137156.07    
    291500   2396.5257     -9701.5298      4439.3421     -137155.25    
    291600   2452.0637      12298.347      4307.8722     -137158.4     
    291700   2599.3219      9584.0624      4239.3028     -137166.63    
    291800   2230.1474      6673.0091      4253.0925     -137164.88    
    291900   2286.615       4339.4175      4303.7445     -137162.51    
    292000   2437.0885     -625.9568       4354.5134     -137160.06    
    292100   2413.365      -1278.7707      4385.522      -137154.4     
    292200   2500.9505      1257.0353      4400.11       -137153.67    
    292300   2716.9957     -3158.9796      4409.5099     -137158.9     
    292400   2322.9219     -9860.5281      4419.4041     -137155.89    
    292500   2355.2507     -2712.8757      4375.3553     -137161.99    
    292600   2427.455      -3301.1619      4314.4479     -137160.86    
    292700   2769.0353      4573.1464      4255.6808     -137164.45    
    292800   2463.2989      14865.996      4257.1116     -137155.89    
    292900   2266.7637     -1954.9357      4331.6853     -137159.65    
    293000   2254.6636     -3698.5225      4380.3207     -137157.38    
    293100   2482.1791     -1825.9599      4363.6382     -137155.44    
    293200   2577.0551      3261.8729      4325.5111     -137156.75    
    293300   2463.5907      10688.736      4327.3763     -137157.62    
    293400   2398.6171     -9275.3052      4377.4307     -137161.98    
    293500   2309.3231     -14310.164      4366.4304     -137162.85    
    293600   2342.8655      8598.869       4269.9808     -137162.93    
    293700   2700.0405      11983.786      4197.8882     -137164.42    
    293800   2589.3669      11992.947      4199.5937     -137162.51    
    293900   2352.7001      1733.2959      4264.6175     -137162.41    
    294000   2455.23        359.05631      4321.1424     -137165       
    294100   2512.3765      1553.7978      4364.8859     -137157.09    
    294200   2648.5124      673.76617      4410.9917     -137157.5     
    294300   2515.6045     -1999.0652      4437.5195     -137157.98    
    294400   2330.5666     -13825.174      4426.2437     -137157       
    294500   2561.1605      2738.1757      4349.621      -137160.73    
    294600   2809.2352      7318.7671      4306.4592     -137159.05    
    294700   2714.3422      6157.2283      4354.1772     -137160.3     
    294800   2341.5005     -14126.987      4454.8257     -137157.77    
    294900   2381.7435     -6313.6222      4490.1399     -137155.66    
    295000   2554.5296     -1300.0903      4471.4511     -137153.91    
    295100   2686.1177      1392.0208      4441.9457     -137156.39    
    295200   2501.1262     -2906.0812      4432.586      -137157.83    
    295300   2448.5926     -5291.1764      4403.3815     -137160.29    
    295400   2471.8041      2655.9579      4353.5611     -137160.15    
    295500   2518.3358     -2601.5521      4317.4734     -137159.64    
    295600   2808.3595      8169.037       4297.6034     -137163.96    
    295700   2531.1121      4481.3132      4339.186      -137162.16    
    295800   2250.6715     -1290.3367      4404.518      -137160.26    
    295900   2440.2103     -5873.3578      4443.3795     -137160.64    
    296000   2576.9963     -3719.9053      4446.6397     -137159.48    
    296100   2473.9866     -3683.1623      4436.2943     -137155.7     
    296200   2573.3183     -1135.6732      4394.5063     -137159.65    
    296300   2317.9972      5465.507       4336.5056     -137155.57    
    296400   2488.5537      488.2841       4276.9432     -137161.33    
    296500   2470.8808      18329.697      4226.252      -137163.4     
    296600   2289.7303      6842.2425      4269.2733     -137163.95    
    296700   2202.6381      11242.725      4352.5076     -137156.94    
    296800   2594.9736     -7471.8762      4467.6248     -137159.46    
    296900   2589.0419     -3108.6962      4547.0663     -137157.87    
    297000   2522.3294     -10908.306      4594.1357     -137159.01    
    297100   2514.5608     -3785.9195      4582.1588     -137158.47    
    297200   2679.8069     -1638.5576      4545.2978     -137156.14    
    297300   2457.1697     -1649.7607      4511.5602     -137147.99    
    297400   2581.3971     -6117.4506      4455.2777     -137155.79    
    297500   2288.0745      2023.738       4363.3685     -137157.73    
    297600   2596.2907      6515.5663      4280.2684     -137166.16    
    297700   2436.1485      7184.8275      4245.2674     -137161.72    
    297800   2444.1761      8419.8406      4258.055      -137162.56    
    297900   2396.3142     -2048.9029      4306.3882     -137162.04    
    298000   2381.4396      11860.903      4334.6241     -137157.06    
    298100   2611.2275      7397.7425      4381.376      -137158.82    
    298200   2562.4867     -5059.1344      4448.9112     -137159.19    
    298300   2465.8736     -16250.863      4472.669      -137160.55    
    298400   2351.6337      487.5544       4415.5762     -137162.95    
    298500   2382.74       -4984.5198      4357.3724     -137164.83    
    298600   2581.3975      1602.8191      4316.106      -137161.49    
    298700   2753.5466      5166.2398      4287.6176     -137163.77    
    298800   2540.8279      4657.3786      4299.376      -137161.81    
    298900   2367.9747      7625.3053      4342.1852     -137159.67    
    299000   2351.9203     -3083.6044      4391.1834     -137156.27    
    299100   2535.7549      3169.6226      4417.0013     -137154.82    
    299200   2918.3964      2784.6359      4469.0498     -137152.68    
    299300   2597.8472     -2347.7076      4540.0454     -137150.62    
    299400   2529.6354     -11058.384      4582.6177     -137154.44    
    299500   2414.9727     -4356.7153      4566.2842     -137152.89    
    299600   2691.1001     -2867.7316      4514.4428     -137156.96    
    299700   2638.5962     -7218.7566      4443.5622     -137156.27    
    299800   2486.6252     -1566.9378      4330.2288     -137162.47    
    299900   2443.1438      12582.64       4223.3783     -137164.83    
    300000   2504.3278      11320.867      4193.7473     -137168.18    
    300100   2335.784       1845.8354      4222.6891     -137167.76    
    300200   2210.1743      1380.9356      4248.0757     -137165.38    
    300300   2411.2854      137.17087      4264.8999     -137160.42    
    300400   2609.3388      7467.2019      4297.7923     -137161.89    
    300500   2413.2907      2778.5302      4378.7872     -137153.65    
    300600   2485.5708     -8448.5606      4449.6217     -137151.13    
    300700   2618.2049      4932.0738      4469.4603     -137150.57    
    300800   2505.3319     -4378.7923      4496.5164     -137151.49    
    300900   2350.2136     -256.07065      4493.2256     -137155.62    
    301000   2341.3317     -9674.753       4442.8451     -137155.16    
    301100   2561.3367      18528.223      4339.1008     -137156.52    
    301200   2655.7661      8391.9216      4333.7157     -137160.73    
    301300   2227.302      -13303.531      4387.036      -137159.87    
    301400   2435.2326      4357.9089      4366.2733     -137161.2     
    301500   2701.1197     -2842.142       4350.2259     -137163.7     
    301600   2483.0712      4314.9649      4341.7503     -137160.83    
    301700   2315.9326      974.06669      4354.0565     -137161.45    
    301800   2264.6233     -2972.2154      4371.1138     -137163.84    
    301900   2319.2284     -1131.8964      4375.8704     -137161.78    
    302000   2600.1157      1251.7994      4363.6551     -137159.57    
    302100   2470.8784      7637.1704      4360.9094     -137155.39    
    302200   2468.8372     -4540.8616      4382.7437     -137161.02    
    302300   2322.5075     -7340.6371      4369.5972     -137160.13    
    302400   2564.4172      2085.2027      4321.1361     -137160.65    
    302500   2767.6493     -2288.2688      4298.1997     -137163.71    
    302600   2502.7695      8331.1331      4298.7889     -137161.78    
    302700   2317.9947      1855.87        4332.1649     -137157.86    
    302800   2490.7532      12083.35       4368.3615     -137157.22    
    302900   2759.4071     -5118.7191      4428.8477     -137160.31    
    303000   2585.7351     -8577.7528      4448.8892     -137159.7     
    303100   2206.4616      1371.9048      4430.8991     -137155.98    
    303200   2348.0052      101.60954      4394.1017     -137161.07    
    303300   2582.2021      2889.1289      4354.6615     -137156.89    
    303400   2671.4542      1990.1027      4350.1561     -137156.93    
    303500   2503.6715     -8624.0076      4371.9167     -137158.28    
    303600   2453.2967      1357.3774      4359.6644     -137160.74    
    303700   2474.0867     -4009.1922      4336.2216     -137161.51    
    303800   2454.4448      4771.8822      4308.4771     -137159.51    
    303900   2488.6822      14499          4312.6888     -137156.85    
    304000   2744.8591     -9877.255       4384.143      -137162.57    
    304100   2476.9586     -3495.1989      4440.0663     -137159.67    
    304200   2302.8704      3669.3943      4450.6611     -137160.08    
    304300   2397.3795     -6996.764       4455.7873     -137159.79    
    304400   2560.2509     -2536.8424      4437.3422     -137154.44    
    304500   2638.1148      5310.2936      4411.0625     -137156.4     
    304600   2406.2643     -3141.0642      4422.2625     -137154.79    
    304700   2398.2414     -5327.9802      4418.7931     -137158.13    
    304800   2308.3611      1482.1377      4371.3399     -137157.95    
    304900   2531.178       5237.3148      4316.7327     -137163.7     
    305000   2600.6778      8965.3331      4277.53       -137165.94    
    305100   2473.9047      52.323568      4303.179      -137162.65    
    305200   2448.5576     -493.28427      4344.516      -137156.51    
    305300   2671.7922      3872.4378      4386.7256     -137156.14    
    305400   2433.4478     -10086.045      4447.0978     -137153.48    
    305500   2399.3312     -522.57326      4457.4999     -137156.58    
    305600   2385.1684     -11241.864      4427.9681     -137155.81    
    305700   2505.0409     -1444.79        4332.0189     -137157.23    
    305800   2533.0665      14857.117      4240.0525     -137159.15    
    305900   2331.4706      9443.6297      4225.4092     -137158.99    
    306000   2541.5019     -1678.785       4261.8046     -137165.33    
    306100   2449.21        964.96846      4307.184      -137162.31    
    306200   2564.2276     -6026.7924      4337.6498     -137163.48    
    306300   2562.956       1863.7502      4347.8303     -137159.21    
    306400   2576.0663      7110.0975      4376.4775     -137152.37    
    306500   2594.8778      2161.3653      4428.1285     -137155.29    
    306600   2204.0021     -8043.1473      4466.0728     -137153.97    
    306700   2486.6577     -14106.35       4442.0982     -137159.45    
    306800   2645.1751      7685.8827      4362.5052     -137159.3     
    306900   2552.6782     -7484.1174      4305.8828     -137160.96    
    307000   2208.3977      5456.3182      4247.5187     -137158.09    
    307100   2384.3791      23059.766      4222.2029     -137161.4     
    307200   2463.2057      1291.813       4297.5905     -137162.36    
    307300   2538.7583     -8354.8329      4380.9646     -137161.67    
    307400   2742.3045     -10242.522      4428.1727     -137159.59    
    307500   2631.2256     -2916.0429      4426.057      -137153.75    
    307600   2520.6091      1792.5133      4384.7403     -137153.4     
    307700   2414.5407      10356.291      4348.8948     -137152.89    
    307800   2565.9718     -958.05336      4356.0891     -137160.3     
    307900   2299.0217     -1707.1632      4368.4416     -137158.66    
    308000   2457.2838     -4573.1549      4389.6146     -137161.75    
    308100   2505.4365     -9215.3739      4402.5737     -137155.6     
    308200   2833.5222      2717.5599      4397.4445     -137156.03    
    308300   2599.3809     -3994.4976      4400.159      -137155.77    
    308400   2552.2654      2840.4151      4371.4765     -137157.07    
    308500   2565.961       2936.2842      4348.4748     -137162.27    
    308600   2457.3076     -3690.4425      4361.4087     -137163.32    
    308700   2456.0603     -2303.7777      4353.3778     -137162.46    
    308800   2595.1899      4808.9935      4335.0767     -137157.5     
    308900   2737.8982     -2720.0692      4356.5865     -137157.72    
    309000   2466.693       716.05516      4366.7136     -137156.88    
    309100   2456.7396     -5631.1581      4362.1073     -137160.55    
    309200   2430.0594     -4106.8169      4343.404      -137159.27    
    309300   2605.6022     -5203.0991      4310.4618     -137161.7     
    309400   2510.2472      15135.695      4293.1355     -137156.59    
    309500   2639.1256     -11312.542      4353.692      -137158.02    
    309600   2339.8172     -6119.0177      4367.0513     -137155.26    
    309700   2465.1367     -8472.5651      4334.2044     -137163.78    
    309800   2481.6271      5038.8783      4266.6796     -137165.66    
    309900   2561.9316      3878.9037      4226.0641     -137165.91    
    310000   2499.4695      7375.7645      4208.2304     -137165.24    
    310100   2448.6999      9342.7231      4227.5702     -137166.76    
    310200   2332.6701     -665.49557      4293.528      -137164.99    
    310300   2501.6872      3189.1846      4379.3909     -137161.81    
    310400   2545.5517     -14748.795      4492.4945     -137157.49    
    310500   2519.1348     -10582.391      4525.7822     -137154.29    
    310600   2486.8536     -5961.2198      4463.1566     -137153.65    
    310700   2399.0086      8647.097       4355.1227     -137156.42    
    310800   2431.6898      7789.2333      4293.9598     -137164.72    
    310900   2526.9593     -3452.0232      4297.9942     -137166.56    
    311000   2437.8976      2250.7272      4310.269      -137160.11    
    311100   2728.0162     -3016.7343      4329.7243     -137159.15    
    311200   2653.618       9030.6838      4347.3282     -137156.07    
    311300   2482.3062     -6532.2686      4378.8739     -137159.53    
    311400   2489.4463     -1644.0139      4371.7946     -137161.65    
    311500   2429.1796     -11108.315      4342.2415     -137158.64    
    311600   2709.576       8761.9863      4270.74       -137162.48    
    311700   2482.5049      8056.118       4245.8321     -137160.16    
    311800   2362.124       3860.0558      4269.7766     -137164.78    
    311900   2326.218       3768.3904      4331.3499     -137163.37    
    312000   2389.3461     -5835.2785      4394.4693     -137158.79    
    312100   2540.3354     -8527.2996      4395.8586     -137159.56    
    312200   2629.1051      9475.0073      4361.1252     -137159.08    
    312300   2618.5636      459.82351      4356.7958     -137160.81    
    312400   2337.6071      7888.0732      4367.7778     -137161.7     
    312500   2372.8943     -14249.04       4405.4993     -137161.9     
    312600   2384.1471     -3918.393       4387.0824     -137156.83    
    312700   2623.1663      4107.622       4332.0664     -137161.98    
    312800   2448.8506      1920.4033      4304.0379     -137157.67    
    312900   2415.7016      2985.63        4290.7975     -137157.99    
    313000   2468.5884     -3313.792       4299.6125     -137160.89    
    313100   2470.1313     -5192.9396      4321.6633     -137163.01    
    313200   2472.7618     -5820.1394      4353.7145     -137162.05    
    313300   2534.4494      1921.1483      4349.517      -137159.77    
    313400   2616.1969     -357.23937      4331.7347     -137163.49    
    313500   2444.4213     -2882.8181      4335.6271     -137165.65    
    313600   2231.8565     -467.28865      4341.7511     -137161.75    
    313700   2535.3418      4634.5547      4335.2304     -137160.59    
    313800   2528.2175     -2584.1805      4333.6959     -137156.87    
    313900   2584.9346      3566.5192      4319.8822     -137159.99    
    314000   2495.6349     -408.41805      4326.4538     -137162.89    
    314100   2371.6989     -13849.808      4348.9686     -137163.97    
    314200   2328.7721     -3130.3456      4314.9237     -137161.66    
    314300   2732.3989      11005.501      4263.8752     -137163.07    
    314400   2590.8751      8318.9486      4269.1132     -137163.17    
    314500   2430.6041     -8902.469       4337.3338     -137163.55    
    314600   2386.103      -9157.1262      4390.3513     -137160.06    
    314700   2776.2915      779.97999      4405.928      -137161.78    
    314800   2623.4747     -3891.2466      4428.099      -137159.82    
    314900   2466.2245     -8712.5795      4450.8889     -137158.01    
    315000   2598.387      -1311.6046      4445.2117     -137157.53    
    315100   2764.4948      2259.7591      4433.4824     -137156.94    
    315200   2401.792      -2253.8169      4455.7528     -137156.33    
    315300   2461.1055     -8022.1741      4457.5417     -137162.79    
    315400   2417.0092     -4616.4637      4402.1307     -137159.72    
    315500   2594.6843      8451.0722      4331.5728     -137158.18    
    315600   2653.3454      13192.608      4314.6401     -137160.48    
    315700   2473.2722     -1707.2876      4379.5181     -137159.38    
    315800   2252.3015     -6993.1395      4433.2915     -137152       
    315900   2598.8333      1515.2806      4414.0899     -137155.72    
    316000   2608.463       11797.304      4381.6175     -137157       
    316100   2417.0788     -5417.3485      4407.6476     -137159.16    
    316200   2359.722      -10364.525      4420.3767     -137158.73    
    316300   2386.8154      2797.5275      4383.9665     -137157.03    
    316400   2725.2985     -10749.102      4348.9225     -137163.2     
    316500   2565.3377      9697.6933      4286.5464     -137159.92    
    316600   2515.641       5096.64        4285.114      -137165.43    
    316700   2177.1838     -2407.4455      4328.7779     -137161.85    
    316800   2364.0526     -11362.51       4343.2486     -137162.24    
    316900   2427.5669      5693.2073      4313.7302     -137158.6     
    317000   2515.4525      3616.8144      4315.7211     -137156.94    
    317100   2595.1163     -7998.0741      4340.746      -137158.89    
    317200   2388.9792      1440.1795      4343.2267     -137158.33    
    317300   2203.0827     -4823.6882      4327.8708     -137160.12    
    317400   2440.9655     -24.118603      4286.7366     -137161.6     
    317500   2629.4328      924.69253      4253.2603     -137160.62    
    317600   2587.4102      2115.9985      4237.9917     -137162.51    
    317700   2360.2375      129.64852      4247.6877     -137162.25    
    317800   2387.1048      1661.4509      4270.8335     -137162.05    
    317900   2588.2932      5560.4881      4296.4374     -137160.5     
    318000   2481.8995      9516.5072      4353.0398     -137156.13    
    318100   2083.4916     -12750.254      4452.7544     -137155.05    
    318200   2203.3576     -16870.082      4466.9902     -137158.02    
    318300   2442.6332      14330.015      4344.7612     -137156.89    
    318400   2775.0105      3026.627       4243.6332     -137164.97    
    318500   2417.3195      8891.405       4207.2243     -137162.42    
    318600   2278.2972      11940.038      4238.9903     -137160.67    
    318700   2425.1983      3427.3724      4324.5963     -137159.77    
    318800   2578.9459     -16110.388      4415.6363     -137159.06    
    318900   2584.93        3132.9182      4421.57       -137158.15    
    319000   2495.8148     -11780.57       4420.6125     -137156.56    
    319100   2481.9036     -3074.3371      4370.4026     -137159.5     
    319200   2384.8221      5060.9862      4302.4115     -137164.66    
    319300   2226.8933      1635.0319      4259.9342     -137163.38    
    319400   2478.5626      13850.824      4245.0622     -137162.85    
    319500   2630.0914     -6072.5756      4311.0972     -137163.65    
    319600   2559.4664     -3072.1598      4370.3214     -137162.43    
    319700   2353.8627     -4978.0714      4399.3005     -137160.86    
    319800   2255.691      -814.77014      4382.0885     -137160.21    
    319900   2537.1158      8728.4231      4347.5909     -137160.04    
    320000   2515.9591      5956.1782      4376.1957     -137154.1     
    320100   2587.7538     -1210.9133      4445.5101     -137157.89    
    320200   2323.1919     -23715.414      4489.2557     -137156.16    
    320300   2359.2771     -11139.71       4392.9093     -137159.88    
    320400   2631.2031      9132.9906      4228.3766     -137161.95    
    320500   2694.0777      19179.545      4144.6308     -137162.41    
    320600   2480.0873      3448.1345      4195.7495     -137165.82    
    320700   2316.8828     -3848.3521      4287.8475     -137162.17    
    320800   2579.5979     -9449.2648      4355.9348     -137162.81    
    320900   2405.5455     -3832.898       4376.6455     -137155.07    
    321000   2534.0691      2811.3085      4359.4537     -137157.37    
    321100   2448.9247      11215.118      4359.638      -137156.62    
    321200   2352.586       1280.5943      4385.508      -137163.22    
    321300   2207.2028     -8743.2478      4414.0277     -137158.06    
    321400   2434.6853     -2778.1239      4376.7863     -137158.27    
    321500   2728.1631      3051.2987      4315.3348     -137164.34    
    321600   2410.0919      705.98979      4318.2762     -137159.28    
    321700   2280.2258      1588.8232      4327.7877     -137159.8     
    321800   2476.342       1597.5447      4318.2791     -137163.53    
    321900   2726.98        2676.2452      4308.7834     -137161.34    
    322000   2567.8235      2989.0064      4316.8136     -137157.41    
    322100   2484.6438      4170.8938      4336.2606     -137160.85    
    322200   2140.0983     -5600.156       4349.752      -137157.22    
    322300   2350.748       2666.0785      4309.9995     -137159.86    
    322400   2552.015       7378.2057      4264.7191     -137161.81    
    322500   2635.9041      11971.553      4269.3719     -137161.4     
    322600   2322.8234     -3430.7551      4349.9063     -137153.84    
    322700   2482.6664     -7860.4074      4424.9598     -137159.39    
    322800   2381.0239      4868.8369      4468.6732     -137155.25    
    322900   2671.6805     -9650.4498      4506.6309     -137156.54    
    323000   2603.158      -2252.4986      4490.3699     -137153.79    
    323100   2430.356      -5834.5613      4447.4874     -137157.28    
    323200   2298.5574     -1599.28        4385.901      -137158.41    
    323300   2540.5425      7270.8082      4300.9847     -137162.61    
    323400   2515.7419      20658.528      4253.5303     -137162.18    
    323500   2264.3589      1134.9731      4304.9312     -137157.98    
    323600   2531.8773      575.18735      4359.021      -137156.83    
    323700   2741.1593     -5558.1042      4392.5599     -137157.05    
    323800   2577.4726     -2892.7378      4400.8758     -137159.01    
    323900   2434.3552     -6415.5787      4398.079      -137160.51    
    324000   2423.1193      7868.8697      4367.0302     -137160.02    
    324100   2487.5173     -2923.4262      4372.2829     -137158.24    
    324200   2755.7967     -3778.2172      4369.5927     -137160.21    
    324300   2715.5715      6351.9689      4361.9655     -137158.71    
    324400   2357.9377     -13147.49       4389.2106     -137158.55    
    324500   2507.5458     -3559.4429      4367.592      -137162.07    
    324600   2677.5328     -4210.3897      4318.4106     -137161.55    
    324700   2630.6872      15700.615      4283.7364     -137159.08    
    324800   2482.2292     -10769.066      4339.8514     -137166.47    
    324900   2238.2098     -4677.0176      4387.5073     -137159.56    
    325000   2298.9159     -1062.0375      4404.813      -137153.6     
    325100   2560.1922      773.32355      4396.054      -137156.15    
    325200   2512.3755      3945.4578      4396.0215     -137156.14    
    325300   2489.3426     -12555.186      4412.1342     -137162.32    
    325400   2453.9662      2469.1431      4357.5882     -137166.69    
    325500   2341.7713      3259.1648      4299.0192     -137158.19    
    325600   2736.1861      16021.697      4265.0567     -137159.39    
    325700   2446.1802      4300.9123      4333.6994     -137157.78    
    325800   2418.3828     -10845.768      4413.5449     -137162.87    
    325900   2383.6346     -8724.7163      4422.4809     -137162.15    
    326000   2618.6036     -4805.7358      4369.7853     -137161.13    
    326100   2739.8506      9839.5443      4304.0213     -137161.06    
    326200   2604.1208      3339.7127      4302.9029     -137160.57    
    326300   2463.1219      3788.0663      4352.8567     -137159.25    
    326400   2408.1899      4286.3614      4443.8912     -137156.65    
    326500   2471.0224      327.86471      4541.2599     -137153.12    
    326600   2708.7593     -4681.0681      4606.8022     -137147.98    
    326700   2751.0631     -3778.4899      4637.0801     -137147.22    
    326800   2589.13       -2280.743       4630.2064     -137149.27    
    326900   2545.8528     -9305.2137      4596.2638     -137154.18    
    327000   2446.979      -5418.2778      4506.2532     -137155.66    
    327100   2582.026       4489.4451      4402.1793     -137159.53    
    327200   2550.7383      1240.2059      4318.604      -137164.7     
    327300   2445.1636      5465.3338      4257.124      -137168.42    
    327400   2550.6294      11937.278      4264.4927     -137170.24    
    327500   2512.3112     -9390.7758      4341.5939     -137162.02    
    327600   2588.0249     -10471.451      4365.7394     -137158.1     
    327700   2600.8548      6966.529       4342.9467     -137159.88    
    327800   2423.7787      7085.7505      4357.2976     -137158.08    
    327900   2304.0283     -5047.5255      4385.6419     -137158.84    
    328000   2351.3794     -6067.1442      4369.2407     -137158.64    
    328100   2609.1627      8096.5856      4316.8069     -137156.99    
    328200   2593.01        11240.851      4288.3382     -137158.66    
    328300   2528.1825      1520.3529      4322.5514     -137164.45    
    328400   2210.292      -8169.7436      4370.933      -137157.42    
    328500   2511.2712     -6170.7534      4353.8833     -137161.48    
    328600   2474.665       9782.4437      4297.6255     -137157.95    
    328700   2597.3105      421.28519      4282.6041     -137160.36    
    328800   2419.8992      83.34406       4308.6969     -137161.08    
    328900   2293.2031     -6066.6326      4343.9299     -137165.02    
    329000   2473.9883     -9067.1805      4333.9927     -137166.77    
    329100   2626.8859      6036.659       4304.3232     -137160.52    
    329200   2566.0915      5691.671       4326.1475     -137158.91    
    329300   2469.948      -5669.3288      4380.9047     -137158.28    
    329400   2292.4152     -7049.7918      4409.0416     -137153.04    
    329500   2604.9796      2002.7802      4387.5106     -137157.74    
    329600   2645.1201      441.45635      4360.6689     -137155.33    
    329700   2499.9594      8289.0549      4344.2464     -137156.8     
    329800   2413.1832     -3620.5278      4378.452      -137161.46    
    329900   2306.9327     -508.12454      4406.0655     -137159.73    
    330000   2586.4207      1149.6321      4407.7213     -137163.07    
    330100   2726.3783     -1973.3574      4411.944      -137157.33    
    330200   2663.9159     -1495.09        4401.8363     -137157.45    
    330300   2484.0933      6797.3535      4361.6133     -137157.76    
    330400   2600.939      -9144.1766      4350.1522     -137163.03    
    330500   2521.4912     -441.14803      4327.2238     -137160.17    
    330600   2653.6138      406.70959      4307.774      -137158.74    
    330700   2744.0311      5482.1027      4319.0455     -137159.53    
    330800   2351.5694      6210.6969      4387.9476     -137158.14    
    330900   2440.0804     -9453.4816      4478.8635     -137161.92    
    331000   2539.1714     -14520.452      4502.417      -137160.25    
    331100   2632.3659     -1715.9187      4438.253      -137158.69    
    331200   2493.8051      10671.165      4368.8881     -137156.73    
    331300   2085.3243      11308.36       4351.2484     -137157.95    
    331400   2369.7355     -3444.3546      4358.7252     -137163.49    
    331500   2534.1115      2819.3205      4349.055      -137159.73    
    331600   2676.9263     -2347.5344      4365.5808     -137161.54    
    331700   2478.3852      524.94602      4390.449      -137161.64    
    331800   2324.4943     -6417.2939      4405.4865     -137160.93    
    331900   2588.51       -2024.8375      4392.5017     -137165.14    
    332000   2678.5987      12960.409      4373.1621     -137155.83    
    332100   2689.6309     -95.342502      4388.2671     -137156.76    
    332200   2583.8556     -8303.8913      4398.9347     -137161.3     
    332300   2446.9448     -1850.0699      4385.3549     -137159.49    
    332400   2379.6512      15441.673      4375.2627     -137158.91    
    332500   2276.0658     -9907.6503      4432.3128     -137157.91    
    332600   2495.3567     -8665.7974      4431.4512     -137159.44    
    332700   2715.002       5785.7885      4382.721      -137158.33    
    332800   2608.2381      4868.675       4359.188      -137158.65    
    332900   2371.7541      2468.6909      4358.1701     -137159.61    
    333000   2272.9417     -3681.269       4358.472      -137156.66    
    333100   2510.2681      3405.9729      4316.5807     -137159.8     
    333200   2475.1886      13772.151      4305.4382     -137158.07    
    333300   2396.913      -12420.531      4380.0265     -137161.89    
    333400   2097.5274     -12026.806      4434.88       -137159.61    
    333500   2266.8098      542.62234      4410.1264     -137156.65    
    333600   2504.8977      6388.7031      4344.0673     -137157.72    
    333700   2535.2432      11372.137      4307.0556     -137156.57    
    333800   2529.4426      4187.0108      4313.7997     -137161.33    
    333900   2157.9441     -6588.1676      4344.9302     -137157.12    
    334000   2469.478       640.15976      4318.599      -137160.02    
    334100   2752.7385      9996.6509      4292.9243     -137160.52    
    334200   2531.2935      6524.2257      4345.6301     -137159.11    
    334300   2293.4635     -6200.7056      4432.9468     -137155.97    
    334400   2403.4157     -10055.837      4461.3625     -137155.83    
    334500   2754.7973      5522.655       4409.4631     -137156.8     
    334600   2658.6054      7190.0894      4364.0999     -137157.33    
    334700   2675.1213     -3962.4407      4365.0914     -137162.93    
    334800   2492.9214      1295.1456      4355.0086     -137161.12    
    334900   2513.4543      4534.8085      4318.3247     -137162.76    
    335000   2569.8651      4681.6622      4278.15       -137163.7     
    335100   2460.008       2314.3096      4284.1218     -137157.23    
    335200   2801.797      -8622.0402      4315.6705     -137165.02    
    335300   2323.9166     -3548.7394      4312.9661     -137160.23    
    335400   2285.5032      3995.7299      4279.5211     -137162.15    
    335500   2464.5516      10800.008      4268.2106     -137164.97    
    335600   2603.8139      448.66737      4316.2374     -137164.25    
    335700   2562.7613      1927.2301      4414.0817     -137152.91    
    335800   2504.7371     -3583.309       4529.9281     -137151.66    
    335900   2317.9904     -8595.2555      4598.4463     -137149.75    
    336000   2547.4297     -8884.0421      4561.4088     -137152.92    
    336100   2804.4148      8557.1466      4464.489      -137152.06    
    336200   2620.334       12022.982      4418.2656     -137154.83    
    336300   2597.7797     -4525.0229      4438.5764     -137159.61    
    336400   2407.0119     -1015.4358      4443.8453     -137156.24    
    336500   2603.3031     -6625.1256      4420.7804     -137159.43    
    336600   2689.3252      5435.4408      4386.3614     -137157       
    336700   2698.6598      3612.2281      4372.4716     -137157.18    
    336800   2389.9434     -974.98045      4381.3764     -137157.84    
    336900   2506.5028     -8266.5034      4391.4987     -137160.3     
    337000   2549.0457      10032.933      4369.9367     -137157.58    
    337100   2574.416      -7275.0246      4377.285      -137157.67    
    337200   2382.6994     -4584.6374      4357.7474     -137161.97    
    337300   2159.0431     -5290.6806      4317.4166     -137158.75    
    337400   2456.9135      4840.7624      4253.6992     -137159.48    
    337500   2559.7823      27073.072      4231.8682     -137159.07    
    337600   2496.4683      333.19734      4353.4996     -137161.53    
    337700   2228.7839     -10970.129      4498.0563     -137154.42    
    337800   2652.2158     -13407.689      4541.0777     -137154.44    
    337900   2815.1867     -4978.7146      4509.4093     -137156.69    
    338000   2595.3661      669.37464      4473.8982     -137158.31    
    338100   2526.82       -2511.1467      4444.6392     -137161.02    
    338200   2521.0466     -8643.4284      4383.5419     -137163.24    
    338300   2523.9342      15628.902      4291.6151     -137161.65    
    338400   2539.0596      13293.942      4266.6289     -137155.12    
    338500   2858.1164      243.75529      4324.6613     -137161.28    
    338600   2381.7455     -5541.9044      4400.4685     -137156.84    
    338700   2375.9279     -12589.233      4424.842      -137156.99    
    338800   2466.672       973.2672       4380.6802     -137154.81    
    338900   2743.085       2670.6793      4339.9978     -137161.77    
    339000   2413.3119     -752.00956      4346.1388     -137157.03    
    339100   2402.6839      5124.1068      4341.6612     -137157.99    
    339200   2528.8208     -5821.3068      4332.2637     -137160.93    
    339300   2528.7511      13729.454      4327.3081     -137158.7     
    339400   2638.4648     -1016.2832      4407.171      -137156.54    
    339500   2479.7007     -10612.785      4497.2909     -137151.17    
    339600   2456.7083     -12965.846      4539.6628     -137155.53    
    339700   2360.0853     -2851.0029      4497.192      -137156.59    
    339800   2564.588       13990.711      4401.9318     -137156.88    
    339900   2873.7165      656.7183       4350.9054     -137158.49    
    340000   2514.8527      6914.557       4329.9008     -137154.86    
    340100   2608.2847     -1988.2725      4334.3295     -137162.14    
    340200   2465.3787      3028.3171      4343.601      -137160.9     
    340300   2503.7785      499.95224      4349.2847     -137164.11    
    340400   2357.6902     -3596.5744      4348.873      -137165.17    
    340500   2346.2588     -6297.7386      4326.7465     -137163.56    
    340600   2645.7093      4451.5337      4258.011      -137162.06    
    340700   2743.8016      13465.474      4227.7969     -137164.53    
    340800   2426.2425     -5517.6964      4299.8296     -137161.24    
    340900   2466.7904      4339.7824      4373.6142     -137162.7     
    341000   2635.2513      1961.5879      4462.3043     -137161.05    
    341100   2615.229      -7122.6244      4567.7676     -137153.51    
    341200   2467.6078     -13820.879      4610.1585     -137151.43    
    341300   2385.3505     -5281.6215      4546.2028     -137153.45    
    341400   2437.7729     -4445.2374      4427.3391     -137160.93    
    341500   2246.6408      2918.436       4306.5648     -137160.2     
    341600   2540.1929      8144.52        4211.4835     -137167.43    
    341700   2613.462       16124.835      4194.0208     -137161.37    
    341800   2609.0016      4195.7542      4273.6907     -137158.7     
    341900   2436.2051     -6295.8451      4400.8929     -137158.34    
    342000   2342.5785     -10981.819      4476.1221     -137154.37    
    342100   2671.6722     -1264.9673      4451.6475     -137151.71    
    342200   2726.6597      6908.0751      4422.3837     -137153.4     
    342300   2522.2368     -5745.1988      4417.5649     -137157.11    
    342400   2235.8045      4727.0306      4384.6565     -137153.31    
    342500   2506.3629      13385.166      4366.1269     -137158.01    
    342600   2431.5064      4024.0209      4415.3634     -137153.74    
    342700   2547.1325     -7891.1813      4457.7987     -137154.36    
    342800   2650.019      -686.6699       4442.6509     -137156.85    
    342900   2296.7148      5895.1158      4427.4951     -137153.37    
    343000   2385.307      -3915.4068      4428.1219     -137158.87    
    343100   2454.8003      4551.1652      4379.5881     -137157.44    
    343200   2816.7285      11736.222      4320.4499     -137158.02    
    343300   2677.3209     -66.010444      4337.782      -137159.11    
    343400   2542.9085     -9254.5633      4381.9109     -137160.33    
    343500   2536.8254      1207.2073      4377.7241     -137162.18    
    343600   2426.2152      2096.7862      4357.4088     -137161.2     
    343700   2411.5502     -1246.316       4329.8044     -137162.44    
    343800   2421.6393      4685.477       4289.6589     -137160.21    
    343900   2540.2343      3842.6863      4279.279      -137159.38    
    344000   2507.483       14701.903      4303.6537     -137155.63    
    344100   2456.572      -893.86339      4372.4157     -137160.39    
    344200   2401.6464     -14483.029      4428.1068     -137163.28    
    344300   2484.5726      1566.4536      4401.4262     -137161.4     
    344400   2627.7989      4728.9616      4384.2962     -137160.61    
    344500   2469.5581     -7212.0608      4398.4228     -137158.5     
    344600   2373.9316      3499.2526      4380.1553     -137157.68    
    344700   2579.7862      2586.6929      4370.638      -137161.13    
    344800   2669.3643     -5199.1833      4364.7992     -137157.23    
    344900   2658.8453      13117.923      4331.5677     -137157.55    
    345000   2406.6858     -6577.647       4352.1157     -137159.59    
    345100   2328.9795     -536.41993      4358.7633     -137158.4     
    345200   2593.4414     -310.24809      4367.6652     -137162.42    
    345300   2651.3613      633.7339       4385.4336     -137158.36    
    345400   2918.2086      3289.9236      4395.4385     -137154.58    
    345500   2683.0703     -925.21422      4403.3903     -137156.53    
    345600   2428.2238     -3697.8184      4396.6375     -137156.05    
    345700   2300.0803      4091.59        4348.5009     -137157.47    
    345800   2596.2765     -106.55086      4294.1319     -137167.04    
    345900   2368.2442      5930.5826      4244.6865     -137164.56    
    346000   2458.8737     -10786.356      4216.2442     -137168.17    
    346100   2698.7082      8382.9053      4153.1778     -137166.03    
    346200   2602.9362      10347.665      4164.3356     -137161.82    
    346300   2387.823       1649.6308      4282.6782     -137161.29    
    346400   2389.5929     -15704.17       4417.3799     -137161.68    
    346500   2583.497      -3126.7035      4483.2281     -137155.36    
    346600   2471.5134      458.39593      4497.4033     -137150.62    
    346700   2578.9362     -11972.965      4459.5435     -137157.08    
    346800   2379.8913      1070.4636      4368.0177     -137158.1     
    346900   2396.8615      3672.7603      4291.0695     -137162.46    
    347000   2505.9306      13650.47       4265.6924     -137163.91    
    347100   2506.1925      17082.874      4321.4036     -137154.77    
    347200   2529.0823      3587.5211      4434.4414     -137153.02    
    347300   2616.7208     -18536.746      4561.7515     -137155.08    
    347400   2483.6755     -9704.3352      4583.9162     -137155.91    
    347500   2299.0523     -3722.8406      4510.4401     -137156.84    
    347600   2574.6499      3003.209       4410.101      -137161.09    
    347700   2816.0084      7299.4471      4337.1045     -137158.97    
    347800   2588.684       15671.484      4326.5236     -137154.92    
    347900   2570.4293     -9576.574       4407.2761     -137164.31    
    348000   2460.9613     -11908.726      4470.3922     -137160.52    
    348100   2526.9105     -8228.9267      4466.4939     -137156.69    
    348200   2648.6466      9266.6003      4419.4902     -137155.86    
    348300   2591.3132     -277.87549      4412.4559     -137158.25    
    348400   2189.1629     -6463.7175      4407.3527     -137156.94    
    348500   2349.712       3300.7469      4363.8279     -137159       
    348600   2628.2322      3332.6432      4317.0611     -137163.66    
    348700   2439.6586      1906.7695      4287.7835     -137162.12    
    348800   2293.0308     -3006.2581      4287.0748     -137163.61    
    348900   2367.2243      5698.8903      4285.7541     -137164.95    
    349000   2661.6176      1041.8257      4326.3713     -137162.99    
    349100   2455.2796     -2550.4143      4397.0278     -137155.22    
    349200   2602.6911     -3386.4238      4435.4735     -137159.31    
    349300   2346.9933     -6434.0207      4446.3702     -137153.76    
    349400   2511.8804      4440.2269      4409.4919     -137157       
    349500   2630.3864     -3349.6352      4378.5543     -137157.81    
    349600   2509.698       2873.6307      4335.3832     -137158       
    349700   2275.069       9311.2656      4304.752      -137158.01    
    349800   2311.3775      20483.617      4308.9994     -137158.86    
    349900   2602.907      -5343.5266      4400.117      -137157.21    
    350000   2548.6991     -7166.1426      4479.2498     -137151.84    
    350100   2619.8723     -3209.4098      4501.3709     -137156.57    
    350200   2459.576       2495.5943      4487.1964     -137157.19    
    350300   2390.6808     -11304.332      4438.5514     -137156.97    
    350400   2619.9251      4378.7195      4328.1701     -137162.94    
    350500   2441.2669      19081.775      4250.6904     -137161.78    
    350600   2546.6008     -661.13407      4278.6706     -137167.85    
    350700   2385.2674     -8517.8357      4345.461      -137161.79    
    350800   2674.5432     -15090.353      4369.7373     -137163.58    
    350900   2527.7805      4100.5098      4339.4973     -137156.66    
    351000   2761.5231      2889.9368      4312.5409     -137162.44    
    351100   2449.2826      2872.434       4324.8681     -137160.92    
    351200   2292.4511     -5806.1035      4352.5532     -137163.11    
    351300   2345.9833     -2604.7146      4345.4452     -137158.88    
    351400   2482.7855      12299.768      4328.5896     -137157.38    
    351500   2575.3909     -5418.4777      4359.2481     -137159.81    
    351600   2369.2231     -4933.5948      4395.3761     -137158.74    
    351700   2395.4699     -6254.4838      4416.5112     -137162.28    
    351800   2577.0674     -1216.5978      4400.0628     -137161.32    
    351900   2655.1974      218.62306      4365.3699     -137157.32    
    352000   2491.635       7114.263       4340.7822     -137156.03    
    352100   2421.2295      1747.4073      4355.4385     -137160.65    
    352200   2513.4186     -6932.8846      4384.3381     -137164.22    
    352300   2476.292      -1507.2935      4393.8403     -137162.5     
    352400   2372.9266      659.60432      4380.4763     -137158.45    
    352500   2582.412      -3076.743       4348.8887     -137161.53    
    352600   2623.2066      9244.1175      4339.8362     -137161.78    
    352700   2190.2825      5247.2602      4376.7359     -137158.14    
    352800   2325.2857     -7471.114       4423.0806     -137164.23    
    352900   2358.7919     -5241.76        4442.2088     -137157       
    353000   2440.4909     -439.04767      4413.6722     -137153.81    
    353100   2615.6159      545.90785      4345.0482     -137157.77    
    353200   2444.1382      16091.062      4271.6342     -137159.17    
    353300   2348.6747      9824.502       4269.9861     -137162.01    
    353400   2333.1292      8027.0791      4323.9257     -137161.52    
    353500   2357.8218     -18061.187      4414.6749     -137158.52    
    353600   2504.527      -18454.015      4422.4785     -137158.59    
    353700   2459.0353      7875.4435      4319.6061     -137156.29    
    353800   2653.953       8877.9278      4234.8391     -137162.95    
    353900   2262.6757      6393.8549      4219.7647     -137162.83    
    354000   2261.1425      4452.7264      4233.5488     -137163.49    
    354100   2502.9835      8985.3047      4246.9243     -137164.17    
    354200   2497.1401     -418.69956      4319.2258     -137159.37    
    354300   2571.5823     -10352.737      4422.3099     -137159.24    
    354400   2525.491      -5347.7699      4489.1545     -137155.42    
    354500   2702.3799     -3096.5587      4523.5028     -137156.2     
    354600   2845.1635     -6810.7526      4549.2214     -137152.26    
    354700   2648.3472     -8116.1601      4512.7755     -137153.5     
    354800   2362.2056      3790.1375      4424.6254     -137153.07    
    354900   2596.173      -3985.1323      4353.5631     -137161.43    
    355000   2421.2582     -2452.8888      4288.9115     -137160.23    
    355100   2290.5138      11919.677      4229.0752     -137160.97    
    355200   2214.9446      2404.9427      4204.2613     -137164.46    
    355300   2305.6368      4707.189       4188.1701     -137165.35    
    355400   2594.4063      11368.417      4210.0051     -137164.32    
    355500   2421.4043      8615.5219      4309.7405     -137156.81    
    355600   2578.9118     -4715.6229      4457.8094     -137160.29    
    355700   2428.6712     -10705.976      4571.9215     -137150.98    
    355800   2732.2095      3660.2938      4581.8366     -137148.81    
    355900   2779.4052     -11223.498      4579.7178     -137152.85    
    356000   2621.4391     -7946.2578      4520.4813     -137155.85    
    356100   2527.8135     -1022.8297      4422.9443     -137156.66    
    356200   2475.6382     -2614.7797      4318.8011     -137160.84    
    356300   2424.6903      10021.463      4230.9967     -137162.68    
    356400   2515.7024      1959.2695      4221.4217     -137164.4     
    356500   2254.023       2653.6162      4230.6987     -137161.36    
    356600   2025.317       2193.8438      4244.7812     -137161.48    
    356700   2364.7164      7176.3828      4261.6452     -137162.72    
    356800   2577.4613      3911.3442      4312.581      -137162.87    
    356900   2627.4565     -4912.1714      4395.6685     -137163.53    
    357000   2398.3846      811.03858      4480.3231     -137158.79    
    357100   2430.8236     -17040.699      4543.7433     -137155.63    
    357200   2593.431       2304.4211      4508.0319     -137151.3     
    357300   2543.7668     -7950.4635      4452.1186     -137150.97    
    357400   2399.143       7888.4037      4355.5468     -137153.36    
    357500   2513.9776      13321.353      4292.4299     -137161.76    
    357600   2528.6996     -3991.6674      4306.9762     -137162.9     
    357700   2337.2524      9473.7634      4342.2274     -137154.78    
    357800   2437.5679     -1821.8303      4399.797      -137151.05    
    357900   2716.7409     -702.96383      4440.2192     -137153.62    
    358000   2655.3397     -11892.035      4483.4528     -137156.88    
    358100   2584.1736     -4643.6874      4501.7739     -137156.9     
    358200   2496.1335     -4147.5351      4505.7207     -137156.42    
    358300   2460.0516     -4124.6902      4490.1452     -137155.89    
    358400   2476.8804      680.27953      4433.1635     -137157.87    
    358500   2425.0045     -6076.1811      4357.7267     -137161.65    
    358600   2406.5811      8661.3         4276.4579     -137164.02    
    358700   2566.964       3109.2526      4262.8611     -137162.82    
    358800   2702.1683      5202.5125      4296.5769     -137158.97    
    358900   2644.2457     -10995.015      4367.5437     -137157.64    
    359000   2332.2994     -9994.2174      4392.0085     -137159.88    
    359100   2526.8067      3085.1386      4376.5305     -137164.16    
    359200   2566.0091     -834.23665      4385.3224     -137162.23    
    359300   2712.8835     -3350.1637      4412.3657     -137161       
    359400   2812.7661     -10504.306      4441.789      -137158.14    
    359500   2627.5466     -4482.3472      4436.5449     -137156.05    
    359600   2451.1774     -3837.182       4416.7194     -137158.77    
    359700   2410.8721      4018.3446      4393.3668     -137158.11    
    359800   2506.7566      5642.0774      4373.8025     -137156.19    
    359900   2724.1097      12595.298      4367.4412     -137153.57    
    360000   2684.2011      1877.5691      4411.2132     -137154.46    
    360100   2382.3545     -6559.6798      4464.0564     -137158.15    
    360200   2319.3697     -4246.0135      4453.831      -137157.07    
    360300   2593.9647      5586.9228      4383.3235     -137160.4     
    360400   2746.0093      5118.6587      4337.5088     -137162.19    
    360500   2430.138      -384.71916      4319.9696     -137162.47    
    360600   2382.6514      7352.8448      4299.7027     -137164.66    
    360700   2413.8874      2445.1773      4340.992      -137162.78    
    360800   2377.8867     -8403.7189      4412.4382     -137154.95    
    360900   2477.0877     -5949.2624      4436.0497     -137154.13    
    361000   2562.3781      4597.551       4409.495      -137155.6     
    361100   2476.1812     -1866.6144      4364.1805     -137159.35    
    361200   2341.8799      5067.3885      4308.886      -137160.95    
    361300   2535.7342      7771.2437      4299.3775     -137165.11    
    361400   2516.8826     -6586.3983      4346.4338     -137164.04    
    361500   2528.5204      618.53752      4389.509      -137161.08    
    361600   2642.1392     -8437.357       4414.9672     -137160.67    
    361700   2557.9552     -1458.7556      4415.0488     -137156.56    
    361800   2648.7903      4157.2672      4418.1923     -137154.94    
    361900   2632.1197     -8590.9754      4434.5463     -137158.91    
    362000   2386.5992     -5428.0153      4426.487      -137160.02    
    362100   2449.3589     -3184.4613      4385.1428     -137161.76    
    362200   2547.0267      6591.5816      4350.5322     -137158.8     
    362300   2654.9525     -5451.6657      4347.6246     -137156.61    
    362400   2813.8479      7310.3579      4343.8246     -137157.72    
    362500   2576.5598     -3283.8975      4379.4477     -137160.9     
    362600   2340.2655     -6459.0665      4387.0104     -137160.09    
    362700   2569.6267     -4400.3582      4346.1622     -137164.31    
    362800   2669.7398      7543.8817      4306.0748     -137162.1     
    362900   2710.5886     -4736.4122      4337.9977     -137164.49    
    363000   2200.8727     -5265.4108      4369.6747     -137158.87    
    363100   2407.9373      3644.8538      4354.2003     -137161.82    
    363200   2596.0167     -636.76155      4361.9857     -137160.8     
    363300   2435.4174      815.79032      4385.1396     -137155.4     
    363400   2566.7343     -8790.1889      4410.9221     -137157.79    
    363500   2601.1582      2568.2947      4402.574      -137156.91    
    363600   2693.574      -5438.9079      4383.1588     -137158.61    
    363700   2557.5463     -2922.1437      4346.7877     -137161.63    
    363800   2439.2432     -2936.6128      4326.8713     -137163.72    
    363900   2492.3962     -3842.924       4305.9627     -137167.14    
    364000   2474.9087      10018.204      4287.3418     -137158.22    
    364100   2516.8103      9393.1183      4340.7646     -137155.85    
    364200   2535.9913     -7809.1356      4460.9551     -137158.1     
    364300   2493.5254     -10618.576      4536.419      -137157.01    
    364400   2523.6745     -11578.989      4523.7782     -137151.67    
    364500   2908.8005     -9418.0901      4417.6567     -137157.73    
    364600   2661.2843      2225.9531      4294.9499     -137160.54    
    364700   2620.5901      12173.022      4225.9434     -137163.93    
    364800   2358.5385      8534.726       4235.4337     -137162.84    
    364900   2397.9635      7212.578       4278.7755     -137164.16    
    365000   2607.4273      1525.8713      4342.1526     -137162.27    
    365100   2534.4327     -10801.58       4398.6009     -137157.43    
    365200   2682.5667      5046.7455      4396.0985     -137161.36    
    365300   2529.9351     -8450.3723      4413.9035     -137160       
    365400   2490.6209     -1570.3251      4390.0149     -137160.75    
    365500   2382.0144      2507.3756      4350.9046     -137157.36    
    365600   2543.607       1753.2999      4325.9476     -137161.14    
    365700   2596.1268      5001.2487      4326.4535     -137163.72    
    365800   2367.3624     -172.10533      4342.2995     -137159.96    
    365900   2403.6845      2954.864       4344.7124     -137158.1     
    366000   2706.3123      6526.0898      4347.6999     -137155.78    
    366100   2533.9339      5753.4983      4387.529      -137152.71    
    366200   2449.4141     -8120.4699      4439.8988     -137155.66    
    366300   2640.6442     -7187.084       4431.9511     -137163.4     
    366400   2576.266       468.12547      4385.9723     -137162.3     
    366500   2443.6072     -1792.7482      4343.8316     -137157.99    
    366600   2563.4814      3028.6117      4306.0483     -137160.53    
    366700   2410.526       6558.6835      4286.7813     -137159.49    
    366800   2370.7817      8114.7577      4293.3216     -137160.56    
    366900   2507.1099     -1094.734       4323.7106     -137160.01    
    367000   2724.2671      367.99079      4364.2378     -137158.17    
    367100   2634.9256     -5519.4345      4426.6964     -137155.89    
    367200   2398.27       -6028.9907      4461.1399     -137153.61    
    367300   2463.841      -9802.5649      4432.1487     -137158.99    
    367400   2610.8522     -8293.7976      4355.5768     -137165.89    
    367500   2389.1531      9546.8571      4268.9356     -137165.2     
    367600   2387.2718      7122.472       4249.0001     -137162.72    
    367700   2617.1336     -1220.4496      4289.8653     -137162.07    
    367800   2522.8797     -2411.1213      4356.5208     -137157.79    
    367900   2540.103       1543.1098      4425.5451     -137157.97    
    368000   2318.1237     -573.87269      4495.6202     -137155.13    
    368100   2367.2996     -5716.8748      4554.5729     -137155.49    
    368200   2575.9377     -7833.1167      4572.8828     -137152.46    
    368300   2657.8396     -48.896616      4553.4222     -137152.82    
    368400   2486.5348     -2383.9356      4510.0268     -137153.84    
    368500   2425.0036     -4233.9823      4431.9295     -137156.67    
    368600   2580.0301     -2336.5549      4304.9617     -137163.61    
    368700   2560.2367      20733.7        4163.334      -137163.88    
    368800   2484.4103      22920.919      4123.615      -137166.02    
    368900   2364.0798      2145.9999      4206.7838     -137165.73    
    369000   2393.1045      2437.8226      4303.3143     -137160.42    
    369100   2504.1665      4035.4778      4397.3612     -137155.34    
    369200   2506.4468     -12332.834      4497.9082     -137155.7     
    369300   2410.5758     -9568.5075      4519.7299     -137154.25    
    369400   2494.1868     -2846.3577      4470.0874     -137156.81    
    369500   2507.9534     -3383.7102      4413.8474     -137157.11    
    369600   2639.3927      6659.0686      4363.3868     -137159.03    
    369700   2506.88        5984.6908      4354.4076     -137158.91    
    369800   2385.6582     -314.29377      4375.7689     -137161.83    
    369900   2227.9631     -9435.6373      4390.8602     -137157.48    
    370000   2616.8994      6736.7699      4349.237      -137158.39    
    370100   2830.7518      4245.7756      4341.1786     -137162       
    370200   2553.6722     -8969.4103      4367.6419     -137159.95    
    370300   2386.4757     -613.42348      4365.6268     -137158.77    
    370400   2558.1319     -1938.6228      4350.9461     -137164.17    
    370500   2357.9114      3579.6935      4340.2766     -137161.71    
    370600   2203.1143      1791.743       4330.7879     -137161.43    
    370700   2472.0759     -892.01284      4300.1418     -137163.29    
    370800   2474.6475      15385.084      4265.8131     -137156.75    
    370900   2639.1797     -2671.8837      4282.4112     -137162.37    
    371000   2473.1704     -1669.597       4303.4681     -137161.78    
    371100   2270.6241      9690.5704      4317.4494     -137159.59    
    371200   2175.4953      2377.3293      4360.219      -137161.61    
    371300   2265.9454     -7171.5803      4400.0632     -137158.9     
    371400   2524.1839     -2485.5299      4380.3704     -137157.84    
    371500   2659.2981      2510.0806      4340.3457     -137160.62    
    371600   2369.9835     -2449.4601      4320.5736     -137157.77    
    371700   2219.1299      6501.045       4304.5807     -137155.47    
    371800   2746.4899      4357.3863      4319.3551     -137160.16    
    371900   2557.5577     -704.7327       4365.0403     -137154.84    
    372000   2546.7103     -7027.4495      4404.5365     -137160.19    
    372100   2236.2937      8777.1258      4425.1227     -137153.55    
    372200   2316.6482     -4778.029       4455.0693     -137152.78    
    372300   2621.0918      2509.201       4429.2467     -137157.59    
    372400   2446.1218      12296.431      4401.1626     -137155.84    
    372500   2370.9899     -3094.32        4418.1413     -137157.09    
    372600   2603.5104     -7223.7914      4418.9241     -137159.54    
    372700   2887.3148      5161.7766      4387.2366     -137154.75    
    372800   2535.6993     -6282.9092      4383.6599     -137153.88    
    372900   2501.8219     -10133.158      4388.5478     -137159.25    
    373000   2397.0507      2299.9379      4350.8975     -137156.1     
    373100   2633.1859      2348.0408      4285.2379     -137158.75    
    373200   2547.4016      365.45776      4256.2437     -137161.35    
    373300   2180.9918      10290.066      4274.7951     -137159.46    
    373400   2359.6775     -9312.4344      4318.483      -137163       
    373500   2456.4571     -2957.1027      4337.3673     -137158.69    
    373600   2455.8648      4433.8636      4326.5026     -137155.91    
    373700   2452.9981      1936.6949      4323.4625     -137157.26    
    373800   2485.5415     -1553.7094      4334.8921     -137160.81    
    373900   2461.6139     -7994.2713      4333.7375     -137165.01    
    374000   2330.1087      4009.5799      4314.2617     -137163.97    
    374100   2535.6148     -1000.0399      4298.3495     -137164.36    
    374200   2692.3021      9180.8822      4301.2946     -137162.16    
    374300   2381.5971      3464.9974      4358.649      -137156.38    
    374400   2399.5546     -2442.0771      4413.309      -137156.94    
    374500   2766.6648      219.5793       4431.553      -137157.48    
    374600   2778.6083     -7770.6332      4440.6858     -137155.06    
    374700   2419.7594     -7609.6718      4409.81       -137153.39    
    374800   2635.0126      9302.6198      4330.4281     -137162.08    
    374900   2487.4574      4322.716       4297.4509     -137162.26    
    375000   2464.2733     -2.473481       4315.391      -137165.09    
    375100   2447.4722     -1369.7942      4350.8599     -137164.62    
    375200   2544.3452      1098.7856      4397.8234     -137159.77    
    375300   2568.6416      2215.9377      4434.749      -137156.49    
    375400   2468.5932     -11401.007      4452.0766     -137156.65    
    375500   2406.0495     -1800.4993      4411.6271     -137159.91    
    375600   2286.9847      3205.7833      4333.0702     -137160.99    
    375700   2278.9777      5662.4804      4236.7485     -137164.34    
    375800   2508.1679      11117.677      4153.9513     -137167.54    
    375900   2649.1695      21413.115      4152.047      -137164.43    
    376000   2486.3562     -2380.5406      4272.3707     -137161.78    
    376100   2376.1834     -11741.644      4399.324      -137158.26    
    376200   2632.2245      1840.4696      4477.0607     -137154.4     
    376300   2603.514      -1665.8919      4561.9192     -137152.37    
    376400   2570.1654     -14605.218      4599.7236     -137156.4     
    376500   2453.027      -8823.875       4550.536      -137157.85    
    376600   2406.3157     -4581.1853      4472.4077     -137158.6     
    376700   2555.3925      3431.9776      4381.9784     -137160.27    
    376800   2635.6539      5468.9352      4314.4873     -137158.03    
    376900   2563.6585      15160.666      4288.8104     -137156.92    
    377000   2395.4792      1230.5902      4321.0938     -137160.42    
    377100   2249.8843      3449.0135      4359.839      -137156.93    
    377200   2450.6741     -1161.9155      4393.0184     -137156.96    
    377300   2644.228      -639.6701       4428.9048     -137159.24    
    377400   2613.4296     -9823.2363      4460.1651     -137159.47    
    377500   2424.7201      474.31084      4441.9772     -137156.44    
    377600   2520.6399     -365.23627      4404.2718     -137158.54    
    377700   2773.4333      587.82855      4351.6591     -137162.4     
    377800   2613.2481      5699.9635      4317.8266     -137160.27    
    377900   2400.643      -2001.0531      4310.2475     -137162.32    
    378000   2304.7322      5486.7999      4306.7534     -137161.3     
    378100   2365.0766     -7696.0516      4319.7147     -137158.66    
    378200   2606.455       9328.6446      4313.0643     -137155.73    
    378300   2581.3003     -851.02081      4356.5608     -137156.14    
    378400   2545.7694     -5334.8927      4404.5178     -137158.75    
    378500   2420.3848     -3928.7683      4427.0051     -137157.47    
    378600   2507.7975      4886.3821      4417.956      -137156.29    
    378700   2666.9368      3724.8491      4413.0078     -137151.22    
    378800   2601.9117      2097.4331      4420.0745     -137153.22    
    378900   2516.4428     -6596.5674      4422.1798     -137156.85    
    379000   2513.499       3162.5738      4395.3526     -137158.34    
    379100   2510.5698     -451.33565      4390.3545     -137158.48    
    379200   2519.2043     -3113.5865      4387.3033     -137157.04    
    379300   2882.2013     -1875.7191      4365.7957     -137161.05    
    379400   2686.1202     -3288.3764      4335.3368     -137158.96    
    379500   2431.1286      1797.5011      4306.2463     -137160.46    
    379600   2552.6672     -645.68444      4286.6686     -137165.96    
    379700   2483.3541      6755.198       4284.225      -137166.07    
    379800   2271.28        896.76279      4320.2856     -137159.87    
    379900   2679.4146      1227.7431      4354.687      -137160.61    
    380000   2587.1018     -5118.3899      4391.0472     -137158.39    
    380100   2272.6004     -3931.9664      4383.1937     -137154.8     
    380200   2618.864       2856.4979      4330.4674     -137164.03    
    380300   2545.7143      2695.9539      4295.5373     -137163.15    
    380400   2330.5446      711.33574      4274.4265     -137162.9     
    380500   2351.3242      4292.5374      4247.0541     -137164.54    
    380600   2628.3081     -368.61499      4240.0228     -137164.25    
    380700   2611.949       12332.769      4253.9375     -137161.16    
    380800   2506.7402      3238.6986      4320.5938     -137161.71    
    380900   2381.2689     -11599.712      4402.4284     -137159.13    
    381000   2466.1798     -5005.9209      4415.005      -137157.38    
    381100   2466.8181     -4277.0532      4363.8389     -137155.84    
    381200   2522.6902      12063.96       4287.4215     -137157.95    
    381300   2494.1299      135.19366      4258.5296     -137163.07    
    381400   2407.831       5838.0899      4264.224      -137165.12    
    381500   2353.6199      1700.3467      4303.6186     -137162.35    
    381600   2583.8038     -7802.6491      4340.3554     -137157.04    
    381700   2694.1515     -1415.9097      4347.8362     -137161.23    
    381800   2352.4504     -731.0929       4349.855      -137159.8     
    381900   2419.9232      2188.7514      4329.1044     -137162.61    
    382000   2522.1816      1080.5276      4309.1993     -137159.91    
    382100   2632.9288      10376.908      4287.5828     -137159.56    
    382200   2379.5878      4349.5286      4304.5836     -137162.42    
    382300   2241.4097      4498.094       4346.319      -137162.69    
    382400   2491.3274     -5434.1439      4397.9151     -137162.31    
    382500   2640.193      -1108.5811      4450.7371     -137160.41    
    382600   2423.9106      377.64984      4505.6946     -137153.95    
    382700   2365.7046     -13379.54       4535.0046     -137151.44    
    382800   2659.155       2468.3065      4475.409      -137151       
    382900   2817.2343      6575.8862      4403.5595     -137156.24    
    383000   2702.9455     -10628.378      4392.3321     -137160.97    
    383100   2435.2273      3122.8484      4382.7935     -137158.48    
    383200   2384.8563     -2056.6728      4381.1395     -137159.29    
    383300   2501.1276     -2770.7065      4353.6225     -137160.18    
    383400   2803.5778      10670.349      4328.4406     -137159.56    
    383500   2652.1544      524.09539      4376.0767     -137158.99    
    383600   2343.7043     -2280.666       4409.5188     -137156.53    
    383700   2567.6984     -2478.2157      4396.7995     -137161.79    
    383800   2486.0156      3952.7838      4362.6063     -137157.67    
    383900   2728.202      -4685.9406      4350.7616     -137161.03    
    384000   2490.8027     -3655.9387      4350.8316     -137158.07    
    384100   2237.1707     -2633.951       4335.8689     -137158.52    
    384200   2303.5192      18017.124      4305.6424     -137160.13    
    384300   2643.6164     -2447.5639      4348.7795     -137161.34    
    384400   2566.4143     -7509.761       4423.4203     -137157.36    
    384500   2486.6376     -14934.18       4461.8992     -137156.14    
    384600   2448.6611     -4551.9368      4402.762      -137156.79    
    384700   2568.9398      9543.5369      4315.9191     -137158.68    
    384800   2722.6776      7202.0438      4290.0441     -137159.34    
    384900   2518.929       343.22842      4321.1986     -137160.51    
    385000   2362.1992     -1944.2009      4360.1652     -137162.51    
    385100   2213.0379     -1055.6509      4379.2277     -137154.4     
    385200   2491.1586      7119.3905      4368.3021     -137156.04    
    385300   2466.6443     -374.76493      4356.0044     -137156.3     
    385400   2524.383       1129.8103      4341.0633     -137161.69    
    385500   2296.6408     -925.7659       4354.3766     -137159.97    
    385600   2327.5701     -8532.1071      4352.3188     -137162.45    
    385700   2587.4884      6014.3587      4317.9059     -137159.38    
    385800   2549.1683      4301.5507      4308.3307     -137158.45    
    385900   2484.3774      4597.0757      4285.6595     -137162.79    
    386000   2370.3792      468.02739      4279.1449     -137161.64    
    386100   2549.1717      15.830314      4282.9102     -137159.89    
    386200   2718.6107      4914.7489      4311.8438     -137157.57    
    386300   2729.66        1160.122       4372.1914     -137163.01    
    386400   2333.9884     -179.17008      4442.5585     -137156.39    
    386500   2477.403      -7839.9823      4484.7926     -137158.09    
    386600   2640.2802     -2702.792       4472.5828     -137154.56    
    386700   2656.5241      3562.1736      4444.7644     -137156.53    
    386800   2499.5181     -470.29231      4420.7307     -137156.68    
    386900   2474.4395     -2455.0465      4375.2298     -137159.95    
    387000   2540.5936     -849.90625      4317.382      -137162.71    
    387100   2545.8924      5029.5641      4263.9857     -137161.81    
    387200   2354.2456      16456.494      4244.6162     -137157.23    
    387300   2397.1807      7675.7837      4296.3146     -137160.26    
    387400   2342.8373     -2655.8139      4381.4915     -137159.59    
    387500   2518.834      -8520.6794      4444.2024     -137156.85    
    387600   2434.5381      201.00729      4452.4171     -137150.54    
    387700   2623.6311      943.19569      4446.1437     -137157.04    
    387800   2436.0583     -12359.064      4440.6439     -137159.7     
    387900   2276.6048     -2068.3036      4367.3365     -137161.37    
    388000   2434.6462      7362.027       4285.4415     -137161.37    
    388100   2673.1347      1493.2716      4266.8418     -137164.52    
    388200   2392.4776      4253.2807      4294.5101     -137159.12    
    388300   2322.3356      206.72689      4345.4851     -137160.6     
    388400   2568.976      -7116.6003      4382.8553     -137163.1     
    388500   2856.846      -8586.4706      4407.7323     -137162.29    
    388600   2609.1282     -3000.8842      4430.4025     -137157.58    
    388700   2372.8493     -5533.8834      4422.9828     -137156.82    
    388800   2471.0324      1784.7798      4387.2018     -137158.79    
    388900   2589.4989      6646.1617      4374.4995     -137159.28    
    389000   2420.6014     -2529.1173      4393.575      -137154.99    
    389100   2356.693       2049.7632      4394.3        -137153.86    
    389200   2458.3073      5793.7688      4377.607      -137156.25    
    389300   2655.568       4947.1044      4395.0601     -137158.23    
    389400   2500.1311     -470.84449      4447.6517     -137155.77    
    389500   2261.2074     -7896.6184      4481.302      -137154.92    
    389600   2555.974      -8030.3331      4454.4863     -137158.87    
    389700   2709.8761      3084.0598      4407.3244     -137156.12    
    389800   2556.5439      6186.7327      4397.4169     -137154.91    
    389900   2593.4122     -11825.576      4428.0116     -137159.74    
    390000   2356.8062     -9697.1618      4400.5961     -137154.43    
    390100   2619.6226      11878.143      4305.7602     -137159.66    
    390200   2448.2638      12405.444      4269.619      -137157.62    
    390300   2436.7677     -7085.4269      4309.9855     -137166.47    
    390400   2455.606      -8450.6188      4369.1386     -137166.35    
    390500   2582.9563     -12599.08       4392.7019     -137163.27    
    390600   2513.4613     -2179.8696      4358.5395     -137156.94    
    390700   2582.5805      10761.312      4299.4165     -137159.39    
    390800   2436.3633      8629.7868      4292.1796     -137160.13    
    390900   2411.499       1419.4311      4355.8308     -137162.22    
    391000   2521.5602     -7683.2752      4433.0325     -137158.19    
    391100   2715.4035     -1955.2798      4463.1912     -137156.85    
    391200   2438.3078     -3195.2029      4468.2683     -137153.79    
    391300   2436.5039     -6569.6844      4434.884      -137156.76    
    391400   2571.5762     -2424.5772      4355.9251     -137160.5     
    391500   2484.8655      7033.8156      4277.1083     -137158.41    
    391600   2518.4255      7371.42        4261.0113     -137161.61    
    391700   2451.0297     -3281.4625      4317.1        -137162.31    
    391800   2488.4652     -8824.1641      4371.6588     -137160.91    
    391900   2746.6574     -7546.7657      4404.7317     -137160.32    
    392000   2619.7261     -6591.1543      4419.4376     -137155.73    
    392100   2456.1947     -2410.6463      4396.6358     -137158.5     
    392200   2411.0696      1550.1804      4329.058      -137164.67    
    392300   2318.7305      10975.31       4256.6442     -137159.97    
    392400   2630.4756     -2816.6768      4237.9803     -137163.1     
    392500   2538.5174      17015.536      4243.5483     -137161.02    
    392600   2269.2988     -12338.747      4326.9423     -137160.55    
    392700   2180.3177     -11106.478      4354.066      -137161.51    
    392800   2524.2136      389.69484      4315.5429     -137160.69    
    392900   2488.5296      13073.126      4276.7162     -137159.79    
    393000   2213.9609      1349.1868      4282.8161     -137155.63    
    393100   2406.7106      5539.542       4288.8933     -137159.86    
    393200   2777.6335      773.50119      4330.9028     -137161.6     
    393300   2664.0566     -10413.25       4403.1948     -137157.37    
    393400   2462.1988      3175.2687      4426.0037     -137156.13    
    393500   2472.4347     -10518.495      4428.0342     -137157.21    
    393600   2565.0993     -7095.3615      4367.0733     -137160.74    
    393700   2595.6001     -1564.829       4259.5972     -137163.58    
    393800   2447.6175      9409.0318      4165.2744     -137163.22    
    393900   2303.1011      7297.8973      4137.7847     -137167.84    
    394000   2290.8667      7598.5186      4167.8926     -137167.62    
    394100   2599.399      -1202.0796      4239.5919     -137167.31    
    394200   2490.6457     -3371.5436      4325.2879     -137161.63    
    394300   2440.5158     -5201.9922      4386.3416     -137160.1     
    394400   2585.6347     -7039.4081      4410.7642     -137162.11    
    394500   2484.1468     -3276.7243      4395.2072     -137153.92    
    394600   2782.5857      13433.915      4372.0838     -137157.71    
    394700   2478.8984     -1695.7589      4419.3739     -137159.27    
    394800   2296.5376     -6947.6005      4465.955      -137156.64    
    394900   2498.8786     -10182.359      4456.1465     -137156.75    
    395000   2568.8645      256.90872      4384.8926     -137154.2     
    395100   2610.6192      4716.6503      4308.7228     -137157.9     
    395200   2454.549       9404.4523      4259.8196     -137160.27    
    395300   2520.0864     -1622.5636      4248.9309     -137163.84    
    395400   2465.0254      8141.9856      4265.3917     -137162.3     
    395500   2471.0196      962.27076      4334.4167     -137160.9     
    395600   2487.9379      2055.6728      4382.7168     -137153.29    
    395700   2625.5767     -6406.0921      4395.9745     -137153.31    
    395800   2598          -518.58972      4360.4316     -137158.93    
    395900   2480.244       8526.9234      4326.1778     -137160.49    
    396000   2438.8277      1148.7976      4352.5827     -137159.17    
    396100   2544.5035     -2676.6479      4382.0601     -137161.5     
    396200   2489.0006      299.89412      4403.8056     -137159.9     
    396300   2447.8168     -3975.5913      4440.2388     -137156.84    
    396400   2764.4124     -10201.453      4467.0859     -137159.94    
    396500   2581.026      -7276.5398      4457.511      -137156.46    
    396600   2434.1266      4089.5374      4417.1769     -137160.88    
    396700   2393.8887     -8122.5471      4374.5189     -137163.06    
    396800   2489.7551      803.75728      4298.8598     -137161.48    
    396900   2626.5646      5718.6582      4254.7294     -137161.45    
    397000   2590.5737      3098.3342      4267.8045     -137162.75    
    397100   2390.8951     -4379.9471      4323.2365     -137161.02    
    397200   2405.2422     -8898.1252      4369.3777     -137159.33    
    397300   2414.5431      2261.3097      4388.5377     -137156.13    
    397400   2561.5402      3082.279       4412.8793     -137158.01    
    397500   2396.2796     -8038.3957      4435.0969     -137155.62    
    397600   2305.9413     -3744.5621      4400.2714     -137157.49    
    397700   2528.437       3354.2404      4331.4225     -137165.88    
    397800   2362.4171      13739.703      4274.8246     -137160.66    
    397900   2585.9015      2646.2955      4263.3775     -137162.76    
    398000   2482.7845      8827.2243      4287.532      -137154.1     
    398100   2736.4153     -1263.5989      4362.7196     -137160.92    
    398200   2259.3249     -5217.1919      4463.3388     -137158.21    
    398300   2297.4924     -13668.217      4524.1011     -137156.73    
    398400   2563.7351      456.85929      4492.0959     -137158.31    
    398500   2576.738      -6846.1211      4444.5983     -137159.34    
    398600   2530.9845     -6509.6238      4375.8291     -137163.06    
    398700   2294.2924      7628.1651      4272.4106     -137165.12    
    398800   2312.7861      6411.1437      4212.0822     -137165.3     
    398900   2487.3593      8163.1267      4211.0463     -137165.48    
    399000   2386.1814      9616.4809      4278.1807     -137158.89    
    399100   2597.3566     -4671.3021      4403.6958     -137160.74    
    399200   2424.2952     -9030.9566      4500.9427     -137157.16    
    399300   2320.4553     -14935.435      4501.5549     -137158.02    
    399400   2481.3653      15536.29       4394.2438     -137159.33    
    399500   2677.2883      617.06031      4352.2247     -137158.03    
    399600   2597.5453      2460.8957      4346.6799     -137159.76    
    399700   2390.7314     -3570.0181      4360.7399     -137160.23    
    399800   2426.3903      821.15052      4360.0879     -137160.05    
    399900   2648.0643     -3429.3465      4359.3852     -137162.64    
    400000   2429.1841      3781.3806      4364.4118     -137155.65    
Loop time of 38538.4 on 8 procs for 400000 steps with 216 atoms

Performance: 0.897 ns/day, 26.763 hours/ns, 10.379 timesteps/s, 2.242 katom-step/s
98.7% CPU use with 8 MPI tasks x 1 OpenMP threads

MPI task timing breakdown:
Section |  min time  |  avg time  |  max time  |%varavg| %total
---------------------------------------------------------------
Pair    | 33227      | 33453      | 33679      |  97.2 | 86.81
Neigh   | 7.3321     | 7.3734     | 7.4417     |   1.4 |  0.02
Comm    | 4654.6     | 4880.7     | 5107.2     | 254.6 | 12.66
Output  | 43.814     | 47.482     | 72.839     | 139.1 |  0.12
Modify  | 77.867     | 102.19     | 107.19     |  91.2 |  0.27
Other   |            | 47.26      |            |       |  0.12

Nlocal:             27 ave          30 max          24 min
Histogram: 1 1 0 2 0 1 1 0 0 2
Nghost:        615.625 ave         628 max         607 min
Histogram: 1 2 1 1 0 0 1 1 0 1
Neighs:              0 ave           0 max           0 min
Histogram: 8 0 0 0 0 0 0 0 0 0
FullNghs:         2526 ave        2842 max        2239 min
Histogram: 1 1 0 2 1 0 1 0 0 2

Total # of neighbors = 20208
Ave neighs/atom = 93.555556
Neighbor list builds = 12134
Dangerous builds = 0
System init for write_data ...
Total wall time: 10:42:19
