LAMMPS (12 Jun 2025)
OMP_NUM_THREADS environment is not set. Defaulting to 1 thread. (src/comm.cpp:99)
  using 1 OpenMP thread(s) per MPI task
Reading data file ...
  orthogonal box = (-0.08237604 -0.08237604 -0.08237604) to (16.375376 16.375376 16.375376)
  2 by 2 by 2 MPI processor grid
  reading atoms ...
  216 atoms
  reading velocities ...
  216 velocities
  read_data CPU = 0.390 seconds
The scaling is : 6.00e-02.
There are 2 species.
Neighbor list info ...
  update: every = 1 steps, delay = 0 steps, check = yes
  max neighbors/atom: 2000, page size: 100000
  master list distance cutoff = 7.7
  ghost atom cutoff = 7.7
  binsize = 3.85, bins = 5 5 5
  1 neighbor lists, perpetual/occasional/extra = 1 0 0
  (1) pair mtp, perpetual
      attributes: full, newton on
      pair build: full/bin/atomonly
      stencil: full/bin/3d
      bin: standard
Setting up Verlet run ...
  Unit style    : metal
  Current step  : 0
  Time step     : 0.001
Per MPI rank memory allocation (min/avg/max) = 3.075 | 3.075 | 3.076 Mbytes
   Step          Temp          Press          Volume         PotEng    
         0   2583.5079     -12979.848      4457.7073     -137156.55    
       100   2558.6272      267.85949      4416.7982     -137159.94    
       200   2411.0045     -11971.444      4346.2969     -137164.38    
       300   2605.3048      5953.6135      4234.2496     -137172.06    
       400   2501.2025      18242.415      4189.8327     -137169.35    
       500   2310.0352     -2720.4387      4250.5233     -137162.17    
       600   2713.1167     -764.32153      4325.421      -137164.23    
       700   2636.2612     -1067.5695      4392.9177     -137158.51    
       800   2602.6804     -5429.8231      4432.7684     -137159.58    
       900   2511.7028     -8394.4715      4431.1725     -137159.03    
      1000   2720.5525     -7439.8365      4369.4646     -137165.91    
      1100   2252.4417      4284.8725      4290.3085     -137161.67    
      1200   2384.8559      5941.6024      4234.7846     -137168.66    
      1300   2329.5251      653.36567      4219.9461     -137161.93    
      1400   2574.0231      6296.2949      4221.022      -137163.05    
      1500   2616.7613      5144.3915      4271.8028     -137164.84    
      1600   2423.3678     -14591.51       4353.0811     -137162.15    
      1700   2399.6998      697.91692      4369.7338     -137162.4     
      1800   2475.7364     -3069.147       4372.9125     -137161.63    
      1900   2638.0462     -10153.346      4347.1953     -137159.59    
      2000   2810.8793      3790.3931      4268.904      -137164.73    
      2100   2409.8468      1793.7057      4216.8324     -137163.25    
      2200   2480.5013      2307.9952      4192.3012     -137166.78    
      2300   2522.4615      7511.8419      4203.2249     -137165.45    
      2400   2634.1176      3166.8011      4247.9385     -137166.1     
      2500   2472.3477      6271.2819      4328.399      -137157.44    
      2600   2807.4919     -1952.3484      4429.9335     -137161.97    
      2700   2397.2255     -10545.684      4520.5575     -137154.27    
      2800   2443.7317     -9336.7299      4516.3989     -137160.25    
      2900   2412.4395     -13317.348      4427.1933     -137159.97    
      3000   2810.9704      6940.9727      4282.7467     -137164.11    
      3100   2777.6713      11616.026      4200.6851     -137165.36    
      3200   2463.8601      3650.2449      4207.1085     -137165.39    
      3300   2486.758       5590.0028      4257.3477     -137166.74    
      3400   2630.1977     -12313.721      4330.3181     -137167.2     
      3500   2668.5121     -1436.8704      4369.2416     -137160.41    
      3600   2635.1977     -8790.3825      4409.0605     -137159       
      3700   2518.5477     -4963.9884      4420.6819     -137157.12    
      3800   2545.3636     -9464.5882      4385.341      -137158.97    
      3900   2539.4258      9465.1856      4308.237      -137161.05    
      4000   2430.9367      5575.6076      4280.7014     -137163.8     
      4100   2199.7996      4025.6011      4277.4769     -137164.47    
      4200   2439.0038     -2670.6826      4281.2995     -137166.56    
      4300   2413.3301     -1470.6835      4260.0345     -137162.61    
      4400   2623.6942      7280.7459      4230.1077     -137166.46    
      4500   2430.113      -2186.4945      4247.26       -137163.95    
      4600   2237.123       4745.0153      4275.77       -137165.49    
      4700   2177.7969     -5571.5024      4319.4939     -137167.25    
      4800   2278.7899     -1700.3262      4330.4377     -137160.13    
      4900   2534.4231     -231.49422      4317.7811     -137161.28    
      5000   2599.5885      5414.8218      4324.3828     -137159.42    
      5100   2515.957      -5454.592       4362.7783     -137160.62    
      5200   2292.2868     -2658.6068      4383.2198     -137160.28    
      5300   2285.4938      2326.8414      4386.8667     -137159.79    
      5400   2576.5917      7118.8466      4387.5207     -137156.28    
      5500   2655.5548     -2369.6947      4392.9065     -137157.55    
      5600   2551.1033     -4540.6642      4390.3897     -137159.84    
      5700   2406.771      -1494.8285      4371.7185     -137160.22    
      5800   2352.03        587.57878      4336.9963     -137160.64    
      5900   2498.8555      1264.0989      4300.6426     -137163.57    
      6000   2766.2023      1733.8724      4285.9478     -137164.13    
      6100   2692.8619      926.63236      4305.9068     -137165.01    
      6200   2316.1053     -5600.9118      4348.8017     -137161.16    
      6300   2446.834      -6555.671       4362.8932     -137161.27    
      6400   2601.1955      2496.3154      4333.8383     -137160.61    
      6500   2615.6052     -3699.8668      4307.163      -137160.87    
      6600   2651.6905      5509.3716      4279.1103     -137165.03    
      6700   2461.5362     -10053.091      4286.9326     -137165.12    
      6800   2420.4783      5988.29        4266.7016     -137164.15    
      6900   2400.8813      12890.32       4270.9351     -137160.49    
      7000   2614.0202     -7948.715       4326.9194     -137165.19    
      7100   2620.8205     -9652.6531      4366.4793     -137164.82    
      7200   2543.9068     -7529.145       4361.3045     -137161.52    
      7300   2623.2546     -8884.1964      4323.1678     -137162.33    
      7400   2539.4926      10315.033      4263.2939     -137160.59    
      7500   2304.9223      8750.8797      4249.0581     -137161.63    
      7600   2518.0745     -8601.4507      4270.2384     -137169.67    
      7700   2483.8773     -3878.5928      4259.4244     -137164.76    
      7800   2677.9518      4087.868       4232.3532     -137161.96    
      7900   2658.4585      230.16486      4227.0673     -137164.02    
      8000   2501.4863      13976.012      4232.5399     -137164.87    
      8100   2563.2022     -16996.299      4307.8931     -137168.56    
      8200   2551.0601     -1563.9677      4354.3822     -137164.96    
      8300   2598.779      -10821.144      4401.2006     -137159.35    
      8400   2650.844      -2702.3386      4417.4592     -137159.56    
      8500   2486.8092     -10382.853      4408.4896     -137157.77    
      8600   2212.3653     -4629.9959      4352.9143     -137159.23    
      8700   2209.7896      12281.786      4304.2777     -137163.48    
      8800   2421.4478      6400.0997      4301.071      -137163.92    
      8900   2439.2157     -2756.4284      4332.8865     -137159.45    
      9000   2547.5939     -9948.1201      4343.322      -137160.17    
      9100   2653.3659     -1078.5094      4309.827      -137161.54    
      9200   2678.6101     -507.61259      4288.0142     -137161.83    
      9300   2395.032      -958.02347      4281.2106     -137161.19    
      9400   2465.3357     -6229.4289      4262.1618     -137167.6     
      9500   2480.028       6570.5692      4217.7511     -137168.95    
      9600   2438.9578      11577.806      4215.4406     -137166.52    
      9700   2655.7616     -1591.7551      4286.6396     -137164.31    
      9800   2529.6628     -6056.2835      4392.3644     -137155.84    
      9900   2535.4176     -8048.0058      4465.2118     -137154.87    
     10000   2399.5447     -12560.646      4468.3198     -137158.38    
     10100   2312.482      -2357.6785      4389.24       -137163.52    
     10200   2499.8799      9407.7115      4279.2341     -137165.91    
     10300   2569.4197      14007.239      4222.0914     -137164.93    
     10400   2551.6868     -12.160371      4251.8474     -137163.34    
     10500   2678.1062      7819.7155      4324.7994     -137160.97    
     10600   2720.9856     -10605.253      4435.4932     -137155.12    
     10700   2581.4981      1678.6702      4498.9137     -137152.88    
     10800   2424.4588     -12594.8        4526.3554     -137155.84    
     10900   2372.4096     -7410.8206      4462.3543     -137158.39    
     11000   2421.9616      4810.2029      4350.0956     -137157.23    
     11100   2869.1921      17856.026      4277.0603     -137157.35    
     11200   2767.4278     -2738.4644      4299.5115     -137160.78    
     11300   2400.5009     -10744.529      4325.3923     -137158.84    
     11400   2415.1479     -6396.6946      4296.9228     -137161.96    
     11500   2554.7972      2398.8994      4247.8908     -137164.72    
     11600   2530.0272      4742.0886      4218.8158     -137163.27    
     11700   2474.639       12278.96       4206.877      -137162.86    
     11800   2564.9612     -1312.4746      4242.6913     -137167.05    
     11900   2207.3992      3100.5627      4288.8384     -137159.39    
     12000   2394.2176      4888.0606      4315.6445     -137160.71    
     12100   2658.3989      6456.2187      4355.0777     -137160.8     
     12200   2371.233      -6362.4333      4397.9376     -137154.54    
     12300   2456.8048     -6403.3314      4378.2205     -137158.35    
     12400   2718.658       8133.1105      4328.3441     -137160.97    
     12500   2510.519      -4302.0633      4308.4957     -137160.49    
     12600   2306.7222      5820.0542      4261.8321     -137162.79    
     12700   2420.923       3989.8107      4229.5661     -137164.14    
     12800   2658.0765      8370.4165      4244.2417     -137165.23    
     12900   2778.8652     -4088.7015      4316.9592     -137167.28    
     13000   2278.8851     -18421.669      4388.7281     -137160.66    
     13100   2206.6254     -8111.4935      4348.1902     -137161.07    
     13200   2607.2838      6796.6132      4251.4731     -137163.91    
     13300   2715.3389      13352.259      4214.9064     -137166.7     
     13400   2342.3121      4009.4555      4272.941      -137161.14    
     13500   2331.7512     -5129.1673      4335.5864     -137160.58    
     13600   2544.624       276.60136      4370.4624     -137159.84    
     13700   2552.1582     -11160.586      4402.9764     -137156.5     
     13800   2378.4495     -23.751891      4380.4442     -137154.68    
     13900   2605.0699     -1428.9273      4315.7785     -137162.02    
     14000   2479.3576      7885.0806      4243.2614     -137160.84    
     14100   2423.9423      9294.2019      4219.528      -137164.16    
     14200   2438.5756      7048.9481      4247.8484     -137167.48    
     14300   2398.9683      3096.9853      4301.6522     -137164.02    
     14400   2703.8225      7275.5736      4362.8427     -137163.66    
     14500   2628.695      -4800.3222      4462.6071     -137158.85    
     14600   2489.2416     -17084.206      4532.9063     -137154.52    
     14700   2499.6308     -17087.236      4483.5848     -137156.13    
     14800   2448.9135      5563.7333      4329.3574     -137160.67    
     14900   2431.2996      13359.334      4214.1298     -137165.47    
     15000   2337.3535      10179.672      4205.1308     -137165.2     
     15100   2455.3502      1135.667       4254.6761     -137163.71    
     15200   2701.7371      73.143646      4320.1145     -137163.59    
     15300   2537.4547     -10796.209      4382.4807     -137159.35    
     15400   2525.1078     -3020.9757      4374.4286     -137159.71    
     15500   2429.8139      5433.4248      4336.7828     -137162.36    
     15600   2278.6293      1269.1668      4320.4177     -137167.91    
     15700   2207.7084      1442.6753      4305.9574     -137161.04    
     15800   2518.5105      8527.1377      4286.4752     -137161.24    
     15900   2787.4259     -7399.5757      4299.5418     -137165.47    
     16000   2507.227       3330.2951      4332.6977     -137162.3     
     16100   2345.8696     -6249.8705      4367.3842     -137162.69    
     16200   2527.6422     -2775.4083      4347.6697     -137165.57    
     16300   2829.5969      305.61722      4318.765      -137162.92    
     16400   2450.5609      8048.6423      4304.61       -137155.73    
     16500   2323.9052      908.37961      4308.9775     -137156.58    
     16600   2596.4914      814.21469      4308.1207     -137162.88    
     16700   2555.2841     -2377.4418      4312.271      -137161.09    
     16800   2372.4031     -602.82591      4306.1258     -137166.02    
     16900   2306.8796     -8083.1596      4274.2829     -137167.11    
     17000   2581.2965      1679.7932      4215.1908     -137167.02    
     17100   2607.85        5912.874       4184.1951     -137164.37    
     17200   2572.8679      743.20231      4197.1893     -137165.8     
     17300   2366.3752     -6405.9963      4245.8143     -137164.99    
     17400   2411.9414     -1787.5904      4278.9289     -137169.66    
     17500   2535.9974     -2205.2656      4293.5609     -137169.81    
     17600   2462.5868      9988.5959      4311.8509     -137159.48    
     17700   2416.2135      5491.1292      4364.0859     -137154.66    
     17800   2510.9467     -8085.3556      4414.9522     -137156.37    
     17900   2641.5624     -59.391519      4417.5856     -137159.28    
     18000   2424.7121     -1191.331       4416.6597     -137156.87    
     18100   2438.618      -9661.8153      4393.3369     -137160.37    
     18200   2432.1516      5361.3603      4298.8782     -137161.72    
     18300   2652.676       10355.599      4221.2504     -137167.23    
     18400   2380.8973     -3702.5507      4214.7726     -137164.24    
     18500   2252.5663      5765.5556      4227.6385     -137163.29    
     18600   2510.9019     -671.93315      4260.5134     -137163.21    
     18700   2713.6941     -1062.0515      4302.2112     -137163.13    
     18800   2460.1344     -199.43342      4374.6778     -137158.52    
     18900   2607.856      -3917.5494      4460.7066     -137162.21    
     19000   2582.1017     -14176.387      4522.865      -137158.17    
     19100   2846.7677     -6355.5819      4507.7949     -137154.95    
     19200   2619.5991     -1767.7509      4468.4253     -137153.95    
     19300   2471.8053     -5068.7216      4419.6381     -137157.2     
     19400   2537.6627     -1522.541       4334.6378     -137160.48    
     19500   2536.6894      5489.2478      4232.5893     -137160.24    
     19600   2590.7937      4743.0016      4174.7975     -137162.41    
     19700   2519.579       2560.8047      4176.7547     -137168.87    
     19800   2422.7183     -514.45753      4209.2599     -137169.56    
     19900   2558.7077      3135.2658      4260.3637     -137168       
     20000   2600.1905     -6008.6661      4348.1702     -137163.73    
     20100   2502.6356     -7346.735       4407.5028     -137160.51    
     20200   2416.6356      2101.6607      4417.6506     -137159.23    
     20300   2573.2714     -12575.408      4420.1785     -137162.1     
     20400   2632.2287     -6874.1698      4363.8723     -137156.46    
     20500   2794.9872      18435.029      4293.4134     -137156.94    
     20600   2563.7535     -3689.5545      4328.4676     -137159.22    
     20700   2424.8123     -8773.0764      4370.6154     -137161.04    
     20800   2395.9941      3478.103       4349.8867     -137160.64    
     20900   2421.6081     -663.43137      4338.7534     -137157.71    
     21000   2791.9939     -720.63235      4353.1694     -137160.79    
     21100   2805.6296     -1733.5697      4364.5351     -137161.45    
     21200   2436.3312     -4502.0222      4381.8326     -137161.69    
     21300   2571.4003     -17830.085      4385.5958     -137165.14    
     21400   2663.3609      4295.1857      4329.4463     -137162.77    
     21500   2596.2413      8688.177       4296.257      -137159.85    
     21600   2385.669      -388.4629       4324.5569     -137164.36    
     21700   2304.263      -5536.3961      4373.7321     -137163.62    
     21800   2479.3551     -3226.0244      4387.7099     -137162.79    
     21900   2642.2628     -10371.957      4373.9997     -137163.02    
     22000   2677.4978     -4745.5072      4322.5512     -137164.88    
     22100   2547.4948      6661.0946      4277.105      -137167.02    
     22200   2454.7726      757.0557       4295.5152     -137167.53    
     22300   2479.2353     -10586.187      4354.9278     -137165.54    
     22400   2531.1107     -6557.2316      4373.1494     -137161.31    
     22500   2411.0241      4853.6703      4353.1674     -137154.55    
     22600   2574.0229      7412.9167      4349.2537     -137160.6     
     22700   2341.347      -6919.6702      4357.706      -137163.18    
     22800   2215.6465      2350.8812      4319.907      -137161.81    
     22900   2390.4257      9545.6595      4277.5395     -137163.87    
     23000   2499.4765      834.8406       4279.3567     -137164.9     
     23100   2557.9378      7347.6796      4283.3949     -137166.7     
     23200   2329.9984     -4554.8795      4311.8311     -137164.23    
     23300   2215.981      -787.12221      4334.4521     -137158.66    
     23400   2543.6094      7567.3214      4360.2483     -137157.61    
     23500   2572.0338     -6173.6995      4410.6265     -137157.63    
     23600   2476.7627     -6794.8338      4417.1109     -137159.82    
     23700   2466.069      -8515.2504      4371.2249     -137164.1     
     23800   2517.5159      7396.0073      4274.3433     -137165.44    
     23900   2570.9706      13329.383      4229.5307     -137162.57    
     24000   2646.3715     -5195.8418      4258.6167     -137164.23    
     24100   2367.3576      6313.6968      4271.389      -137162.83    
     24200   2233.098       4381.9235      4285.6331     -137162.53    
     24300   2558.6834      911.69991      4302.0076     -137163.89    
     24400   2661.8214      1309.8238      4322.1194     -137161.96    
     24500   2517.8427     -1943.4368      4343.6885     -137162.35    
     24600   2396.3091     -3639.0363      4353.6138     -137162.42    
     24700   2484.6341     -3391.8421      4350.6049     -137160.94    
     24800   2678.1665      7169.3077      4343.6469     -137155.64    
     24900   2581.3078      3550.1455      4362.1248     -137154.06    
     25000   2497.0167     -2071.1741      4383.285      -137156.88    
     25100   2407.6782     -10957.036      4374.4978     -137159.25    
     25200   2361.8197      11045.926      4311.3056     -137158.86    
     25300   2741.2848      9733.342       4289.1391     -137163.9     
     25400   2645.8529      955.41552      4304.2284     -137159.09    
     25500   2465.1046      2401.13        4330.677      -137160.87    
     25600   2273.6042     -4093.5087      4366.6179     -137158.81    
     25700   2606.055      -4426.3327      4377.3246     -137161.97    
     25800   2615.7835      9988.0664      4385.5131     -137158.7     
     25900   2531.4599     -11463.91       4428.3763     -137158.67    
     26000   2304.0293     -7655.5342      4406.7142     -137164.24    
     26100   2306.756      -10769.63       4336.1806     -137166.01    
     26200   2432.3881      10438.631      4198.7908     -137162.2     
     26300   2807.9368      21081.586      4101.1443     -137168.79    
     26400   2360.7318      14119.367      4136.2303     -137164.18    
     26500   2362.2594      834.10326      4244.6512     -137166.26    
     26600   2353.6252     -7425.2741      4363.3589     -137160.72    
     26700   2600.1837     -9625.4554      4439.5601     -137163.13    
     26800   2345.5499     -11617.723      4447.9366     -137154.83    
     26900   2703.2582     -1082.0834      4371.6406     -137161.77    
     27000   2530.6065      2580.6798      4299.8728     -137163.14    
     27100   2400.6695      1356.4661      4252.379      -137167.34    
     27200   2498.6076     -3470.4347      4236.4568     -137167.97    
     27300   2513.0991      5486.4398      4231.7615     -137163.37    
     27400   2454.0441      14833.071      4250.019      -137157.77    
     27500   2698.9653      724.41313      4326.2852     -137161.27    
     27600   2698.5486     -3420.1396      4417.0205     -137161.89    
     27700   2334.1579     -16027.548      4473.8285     -137158.31    
     27800   2302.77       -9946.7162      4419.7834     -137157.47    
     27900   2744.6022      1090.5861      4310.3138     -137161.96    
     28000   2704.894       14245.447      4233.133      -137162.9     
     28100   2549.3376      6659.6504      4239.465      -137163.8     
     28200   2445.1549      3118.2145      4290.3073     -137163.21    
     28300   2306.1102     -3052.4835      4352.178      -137159.36    
     28400   2677.3144     -7968.0206      4398.448      -137162.08    
     28500   2561.6707      659.58251      4432.9331     -137154.81    
     28600   2491.7087      1274.4925      4446.6119     -137155.68    
     28700   2410.9937     -2514.0556      4437.1188     -137156.19    
     28800   2649.3014     -7558.0641      4408.6525     -137164.1     
     28900   2507.4734      1890.8134      4354.812      -137165.01    
     29000   2353.8081     -2151.6143      4295.5033     -137164.28    
     29100   2626.5274      7031.2838      4236.8036     -137168.36    
     29200   2637.0246      13349.945      4229.5868     -137162.02    
     29300   2873.8282      3217.1826      4296.8729     -137162.43    
     29400   2573.8238     -9247.7219      4404.47       -137159.2     
     29500   2333.1525     -2654.6891      4479.4555     -137158.71    
     29600   2339.3439     -6107.2986      4497.4135     -137156.11    
     29700   2487.1918      4732.1032      4461.2639     -137156.35    
     29800   2545.1209     -1353.7827      4430.563      -137159.33    
     29900   2432.8758     -651.1733       4385.4726     -137158.47    
     30000   2697.5293      3783.5712      4342.8485     -137164.01    
     30100   2446.834      -9665.4256      4325.079      -137163.12    
     30200   2294.8005      5801.0494      4292.6502     -137165.03    
     30300   2374.0817      4862.2205      4301.2521     -137162.75    
     30400   2657.1852     -6969.7476      4336.1306     -137164.42    
     30500   2562.4599     -7709.4708      4339.9785     -137160.21    
     30600   2594.7205      2937.6569      4317.6797     -137160.45    
     30700   2434.6022      3396.1924      4321.9525     -137159.83    
     30800   2350.4208     -8477.8795      4333.1941     -137165.56    
     30900   2292.4147      433.30453      4313.5902     -137167.71    
     31000   2423.8905     -2684.7952      4297.5691     -137163.75    
     31100   2791.0258     -253.00704      4270.7679     -137166.46    
     31200   2548.8089      7705.1714      4256.6138     -137162.72    
     31300   2338.2275      3465.4179      4281.0515     -137163.05    
     31400   2445.548       1621.592       4342.2228     -137162.74    
     31500   2528.3695     -11071.168      4418.6762     -137158.13    
     31600   2527.2742     -4711.3198      4442.7176     -137156.44    
     31700   2471.0262     -4743.7136      4415.7279     -137156.84    
     31800   2629.8604     -1978.695       4332.3862     -137163.47    
     31900   2411.4274      16387.219      4237.1796     -137162.66    
     32000   2279.9268      952.468        4204.9235     -137167.19    
     32100   2351.8574      4357.1346      4183.9078     -137168.48    
     32200   2465.3363      15551.086      4172.2167     -137165.82    
     32300   2555.5148      9053.2963      4225.9287     -137165.71    
     32400   2463.2644     -11318.739      4347.2901     -137162.01    
     32500   2456.0859     -9033.0782      4415.8663     -137158.59    
     32600   2484.777      -12344.55       4409.4056     -137156.06    
     32700   2588.7225      4741.8787      4323.8458     -137154.61    
     32800   2707.4981      10273.37       4247.2528     -137160.17    
     32900   2315.2537      7062.1118      4230.8038     -137159.82    
     33000   2542.3504      2515.9497      4249.5635     -137166.8     
     33100   2274.7957      5182.8068      4298.7185     -137158.31    
     33200   2478.5468     -9133.8109      4340.0239     -137156.73    
     33300   2695.8479      6865.5977      4336.0786     -137157.45    
     33400   2508.6482     -81.74096       4342.2538     -137157.96    
     33500   2484.107      -4762.3559      4338.7668     -137160.95    
     33600   2437.0156      2457.9997      4308.0702     -137160.94    
     33700   2497.9565      6669.9646      4273.6256     -137163.82    
     33800   2401.7347     -4745.1962      4268.4814     -137166.78    
     33900   2089.1536      7645.8711      4271.6865     -137162.24    
     34000   2392.7463     -114.9533       4304.6579     -137161.91    
     34100   2547.3381     -4742.4805      4313.8753     -137161.25    
     34200   2644.9541      2199.5081      4287.969      -137163.15    
     34300   2499.5345      1736.3909      4276.126      -137164.56    
     34400   2364.0553     -4660.3193      4274.4503     -137166.87    
     34500   2321.4813      5916.2622      4247.4671     -137167.36    
     34600   2668.4065     -1651.0351      4250.6191     -137166.22    
     34700   2730.7136      4925.7822      4263.946      -137166.36    
     34800   2455.6216     -4529.1975      4298.2191     -137166.1     
     34900   2284.5834     -4580.7329      4322.9988     -137161.28    
     35000   2653.851       2220.7142      4317.0509     -137163.86    
     35100   2598.9358     -397.96951      4324.6126     -137162.94    
     35200   2505.0198     -6785.9616      4346.1233     -137162.11    
     35300   2483.6244     -1604.8167      4338.3492     -137160.82    
     35400   2570.6845      889.09592      4303.8748     -137160.37    
     35500   2845.2697      11971.165      4269.9082     -137160.56    
     35600   2582.9005      7041.9386      4320.1999     -137159.99    
     35700   2373.3645     -8381.358       4411.8434     -137160.52    
     35800   2529.0721     -16756.793      4460.1327     -137161.45    
     35900   2783.3706     -3553.4863      4414.9511     -137163.51    
     36000   2507.9821      2246.9228      4345.3156     -137159.29    
     36100   2207.5976      5215.9005      4258.4624     -137161.42    
     36200   2463.1879      13027.516      4177.6775     -137167.47    
     36300   2406.1833      16681.578      4185.2514     -137165.22    
     36400   2519.01       -2685.4697      4279.4341     -137165.07    
     36500   2548.8399      2768.4462      4381.5699     -137157.74    
     36600   2715.4396     -9911.4459      4477.7917     -137157.05    
     36700   2543.2303     -7539.3319      4522.4337     -137158.56    
     36800   2356.7919     -12821.365      4499.9021     -137161.99    
     36900   2400.8461      1164.8595      4424.4723     -137159.96    
     37000   2526.936      -10281.091      4353.8734     -137158.42    
     37100   2657.8742      19835.455      4256.6956     -137162.89    
     37200   2446.233      -2751.3682      4255.257      -137166.71    
     37300   2370.3841     -5433.1071      4264.6645     -137166.8     
     37400   2490.7566      471.28769      4252.7337     -137166.18    
     37500   2570.882       12877.487      4248.9174     -137164.77    
     37600   2509.7044      6077.7395      4313.212      -137159.12    
     37700   2621.6258     -8522.4429      4401.6285     -137156.31    
     37800   2739.7453     -8167.2779      4451.899      -137154.43    
     37900   2517.6102      1144.1536      4458.192      -137154.8     
     38000   2451.6311     -12505.274      4451.5447     -137159.08    
     38100   2497.7005     -4527.242       4362.1363     -137161.83    
     38200   2577.5951      11598.329      4246.403      -137165.51    
     38300   2269.984      -1398.4364      4215.0357     -137164.62    
     38400   2381.0611      3316.7679      4211.2762     -137167.9     
     38500   2628.6545      11753.892      4234.4724     -137166.36    
     38600   2628.9043     -2322.1447      4313.8449     -137164.77    
     38700   2422.6678     -10235.861      4387.7025     -137161.14    
     38800   2397.5818      238.69745      4400.9171     -137159.12    
     38900   2633.3927     -9374.6324      4379.8566     -137162.51    
     39000   2605.4396      5531.4167      4336.748      -137162.23    
     39100   2603.6441     -2416.6287      4335.1103     -137165.06    
     39200   2378.9999     -10508.086      4332.8117     -137162.62    
     39300   2252.7866     -1513.665       4288.4696     -137166.71    
     39400   2372.0133      10311.197      4234.6635     -137165.31    
     39500   2708.2459      6818.5897      4237.2038     -137166.9     
     39600   2518.929       6596.3413      4307.8044     -137161.62    
     39700   2377.3656     -9153.8528      4396.7177     -137158.86    
     39800   2418.4466     -10766.11       4407.9538     -137160.4     
     39900   2544.5694     -457.11199      4349.1949     -137159.95    
     40000   2789.1121      307.23268      4293.584      -137163.35    
     40100   2426.6449      11282.973      4271.4975     -137159.99    
     40200   2237.574      -2463.9956      4302.0649     -137159.8     
     40300   2274.3202      3769.4942      4309.3542     -137156.86    
     40400   2500.1668     -475.90055      4310.1564     -137159.33    
     40500   2571.1394      11087.037      4322.7446     -137161.62    
     40600   2546.3776     -11348.593      4382.6616     -137163.51    
     40700   2080.1281     -4659.4093      4390.0316     -137158.05    
     40800   2344.1616      4350.0712      4346.784      -137162.54    
     40900   2681.6275      6878.0208      4301.039      -137162.48    
     41000   2503.5603      3102.8222      4296.7085     -137159.21    
     41100   2547.2966      3633.2734      4320.9186     -137162.34    
     41200   2359.5677      1372.8433      4374.9029     -137158.46    
     41300   2527.3986     -8984.655       4423.6002     -137156.85    
     41400   2496.5549     -404.09222      4444.9544     -137149.9     
     41500   2489.5611     -3370.5368      4473.5526     -137151.73    
     41600   2302.9935     -8510.0587      4463.0345     -137156.07    
     41700   2459.1939     -5814.2279      4410.1066     -137161.78    
     41800   2477.0737     -805.03908      4332.8522     -137160.15    
     41900   2621.1315      13366.413      4251.7006     -137162.96    
     42000   2443.0522      3654.5619      4251.9753     -137163.09    
     42100   2201.5171      283.95602      4278.9329     -137163.63    
     42200   2387.6148     -7102.5302      4285.597      -137166.1     
     42300   2441.2381      4484.8055      4262.4755     -137162.68    
     42400   2527.5572      10407.914      4261.9441     -137165.32    
     42500   2338.598      -2311.3133      4318.7097     -137162.55    
     42600   2529.5943     -15368.809      4363.8041     -137164.39    
     42700   2671.6427      6719.1257      4355.9535     -137159.26    
     42800   2699.9003     -7371.9743      4377.8709     -137162.12    
     42900   2566.1448      239.80331      4372.3749     -137162.41    
     43000   2509.8434     -3908.6353      4338.0762     -137163.58    
     43100   2412.5325      6380.9644      4281.6189     -137158.75    
     43200   2668.7579      9252.1442      4239.4665     -137163.48    
     43300   2266.0672      4416.4143      4245.3133     -137163.98    
     43400   2291.3362      517.85077      4272.746      -137164.79    
     43500   2522.706       4872.1199      4302.0813     -137163.56    
     43600   2483.5757      1451.5834      4363.1532     -137157.51    
     43700   2457.7766     -370.11367      4434.4504     -137153.8     
     43800   2573.0368     -12780.61       4478.0827     -137155.58    
     43900   2586.1581      2364.5216      4446.6652     -137158.6     
     44000   2371.0438      1666.6785      4403.6305     -137161.23    
     44100   2471.51        1924.1166      4356.016      -137166.68    
     44200   2560.2129      3654.1967      4310.992      -137165.58    
     44300   2496.686       11201.74       4279.0062     -137159.04    
     44400   2637.7942     -197.38917      4275.4376     -137161.78    
     44500   2472.5359      7235.5518      4301.9316     -137163.06    
     44600   2218.3044     -5103.7317      4379.269      -137160.87    
     44700   2351.3506     -6549.039       4427.8846     -137157.72    
     44800   2487.5204     -701.47852      4409.7349     -137155.51    
     44900   2498.776       7133.1196      4349.2748     -137155.05    
     45000   2394.0598      18211.573      4328.2648     -137156.9     
     45100   2312.0836     -7472.9642      4377.3728     -137158.99    
     45200   2461.01       -8863.9454      4366.4972     -137160.28    
     45300   2720.5698      8559.1972      4302.8956     -137157.73    
     45400   2564.0643      602.6777       4291.2146     -137157.25    
     45500   2483.6378     -5445.9774      4291.9294     -137162.25    
     45600   2287.5239      5767.8499      4282.8858     -137158.12    
     45700   2573.8972     -8841.2847      4270.331      -137162.6     
     45800   2603.0391      9599.0324      4240.7621     -137160.36    
     45900   2455.7156      8186.7281      4239.6479     -137165.47    
     46000   2341.3796      4362.224       4278.4536     -137166.86    
     46100   2451.676      -3970.8417      4350.4166     -137165.12    
     46200   2458.6249     -3549.2788      4427.5709     -137157.82    
     46300   2567.1747     -9707.339       4485.9325     -137156.74    
     46400   2407.1203     -10532.188      4475.7279     -137152.25    
     46500   2566.5475      3173.3543      4379.3083     -137156.2     
     46600   2693.5588      16439.466      4284.513      -137161.76    
     46700   2511.3795     -913.71343      4303.8018     -137166.53    
     46800   2427.1202     -8278.5763      4351.1215     -137164.19    
     46900   2505.2759      6098.9778      4363.8773     -137160.7     
     47000   2607.9787      12666.878      4400.8275     -137159.4     
     47100   2383.9713     -8615.3787      4470.5369     -137151.36    
     47200   2606.1117     -1110.6833      4476.0014     -137153.07    
     47300   2522.791      -587.94211      4439.9734     -137155.72    
     47400   2414.7459     -1815.9452      4378.8861     -137160.04    
     47500   2534.6396      2278.6166      4287.1355     -137164.56    
     47600   2463.1241      8462.9344      4195.0227     -137162.81    
     47700   2487.6009      6261.1931      4156.387      -137169.07    
     47800   2250.7799      5085.798       4178.4087     -137167.96    
     47900   2371.3692     -798.07641      4237.7913     -137164.94    
     48000   2566.7266      2854.2695      4306.3142     -137163.8     
     48100   2446.3958     -1375.5347      4384.1888     -137158.67    
     48200   2587.2759     -8493.435       4431.5372     -137160.66    
     48300   2669.3251     -7543.1063      4423.2309     -137158.24    
     48400   2814.6001     -3226.0069      4370.1407     -137156.32    
     48500   2576.7442     -5802.887       4318.1424     -137157.82    
     48600   2607.9144     -2511.925       4243.1782     -137165.56    
     48700   2550.1901      9711.8829      4178.235      -137167.46    
     48800   2332.5427      7839.1555      4158.7927     -137166.86    
     48900   2250.4551      14016.295      4187.7805     -137163.11    
     49000   2654.6082      9130.9611      4297.0491     -137165.03    
     49100   2540.6309     -7685.0217      4462.5623     -137161.08    
     49200   2427.3541     -17462.895      4558.0066     -137155.53    
     49300   2488.0309     -1947.367       4516.2823     -137153.02    
     49400   2778.858      -3828.1823      4428.2597     -137155.88    
     49500   2571.2465      1257.4036      4335.8996     -137160.4     
     49600   2576.902       5251.0537      4276.3682     -137167.41    
     49700   2377.3419      9578.3973      4255.6728     -137166.68    
     49800   2271.2385     -31.134639      4283.0599     -137162.27    
     49900   2585.3703     -1047.6486      4289.5016     -137162.22    
     50000   2545.2632     -796.73659      4284.8021     -137160.18    
     50100   2427.9682     -1720.8983      4271.4202     -137160.09    
     50200   2514.157       16522.742      4264.6882     -137162.13    
     50300   2403.2879      4861.0852      4324.3892     -137160.03    
     50400   2334.0953     -114.42127      4394.4765     -137160.21    
     50500   2443.1078     -10334.602      4446.6682     -137160.08    
     50600   2583.0692      2355.9693      4451.6461     -137158.17    
     50700   2557.6031     -6365.7141      4472.7257     -137153.37    
     50800   2725.3223     -3008.9925      4458.498      -137160.99    
     50900   2443.2276     -8924.8688      4417.1483     -137164.49    
     51000   2379.764       3491.6802      4330.7884     -137162.36    
     51100   2628.4858      6686.2827      4264.855      -137163.26    
     51200   2558.7723      7062.9271      4258.589      -137160.94    
     51300   2300.6835     -5069.3469      4302.7707     -137162.77    
     51400   2226.7226     -2303.4221      4331.1761     -137163.25    
     51500   2332.2694      49.900963      4325.0436     -137161.04    
     51600   2507.3415     -1390.6101      4302.0729     -137161.42    
     51700   2668.8021      744.45565      4274.6333     -137162.26    
     51800   2479.5488      10598.686      4264.0886     -137158.96    
     51900   2403.5697      516.72025      4300.5202     -137163.42    
     52000   2083.9496     -7295.1554      4358.4854     -137163.59    
     52100   2252.5407     -4432.5247      4361.4171     -137164.46    
     52200   2504.7065     -4611.0437      4319.539      -137165.46    
     52300   2422.8315      7395.0316      4267.0541     -137161.97    
     52400   2593.6081     -482.02007      4257.3652     -137163.41    
     52500   2489.9581      1843.1296      4264.8405     -137158.57    
     52600   2463.848       5014.9526      4269.9508     -137158.92    
     52700   2333.9226      1803.9406      4292.8175     -137159.83    
     52800   2365.2935     -3374.3662      4330.4857     -137166.01    
     52900   2497.6637     -9149.8221      4386.6577     -137165.47    
     53000   2588.0272     -7546.4153      4424.9092     -137160.51    
     53100   2668.0788     -5130.0663      4408.6253     -137162.29    
     53200   2400.4504      5781.0477      4352.9914     -137157.7     
     53300   2458.8255      5812.7591      4300.8721     -137161.76    
     53400   2123.775       3072.97        4270.3903     -137160.77    
     53500   2338.6268     -190.23987      4257.6614     -137166.63    
     53600   2493.5033      5551.5568      4256.7369     -137162.04    
     53700   2559.1042      2457.2459      4284.9201     -137162.73    
     53800   2528.8993     -2223.7857      4357.1505     -137162.16    
     53900   2463.1561     -8354.131       4428.1041     -137160.6     
     54000   2472.3101     -7723.1161      4430.1199     -137158.22    
     54100   2629.6854      4843.387       4356.0354     -137155.93    
     54200   2631.8704      7406.7104      4293.5727     -137161.02    
     54300   2540.8563      6506.8779      4274.0493     -137165.44    
     54400   2334.5351      1284.1236      4299.3293     -137161.46    
     54500   2525.2164     -6925.2438      4362.349      -137160.47    
     54600   2385.6454      6509.2325      4394.2701     -137153.07    
     54700   2634.4863     -10658.657      4418.6073     -137161.04    
     54800   2458.1583     -5782.1303      4397.1685     -137159.88    
     54900   2254.6929     -1607.557       4327.2461     -137159.22    
     55000   2399.836       7491.7091      4229.361      -137165.46    
     55100   2557.1522      9116.4555      4166.7724     -137167.61    
     55200   2628.1488      6008.0573      4184.7832     -137167.31    
     55300   2430.3786     -502.01586      4273.2989     -137161.47    
     55400   2475.1925     -5453.8376      4353.0689     -137160.86    
     55500   2567.1328      2459.5148      4396.1401     -137156.07    
     55600   2638.7506     -2454.8418      4420.4649     -137156.96    
     55700   2411.2492     -8389.5072      4407.1298     -137159.03    
     55800   2430.2114     -1642.7005      4330.7979     -137161.43    
     55900   2557.0206      7054.545       4265.3828     -137162.99    
     56000   2572.8934      9218.3818      4256.2327     -137164.66    
     56100   2383.236      -4695.9651      4303.5638     -137164.73    
     56200   2302.4968     -17953.065      4335.3218     -137165.76    
     56300   2580.4961      5995.5744      4289.361      -137165.21    
     56400   2650.9641      7688.2353      4274.8893     -137163.44    
     56500   2443.9414      4221.7828      4327.3055     -137161.31    
     56600   2258.7671     -6634.2707      4395.7655     -137160.09    
     56700   2576.4198     -10168.211      4405.9257     -137162.59    
     56800   2690.3068      8192.4484      4386.8374     -137158.04    
     56900   2414.6617      3310.5999      4407.1204     -137157.51    
     57000   2406.5272     -3625.2818      4410.8505     -137160.98    
     57100   2656.3129      1692.5753      4381.2361     -137164.2     
     57200   2469.8269      2355.9292      4344.3612     -137157.97    
     57300   2460.0881      3846.4929      4324.9301     -137161.92    
     57400   2347.6409      1857.0937      4325.6309     -137166.73    
     57500   2322.6833     -7795.1197      4314.4171     -137165.67    
     57600   2451.4394      7512.7036      4256.7489     -137161.5     
     57700   2784.0722      4624.4447      4220.0768     -137168.01    
     57800   2454.6509      192.23137      4234.7639     -137162.15    
     57900   2361.3194     -3710.872       4270.4947     -137162.25    
     58000   2322.2532      17136.154      4305.4289     -137158.32    
     58100   2673.0996     -11150.247      4399.4441     -137158.62    
     58200   2823.8058     -9243.5009      4473.1609     -137153.03    
     58300   2673.3697     -6780.3385      4491.3701     -137154.56    
     58400   2600.6632     -10279.691      4435.1806     -137159.29    
     58500   2468.8349      7890.4087      4306.9543     -137161.24    
     58600   2585.0009      13070.002      4224.1841     -137167.03    
     58700   2281.7064      5067.6507      4231.3924     -137164.89    
     58800   2199.6803     -2119.0187      4270.8257     -137162.11    
     58900   2688.526      -2690.6992      4311.6967     -137163       
     59000   2602.5857     -6335.2137      4357.0679     -137159.74    
     59100   2323.9836     -8469.7635      4355.5242     -137155.62    
     59200   2492.0161     -7740.1319      4311.2303     -137161.62    
     59300   2379.2105      3393.4332      4249.1367     -137161.02    
     59400   2470.419       2117.2128      4209.7119     -137164.59    
     59500   2694.148       7705.0372      4201.4098     -137166.59    
     59600   2590.6204      8136.6539      4257.1653     -137159.67    
     59700   2609.6827     -5636.592       4382.5043     -137160.03    
     59800   2301.5801     -16660.893      4473.7477     -137157.01    
     59900   2525.2974     -377.67825      4470.3803     -137164.94    
     60000   2535.9191     -6203.1192      4475.2151     -137157.8     
     60100   2776.7949     -11405.924      4445.6058     -137158.43    
     60200   2520.3306     -4624.3159      4358.8374     -137156.8     
     60300   2434.6874      11567.204      4256.1162     -137160.37    
     60400   2487.4463      7449.6068      4211.756      -137165.15    
     60500   2454.297       6837.6096      4215.9114     -137165.34    
     60600   2466.3325     -1866.5982      4250.1172     -137165.96    
     60700   2494.0291     -11721.861      4277.1262     -137165.18    
     60800   2794.8845      13447.929      4269.1249     -137160.39    
     60900   2712.0483      2901.4319      4314.592      -137161.04    
     61000   2416.6325     -13304.333      4370.6915     -137159.29    
     61100   2430.925      -1920.859       4356.5447     -137158.83    
     61200   2648.6865      2767.9426      4322.412      -137158.85    
     61300   2751.9463      710.11749      4325.0636     -137158.77    
     61400   2331.9603     -3756.1954      4349.4116     -137159.35    
     61500   2369.0033     -2477.9509      4332.8272     -137162.26    
     61600   2576.0713      2422.8282      4296.1607     -137162.19    
     61700   2609.6337      3039.6206      4293.1698     -137158.94    
     61800   2568.7875     -2518.3666      4320.8173     -137160.55    
     61900   2352.8376      1101.7127      4330.7196     -137164.31    
     62000   2428.9732     -9659.2396      4304.0118     -137168.35    
     62100   2443.2456     -7447.3069      4252.6511     -137164.67    
     62200   2537.9469      9412.3098      4206.8953     -137162.98    
     62300   2586.8863      2894.1102      4228.0737     -137163.59    
     62400   2486.8562     -1986.4119      4288.6425     -137164.7     
     62500   2215.354      -2935.5987      4341.415      -137164.6     
     62600   2324.3107     -4108.8978      4377.086      -137163.1     
     62700   2543.2347     -7905.5947      4385.9009     -137161.48    
     62800   2628.9554     -1399.7979      4339.8127     -137163.5     
     62900   2532.2047     -6247.8531      4287.4543     -137163.37    
     63000   2476.5474      2068.3563      4230.0365     -137166.35    
     63100   2327.4633      5039.9429      4194.3896     -137167.47    
     63200   2496.2224      768.48658      4206.5143     -137169.33    
     63300   2527.8894      11102.919      4261.0767     -137160.19    
     63400   2600.9466     -1055.7204      4361.6873     -137161.87    
     63500   2515.5586     -16246.367      4457.1927     -137160.18    
     63600   2563.5249     -7016.453       4459.2063     -137158.06    
     63700   2567.1814      5871.8525      4416.7131     -137149.86    
     63800   2625.3818      12539.716      4384.5553     -137155.37    
     63900   2487.115      -2866.9331      4399.7466     -137160.17    
     64000   2445.8926     -1688.8597      4387.9686     -137158.84    
     64100   2730.8248     -4019.8913      4332.5512     -137163.43    
     64200   2506.4672      12915.206      4278.1184     -137162.79    
     64300   2493.8723      7213.0369      4285.4902     -137168.9     
     64400   2397.9004     -4859.3438      4333.4375     -137165.92    
     64500   2411.8406      243.25199      4358.3763     -137162.79    
     64600   2369.3207     -2879.4926      4351.211      -137159.36    
     64700   2576.0614      1808.1459      4312.3162     -137160.52    
     64800   2727.6151      12686.078      4291.7033     -137164.14    
     64900   2358.6989      2030.2718      4351.3473     -137161.12    
     65000   2244.0341     -4314.0035      4425.8327     -137160.82    
     65100   2474.8141     -10452.419      4448.9918     -137156.22    
     65200   2595.1548     -4904.3689      4377.7589     -137158.96    
     65300   2511.3855      5567.5416      4273.8154     -137162.13    
     65400   2598.1497      12678.61       4212.9138     -137169.58    
     65500   2431.283       2032.9818      4231.8278     -137170.41    
     65600   2338.0154     -190.38898      4281.1181     -137167.94    
     65700   2448.8943      2731.9921      4318.3566     -137161       
     65800   2571.9728     -1112.8078      4355.7948     -137161.61    
     65900   2494.3715     -11383.503      4389.224      -137161.75    
     66000   2367.25        4897.3515      4387.7361     -137158.44    
     66100   2430.171      -2233.9716      4380.7936     -137157.13    
     66200   2575.0754      5903.932       4363.9424     -137156.69    
     66300   2815.1221     -5868.1762      4373.1066     -137159.42    
     66400   2588.4751      5731.1207      4377.4907     -137159.84    
     66500   2419.5942     -5046.1914      4429.4998     -137161.21    
     66600   2437.2816     -177.83205      4472.4022     -137158.94    
     66700   2562.0013     -569.09665      4468.0783     -137158.61    
     66800   2600.9086     -8628.3739      4457.3023     -137154.89    
     66900   2876.3127      4622.6287      4419.3441     -137153.72    
     67000   2674.5781      658.63708      4387.4435     -137156.68    
     67100   2385.7302      1740.339       4373.6472     -137157.06    
     67200   2396.7145     -2557.9203      4347.8733     -137160.47    
     67300   2579.2156     -1457.9783      4283.0668     -137165.88    
     67400   2631.752       4126.1814      4222.1639     -137166.85    
     67500   2405.8733      11134.275      4215.2209     -137159.52    
     67600   2494.0031      12894.646      4268.7691     -137158.77    
     67700   2371.2559      976.25211      4387.5971     -137154.4     
     67800   2320.8839     -3659.5519      4498.2986     -137150.13    
     67900   2489.6522     -5293.3023      4543.4018     -137150.23    
     68000   2661.9915      308.00739      4516.7493     -137151.6     
     68100   2409.0877      592.58748      4452.7645     -137153.69    
     68200   2519.9097     -3301.4895      4356.7009     -137161.92    
     68300   2522.5914      14006.529      4254.1455     -137162.41    
     68400   2491.8676      5538.7284      4218.6544     -137164.62    
     68500   2176.2112      9445.5055      4217.0813     -137164.01    
     68600   2263.0571     -2234.5371      4251.9204     -137164.7     
     68700   2522.2866     -19.709619      4272.9025     -137162.31    
     68800   2486.8117      4529.3807      4286.4498     -137161.5     
     68900   2420.0934     -8820.8426      4321.5315     -137160.98    
     69000   2461.1088      3783.9265      4304.7361     -137162.54    
     69100   2501.776       1576.6114      4292.6881     -137163       
     69200   2624.6421     -3363.3967      4307.6159     -137164.49    
     69300   2479.5164     -125.48251      4332.7615     -137158.53    
     69400   2623.689      -979.81369      4346.0681     -137160.57    
     69500   2391.941      -1805.7033      4352.3302     -137157.42    
     69600   2491.3375     -9009.7003      4335.0265     -137164.59    
     69700   2387.0357     -265.3013       4278.9274     -137164.99    
     69800   2432.5534      13353.486      4253.9515     -137164.27    
     69900   2609.6863     -443.36466      4305.545      -137161.88    
     70000   2493.6472      1686.6452      4367.3088     -137156.73    
     70100   2421.6274     -6995.2448      4424.8694     -137156.76    
     70200   2307.0225     -6895.7276      4447.1637     -137158.24    
     70300   2406.4434     -11751.174      4405.386      -137160.13    
     70400   2787.9181      8960.1641      4305.0005     -137164.1     
     70500   2581.6176     -296.65794      4263.8868     -137165.05    
     70600   2429.28        9147.8108      4254.285      -137165.24    
     70700   2354.8479      3320.8014      4288.4881     -137162.05    
     70800   2533.8326      2313.8717      4336.2233     -137162.38    
     70900   2607.6712     -9593.6181      4377.7129     -137159.69    
     71000   2751.4488     -3401.9224      4352.386      -137156.22    
     71100   2812.9837     -1657.1665      4309.1563     -137157.32    
     71200   2540.2738      17799.539      4277.8052     -137161.65    
     71300   2397.42        2593.9452      4324.2696     -137161.17    
     71400   2402.2364     -4572.8672      4370.0262     -137161.69    
     71500   2524.0868      3600.755       4368.9293     -137160.67    
     71600   2788.4955      104.30373      4363.2895     -137162.25    
     71700   2430.4495     -2484.5065      4363.2136     -137158.06    
     71800   2245.7879     -199.96082      4338.2889     -137160.21    
     71900   2336.5196      7696.3557      4290.88       -137161.72    
     72000   2560.735       5134.0653      4293.9179     -137165.39    
     72100   2645.5387     -4416.2311      4342.2366     -137166.98    
     72200   2543.1907      733.78721      4384.6455     -137165.84    
     72300   2383.7927     -9793.4255      4415.7079     -137160.93    
     72400   2485.8604     -7305.3757      4367.6058     -137162.03    
     72500   2473.4736      5891.0614      4262.8099     -137160.79    
     72600   2454.9916      5816.8963      4197.5004     -137161.9     
     72700   2323.5929      8452.3603      4191.4615     -137167.04    
     72800   2228.6245      1532.2263      4238.5791     -137166.61    
     72900   2499.5617      6553.7119      4311.3691     -137165.97    
     73000   2429.9202     -5457.6298      4424.1275     -137160.77    
     73100   2488.1156     -18625.684      4502.8915     -137158.3     
     73200   2537.8459     -7670.3506      4468.5455     -137156.09    
     73300   2781.3583      20176.447      4405.1796     -137158.83    
     73400   2423.8754     -6729.9264      4430.1775     -137159.55    
     73500   2352.3303     -7120.4092      4416.0019     -137160.56    
     73600   2504.7488     -1680.6263      4343.5721     -137160.56    
     73700   2638.8954      19478.292      4282.8071     -137159.53    
     73800   2550.2789     -1023.9139      4302.4638     -137163.61    
     73900   2248.6655     -4088.988       4328.9798     -137161.79    
     74000   2422.5381     -1892.8655      4330.0065     -137162.3     
     74100   2591.7633      863.75192      4310.8782     -137162.33    
     74200   2396.4195      1425.6524      4283.1095     -137157.98    
     74300   2376.1936      5112.6882      4251.4892     -137164.92    
     74400   2172.8         1536.5863      4243.4242     -137165.74    
     74500   2459.1846      4573.2914      4217.765      -137169.65    
     74600   2373.2085      758.59057      4228.5933     -137163.4     
     74700   2452.4416      1947.2399      4272.3132     -137159.47    
     74800   2660.1045     -1760.6335      4333.6761     -137161.85    
     74900   2435.4997      3538.0083      4397.6859     -137158.74    
     75000   2240.7296     -14735.51       4433.0293     -137159.88    
     75100   2228.0631     -6885.5442      4366.7441     -137156.45    
     75200   2653.2443      12518.354      4273.0696     -137157.23    
     75300   2542.1186      8207.779       4248.9455     -137161.51    
     75400   2389.5113      5096.664       4293.8825     -137164.2     
     75500   2261.8577     -2615.3539      4349.4064     -137158.48    
     75600   2625.2966     -4888.9431      4351.1868     -137161.18    
     75700   2636.9417      4929.6284      4351.1829     -137162.07    
     75800   2298.2085     -3218.5329      4378.6162     -137159.1     
     75900   2437.463      -6738.7528      4379.0745     -137162.77    
     76000   2770.4884      3162.0409      4346.7967     -137160.02    
     76100   2776.1253      10080.752      4331.4606     -137160.99    
     76200   2358.1334     -6336.7899      4377.888      -137158.15    
     76300   2423.0337     -8921.9753      4413.5813     -137160.19    
     76400   2697.9204     -5549.4855      4392.2964     -137162.46    
     76500   2732.7883      6015.7908      4340.6728     -137161.54    
     76600   2413.0981     -5421.292       4318.6107     -137164.47    
     76700   2381.4098     -4051.0278      4294.0718     -137163.49    
     76800   2541.1313      7056.8891      4260.5919     -137163.16    
     76900   2677.491       8328.1679      4276.906      -137162.82    
     77000   2412.7121      2898.5917      4333.8737     -137159.86    
     77100   2283.3707     -9902.0923      4362.7887     -137164.36    
     77200   2329.5092     -174.87144      4312.3739     -137163.91    
     77300   2430.8038      12899.583      4264.4069     -137162.66    
     77400   2524.19        6007.9182      4291.172      -137162.96    
     77500   2644.3392     -5487.8922      4355.9517     -137164.33    
     77600   2529.1237      1198.4006      4419.3271     -137159.23    
     77700   2572.007      -6218.6526      4467.6556     -137159.66    
     77800   2412.1066     -8253.5302      4457.1794     -137158.39    
     77900   2360.5837     -1327.9551      4381.4695     -137160.06    
     78000   2419.9252      9059.5026      4281.3953     -137159.67    
     78100   2644.72        12604.858      4249.8233     -137158.95    
     78200   2631.5422      3984.5671      4298.8599     -137160.22    
     78300   2260.6562      1569.981       4377.9471     -137159.87    
     78400   2401.8318     -4978.8994      4434.4037     -137163.77    
     78500   2523.1922     -14586.375      4447.11       -137162.47    
     78600   2425.1859      579.45586      4395.1202     -137156.14    
     78700   2607.0425     -4709.4689      4334.2778     -137158.92    
     78800   2680.5386      6305.8833      4293.5086     -137162.1     
     78900   2306.9335     -5395.6692      4311.188      -137161.48    
     79000   2232.0285     -2705.4587      4320.8462     -137160.13    
     79100   2420.5702      6338.2424      4298.3319     -137160.62    
     79200   2589.2304      12064.189      4296.1837     -137160.7     
     79300   2603.0808     -2763.9979      4341.2201     -137160.8     
     79400   2505.1508     -7269.0634      4375.2462     -137163.42    
     79500   2279.8349     -7366.0605      4362.0183     -137162.93    
     79600   2354.2347     -4196.6121      4304.9331     -137160.34    
     79700   2735.1512      12839.513      4259.1771     -137161.84    
     79800   2645.5633      308.47131      4297.2475     -137163.83    
     79900   2424.9468     -8226.6399      4345.8359     -137163.83    
     80000   2380.4826      655.00384      4359.8098     -137160.74    
     80100   2568.9184      2599.4307      4357.6293     -137159.79    
     80200   2857.7685     -222.60921      4358.811      -137160.81    
     80300   2712.3007      10753.736      4365.5522     -137154.36    
     80400   2410.3439     -3389.7712      4417.9284     -137157.07    
     80500   2418.6115     -8310.8391      4432.8107     -137159.73    
     80600   2536.3663     -3299.1327      4388.8843     -137159.46    
     80700   2754.4469      379.20507      4329.462      -137161.35    
     80800   2605.3676      6490.2854      4286.4588     -137164.5     
     80900   2442.5817      3570.3117      4294.0554     -137167.25    
     81000   2439.6826     -11043.893      4338.3451     -137163.41    
     81100   2488.4433      9595.1233      4342.6796     -137158.46    
     81200   2449.1546     -3398.2111      4356.2775     -137155.92    
     81300   2517.9738      1908.7221      4329.0055     -137157.96    
     81400   2482.6948      10662.9        4307.9415     -137160.7     
     81500   2207.4824      690.25307      4337.7425     -137159.59    
     81600   2408.4014     -9379.2335      4364.7836     -137162.97    
     81700   2732.5011     -3178.3338      4337.1289     -137165.04    
     81800   2512.3055      9685.7852      4281.4751     -137161.83    
     81900   2464.2316      12130.921      4278.5762     -137164.9     
     82000   2422.6777     -278.84887      4347.5658     -137162.44    
     82100   2414.3489     -11560.527      4438.6027     -137159.29    
     82200   2498.3567      1463.3378      4475.2353     -137155.17    
     82300   2418.9942     -1556.9419      4476.8655     -137148.69    
     82400   2615.4564     -7487.1104      4434.243      -137155.81    
     82500   2472.0291     -6624.7434      4340.3603     -137162.24    
     82600   2429.568       3801.184       4213.2176     -137164.86    
     82700   2586.5581      20372.958      4135.1893     -137166.75    
     82800   2653.8396      5337.785       4190.5008     -137169.13    
     82900   2335.8854     -4017.6364      4328.9393     -137164.35    
     83000   2316.9336     -21390.012      4455.9938     -137163.11    
     83100   2415.2375     -292.77729      4465.0116     -137155.96    
     83200   2572.6951     -2589.5469      4434.9415     -137156.98    
     83300   2600.7996     -6879.6912      4379.6765     -137158.83    
     83400   2494.8474      2200.3818      4307.3117     -137163.66    
     83500   2593.797       7102.7093      4272.7546     -137170.06    
     83600   2431.2186     -699.20243      4287.8626     -137164.97    
     83700   2534.8099     -512.20118      4315.277      -137162.91    
     83800   2510.4619     -3268.868       4337.1168     -137161.5     
     83900   2332.2374      9943.3657      4326.024      -137158.33    
     84000   2503.451      -8968.0479      4339.907      -137160.8     
     84100   2751.9399      7387.4285      4337.946      -137158.53    
     84200   2659.4918      3643.4698      4368.3547     -137157.78    
     84300   2342.1414     -3179.6519      4430.4007     -137158.92    
     84400   2371.6526      3205.6431      4470.3554     -137160.02    
     84500   2575.3789     -8958.6671      4489.0244     -137161.9     
     84600   2483.4072     -5127.1943      4450.5094     -137154.94    
     84700   2692.6047      1128.9737      4357.2948     -137159.72    
     84800   2450.3792      12720.575      4275.6356     -137163.86    
     84900   2302.7896      929.16816      4268.9794     -137161.6     
     85000   2383.7592      4205.2953      4264.5277     -137160.06    
     85100   2559.6423      6253.8566      4294.5763     -137157.87    
     85200   2615.0666     -4426.6656      4351.1588     -137157.98    
     85300   2690.7412     -11274.835      4378.814      -137161.67    
     85400   2463.096      -7051.1011      4377.6965     -137157.67    
     85500   2550.901       1897.7179      4341.4006     -137161.14    
     85600   2427.3063      1311.7707      4338.2794     -137158.52    
     85700   2379.1107     -8096.4118      4341.0604     -137164.16    
     85800   2246.306       4587.2502      4296.2245     -137166.74    
     85900   2513.1529      773.57531      4268.1987     -137168.4     
     86000   2534.5133      12436.221      4294.9087     -137163.34    
     86100   2606.9487     -7379.5783      4395.2164     -137161.22    
     86200   2476.8196     -4702.4813      4459.1445     -137153.25    
     86300   2647.053      -19761.452      4461.4732     -137153.59    
     86400   2829.2174     -854.42172      4377.1855     -137158.95    
     86500   2600.8466      1459.0615      4306.8422     -137163.66    
     86600   2348.2615      3214.4627      4275.4934     -137161.07    
     86700   2361.6134      16331.509      4273.4494     -137158.16    
     86800   2696.7947     -1389.5492      4330.5623     -137161.15    
     86900   2329.9769      655.71611      4387.5493     -137153.49    
     87000   2346.88        294.05709      4417.5199     -137157.09    
     87100   2245.5514     -16570.126      4414.2596     -137163.83    
     87200   2365.1658      2894.1252      4330.3403     -137167.99    
     87300   2498.9675      8841.4391      4263.5932     -137163.79    
     87400   2572.3484      7315.9695      4255.1123     -137162.48    
     87500   2458.6235     -2818.9015      4302.5952     -137158.67    
     87600   2489.4204     -13976.965      4344.7247     -137158.75    
     87700   2640.2806      662.98423      4346.8842     -137156.15    
     87800   2788.4318     -1211.1208      4361.5838     -137159.79    
     87900   2483.4762     -4408.5608      4380.8324     -137161.6     
     88000   2406.5983     -4791.6066      4370.4564     -137161.44    
     88100   2580.3406      3382.372       4325.0374     -137163.75    
     88200   2602.7752      2856.9644      4288.7495     -137162.53    
     88300   2442.0691      5397.043       4258.6237     -137160.29    
     88400   2305.5072      10727.849      4256.4948     -137163.23    
     88500   2309.5169     -3788.1964      4298.3791     -137161.69    
     88600   2599.4961      7360.0901      4309.7214     -137161.62    
     88700   2512.4644      4649.9679      4364.2775     -137158.14    
     88800   2510.8022     -9129.0145      4437.8578     -137159.52    
     88900   2352.2394     -2615.3176      4451.6868     -137155.19    
     89000   2645.0176     -8377.6596      4434.695      -137162.05    
     89100   2640.6097     -4666.4363      4367.5181     -137164.89    
     89200   2462.6778      8277.0625      4293.9298     -137162.11    
     89300   2526.2662      19128.129      4290.7048     -137164.66    
     89400   2359.6708     -7390.5478      4362.1192     -137161.51    
     89500   2414.3015     -2191.195       4406.3087     -137159.42    
     89600   2645.3008     -4191.7145      4434.0308     -137158.35    
     89700   2534.4809     -5732.7006      4413.4653     -137156.52    
     89800   2293.4733      305.49765      4344.1497     -137160.18    
     89900   2349.8803     -2274.3374      4263.1931     -137165.66    
     90000   2552.2628      15478.974      4199.9454     -137167.08    
     90100   2572.1738      6755.167       4231.863      -137163.84    
     90200   2510.1463     -6228.9996      4301.4368     -137160.39    
     90300   2720.3335      4663.0301      4351.1484     -137159.38    
     90400   2882.7484     -6365.1646      4425.7488     -137162.21    
     90500   2412.724      -7107.7078      4489.8965     -137158.12    
     90600   2406.4842      1248.3899      4489.5516     -137158.76    
     90700   2491.1367      573.24664      4470.87       -137157.26    
     90800   2606.5279     -2302.4875      4421.5124     -137157.46    
     90900   2433.7912      10355.262      4348.0001     -137156.31    
     91000   2449.5486     -6235.3261      4314.4696     -137163.86    
     91100   2369.8311     -1436.5675      4283.9049     -137162.06    
     91200   2680.0055      8920.3148      4276.9185     -137163.85    
     91300   2682.5575      431.19738      4336.983      -137161.97    
     91400   2376.8177     -13968.891      4407.2568     -137163.56    
     91500   2332.5546     -6494.0045      4382.4156     -137163.68    
     91600   2554.0679      6744.7158      4315.6365     -137163.91    
     91700   2465.1018      5215.874       4311.1407     -137160.36    
     91800   2228.5584      9005.5664      4350.1461     -137153.03    
     91900   2770.8522     -12098.686      4387.2953     -137159.04    
     92000   2692.4706     -3089.6445      4357.2212     -137156.93    
     92100   2413.0312      742.46873      4315.9787     -137158.44    
     92200   2592.8605     -8715.4674      4268.1983     -137166       
     92300   2399.7099      14064.566      4211.2449     -137160.25    
     92400   2504.8504      7081.9156      4224.3442     -137160.49    
     92500   2767.8522      1223.0593      4285.7822     -137160.18    
     92600   2538.4465      6289.7293      4368.9164     -137154.95    
     92700   2308.936      -10630.116      4443.1688     -137157.26    
     92800   2408.43       -9284.829       4420.7109     -137160.77    
     92900   2391.5211      3636.9099      4313.2596     -137158.56    
     93000   2653.4274      18576.51       4214.9004     -137161.34    
     93100   2654.9124      3810.6927      4220.6431     -137160.2     
     93200   2502.7828      4.2708994      4264.0899     -137164.44    
     93300   2330.775      -11191.066      4316.3565     -137163.9     
     93400   2403.1095     -7195.2133      4327.4632     -137163.23    
     93500   2678.1783      716.52562      4303.3264     -137163.9     
     93600   2743.092       3347.262       4296.0729     -137162.04    
     93700   2470.6259     -6493.615       4317.1021     -137166.37    
     93800   2418.3022     -6378.3463      4339.4854     -137166.95    
     93900   2307.0066      2427.4167      4332.9898     -137159.16    
     94000   2588.1024      5055.1781      4323.6497     -137159.51    
     94100   2527.9168      4975.0574      4329.9664     -137158.03    
     94200   2325.2173     -5733.2017      4333.4961     -137156.67    
     94300   2459.9576      2128.8483      4294.1146     -137162.25    
     94400   2762.881       10567.251      4267.5204     -137168.34    
     94500   2629.1319     -1330.34        4319.6434     -137167.4     
     94600   2211.438      -3094.6513      4389.7266     -137159.33    
     94700   2430.6343     -10350.772      4417.9528     -137157.74    
     94800   2519.8976      8440.5918      4388.6151     -137155.55    
     94900   2504.7131     -624.91565      4364.4806     -137156.38    
     95000   2562.3332     -6859.0148      4340.1075     -137164.09    
     95100   2349.3938      5796.636       4297.6783     -137163.99    
     95200   2423.9776      8642.7476      4263.9096     -137164.94    
     95300   2503.8302     -1403.5258      4276.2761     -137164.92    
     95400   2488.1285     -1.0569799      4312.8331     -137161.54    
     95500   2513.8432      7302.6659      4351.7008     -137159.83    
     95600   2435.9763     -12111.492      4390.1552     -137158.4     
     95700   2581.379      -1879.6169      4366.3988     -137165.48    
     95800   2253.7379      2075.2982      4330.4178     -137161.67    
     95900   2424.8789      1838.4182      4283.5612     -137164.8     
     96000   2611.6065      11714.657      4246.6256     -137163.07    
     96100   2410.6001      5955.5301      4268.9209     -137157.78    
     96200   2388.1648      32.469124      4303.7389     -137163.32    
     96300   2279.1189     -14390.052      4298.5446     -137167.09    
     96400   2431.6819      4849.3293      4223.2282     -137166.07    
     96500   2668.1895      3188.6899      4174.8954     -137167.85    
     96600   2546.215       8065.8095      4179.7804     -137166.02    
     96700   2409.9787      8202.7491      4241.6512     -137164.74    
     96800   2367.8172     -16559.424      4347.424      -137160.35    
     96900   2759.4017     -1441.2327      4387.4291     -137160.33    
     97000   2628.4517      397.0961       4404.2377     -137159.59    
     97100   2510.8511     -6214.703       4406.6972     -137160.96    
     97200   2500.6564     -1864.0593      4391.5677     -137164.2     
     97300   2335.5188     -9778.8124      4370.9004     -137163.1     
     97400   2590.2571      6904.9277      4315.6285     -137168       
     97500   2460.2272      13018.658      4293.8388     -137159.12    
     97600   2542.4462      13037.235      4335.8926     -137159.1     
     97700   2275.2231     -10330.061      4412.9457     -137157.73    
     97800   2433.697      -11852.211      4411.3671     -137164.74    
     97900   2612.1729      685.24401      4330.3558     -137160.66    
     98000   2764.3761      4855.8821      4254.3661     -137161.36    
     98100   2554.9734      8070.2198      4224.3999     -137163.54    
     98200   2287.646       12233.733      4233.6327     -137160.22    
     98300   2449.3029      4356.9435      4290.4621     -137162.93    
     98400   2494.5338     -4308.3316      4357.3085     -137157.11    
     98500   2761.2173      1312.5373      4365.0206     -137159.01    
     98600   2474.7114      3665.4591      4351.424      -137156.06    
     98700   2532.1088     -576.48885      4343.1611     -137160.82    
     98800   2475.8078      3150.7728      4336.9932     -137161.76    
     98900   2406.119       720.55488      4347.7717     -137162.38    
     99000   2601.9131     -3944.7378      4372.3352     -137167.85    
     99100   2555.2365     -7176.8343      4405.1979     -137161.13    
     99200   2562.0488      2910.6668      4411.8199     -137157.47    
     99300   2474.4211     -2447.6022      4419.2164     -137157.1     
     99400   2388.4606     -219.63751      4403.7366     -137161.09    
     99500   2389.0207     -4749.9584      4357.7122     -137162.83    
     99600   2707.1893      14071.623      4295.6302     -137164.41    
     99700   2653.0969      2268.463       4323.5778     -137160.16    
     99800   2473.7957     -3839.8392      4386.6148     -137160.54    
     99900   2362.4613     -7551.0621      4419.5528     -137164.1     
    100000   2616.4673     -7948.9005      4401.3529     -137168.2     
    100100   2534.9804     -147.50104      4349.0176     -137159.68    
    100200   2783.0643      4871.0235      4321.1016     -137161.01    
    100300   2443.4706     -2196.2233      4327.5441     -137162.04    
    100400   2302.3415     -6857.0252      4331.927      -137161.61    
    100500   2524.9216      2780.7287      4302.9837     -137162.11    
    100600   2630.8559      8304.1326      4270.0992     -137162.11    
    100700   2385.1542      2181.6605      4292.8941     -137158.36    
    100800   2405.7815     -11417.855      4341.8211     -137164.28    
    100900   2196.1475     -14000.744      4366.8644     -137157.38    
    101000   2630.9788      7411.517       4322.3752     -137158.88    
    101100   2428.0017      9811.2389      4305.8362     -137154.68    
    101200   2411.4529     -1487.9829      4340.9974     -137156.75    
    101300   2311.8159     -7266.0379      4354.6152     -137159.91    
    101400   2246.6072      7185.1416      4327.0683     -137162.29    
    101500   2461.439      -1258.3593      4316.0056     -137163.8     
    101600   2618.5068      5668.646       4312.5534     -137158.42    
    101700   2594.3373     -834.07009      4321.9052     -137159.12    
    101800   2446.1319     -2971.6672      4329.1412     -137160.07    
    101900   2455.4557     -3453.9986      4333.4476     -137163.4     
    102000   2435.5945     -4146.9235      4337.6227     -137162.06    
    102100   2624.2426     -2302.0727      4324.1173     -137159.37    
    102200   2647.4777      6641.1269      4315.4171     -137159.26    
    102300   2522.1992     -3543.0814      4352.2261     -137163.52    
    102400   2460.0759     -11622.158      4409.741      -137162.69    
    102500   2460.8075     -1424.1         4432.9179     -137158.54    
    102600   2397.3032      438.33658      4425.5697     -137155.28    
    102700   2466.819      -979.63666      4416.0358     -137155.74    
    102800   2600.3946     -2206.0296      4393.1685     -137159.89    
    102900   2300.4223      4510.2298      4349.3993     -137157.69    
    103000   2463.7254     -3244.2458      4293.369      -137170.71    
    103100   2166.1168      1689.766       4221.5781     -137163.02    
    103200   2525.5476      15912.521      4164.5391     -137166.21    
    103300   2440.8334      10230.457      4202.4381     -137162.88    
    103400   2338.1406      1106.6508      4318.6586     -137155.47    
    103500   2511.6037     -11624.591      4421.6689     -137154.46    
    103600   2570.8836     -1350.2498      4460.5933     -137154.84    
    103700   2386.4551     -2208.5806      4463.6527     -137158.56    
    103800   2258.7927     -12347.286      4418.285      -137158.9     
    103900   2556.5072      4338.8563      4290.9364     -137162.03    
    104000   2498.7393      24329.575      4185.8309     -137160.28    
    104100   2504.3416      9192.3144      4185.0782     -137166.62    
    104200   2487.3831      3050.3661      4233.9018     -137168.4     
    104300   2402.4449      1891.0648      4299.6685     -137164.8     
    104400   2463.7613     -9360.687       4365.5033     -137160.58    
    104500   2506.1872     -4255.1666      4396.0251     -137158.73    
    104600   2461.2993     -4920.7015      4395.4672     -137157.95    
    104700   2254.0494      2904.0271      4355.4557     -137156.07    
    104800   2452.1987      1457.048       4299.0531     -137162.28    
    104900   2732.8221      9204.2601      4249.1849     -137163.12    
    105000   2588.7993      13449.353      4264.3903     -137158.9     
    105100   2396.6084      4472.3289      4344.2464     -137162.63    
    105200   2324.6932     -13547.096      4423.6504     -137159.91    
    105300   2738.4268     -12430.685      4430.5549     -137166.76    
    105400   2433.9034     -9105.1979      4372.9443     -137160.37    
    105500   2380.8217      1777.928       4272.6204     -137161.39    
    105600   2451.406      -3829.2229      4189.0198     -137168.51    
    105700   2226.9799      15072.074      4137.2756     -137170.14    
    105800   2407.8806      875.17845      4163.9453     -137170.9     
    105900   2521.7124      561.85059      4207.5181     -137168.27    
    106000   2450.1059     -2027.1938      4262.5126     -137163.7     
    106100   2651.3532     -926.46818      4329.3639     -137165.13    
    106200   2512.4724     -10256.305      4391.9881     -137159.53    
    106300   2672.1551      2372.8776      4399.7805     -137156.69    
    106400   2859.8822     -1595.5731      4391.1885     -137158.25    
    106500   2569.5423     -3886.2866      4372.8644     -137159.9     
    106600   2384.2502      8620.2024      4345.3274     -137157.25    
    106700   2427.9543     -1308.097       4338.5428     -137160.07    
    106800   2501.6839     -7764.3558      4318.7561     -137162.24    
    106900   2750.6157      1507.1897      4274.0908     -137163.7     
    107000   2801.1093      3699.4347      4239.2824     -137164.55    
    107100   2397.1712      7967.1014      4216.159      -137162.76    
    107200   2512.4342      7320.904       4235.8647     -137167.8     
    107300   2453.1786      2219.3498      4305.1325     -137165.1     
    107400   2538.21       -4659.9077      4380.4207     -137160.85    
    107500   2702.3841     -16191.632      4414.8206     -137156.77    
    107600   2745.932       2775.6948      4372.7306     -137160.4     
    107700   2519.2716      2408.3723      4338.1657     -137158.91    
    107800   2397.1587      2672.9089      4304.9735     -137156.97    
    107900   2520.957       4390.6627      4289.1752     -137159.12    
    108000   2591.7549      3358.0564      4302.737      -137159.76    
    108100   2875.9226     -468.32098      4357.3384     -137166.59    
    108200   2482.5598     -5318.3664      4432.3304     -137162.88    
    108300   2260.5374     -14375.648      4470.0767     -137160.94    
    108400   2485.7661     -3186.7124      4428.4048     -137160.84    
    108500   2499.458       5860.2649      4356.2389     -137157.09    
    108600   2622.1575     -192.56305      4319.787      -137159.61    
    108700   2611.9289      3714.6939      4303.642      -137162.32    
    108800   2295.1209     -4097.1456      4326.3324     -137161.03    
    108900   2382.5088     -8980.4467      4340.6859     -137167.7     
    109000   2419.5843      2117.4065      4320.1663     -137164.88    
    109100   2471.7339      4486.6204      4314.2786     -137156.71    
    109200   2396.1305      5833.278       4325.4862     -137154.24    
    109300   2580.1476     -2590.2897      4347.4298     -137164.7     
    109400   2405.6829     -2755.8643      4358.2868     -137165.28    
    109500   2454.8654     -1270.1078      4341.1018     -137168.16    
    109600   2638.6526      1713.1072      4321.4517     -137162.64    
    109700   2604.1476      11322.684      4330.9188     -137158.4     
    109800   2450.9919      3086.1741      4415.9554     -137158.07    
    109900   2330.807      -13050.953      4527.7016     -137156.6     
    110000   2490.8963     -10150.802      4573.9043     -137154.37    
    110100   2759.0012     -10794.059      4548.1777     -137155.83    
    110200   2581.156       2628.5496      4455.8745     -137155.95    
    110300   2541.2754      3513.3899      4357.6261     -137161.79    
    110400   2434.5916      8947.7072      4267.0179     -137162.27    
    110500   2392.9134      10818.78       4225.4015     -137159.17    
    110600   2568.827       10316.727      4234.441      -137163.87    
    110700   2468.758       702.80766      4304.5122     -137164.53    
    110800   2169.2598     -12731.296      4387.3465     -137159.93    
    110900   2454.2776     -5645.6846      4391.9304     -137160.11    
    111000   2577.2078      2244.9353      4341.4394     -137159.49    
    111100   2671.9207     -2938.9423      4309.1732     -137163.75    
    111200   2237.709       4725.2536      4306.929      -137159.33    
    111300   2353.0256      143.40479      4339.0962     -137163.88    
    111400   2600.3953     -2238.7594      4360.4875     -137158.75    
    111500   2839.3991     -3002.3856      4354.4978     -137164.25    
    111600   2591.9009     -5796.7811      4351.6984     -137165.75    
    111700   2365.4681      2519.6892      4341.4895     -137161.98    
    111800   2556.9957     -1328.6004      4331.7207     -137162.26    
    111900   2653.8577      6209.8448      4312.3047     -137162.21    
    112000   2438.7816     -4675.4366      4324.832      -137163.62    
    112100   2255.6952     -2078.1938      4315.9273     -137166.07    
    112200   2392.4504      281.27498      4291.3358     -137165.75    
    112300   2612.4079      4606.7395      4261.1499     -137166.16    
    112400   2369.1507      14306.631      4261.5194     -137158.61    
    112500   2562.0712     -2683.5931      4324.0295     -137160.49    
    112600   2738.7815     -2167.1092      4391.5184     -137156.97    
    112700   2472.7499     -5291.5047      4444.4872     -137154.04    
    112800   2394.8447     -2789.9068      4467.2611     -137157.62    
    112900   2425.2932     -1184.8023      4460.6517     -137158.66    
    113000   2472.9964     -4229.3972      4434.2902     -137157.16    
    113100   2550.049       1870.175       4369.0274     -137159.3     
    113200   2523.5129     -2129.5225      4289.2147     -137163.62    
    113300   2480.5051      11980.58       4218.5349     -137164.78    
    113400   2417.3144      9748.0689      4195.8809     -137162.84    
    113500   2640.4542      17.741013      4218.1968     -137167.84    
    113600   2364.836       5545.145       4283.7743     -137160.03    
    113700   2404.3032     -2195.9687      4401.3293     -137155.94    
    113800   2686.4062     -19222.236      4493.5157     -137159.24    
    113900   2638.2915     -5415.1735      4490.7745     -137160.98    
    114000   2556.3386     -3633.7164      4439.0134     -137162.75    
    114100   2508.9186      8650.4017      4369.9261     -137162.65    
    114200   2577.3768      675.84862      4349.1232     -137163.23    
    114300   2525.6011     -2620.0871      4352.8077     -137164.93    
    114400   2310.2529     -2705.5009      4355.1956     -137164.08    
    114500   2586.6241     -9470.6376      4320.0776     -137166.54    
    114600   2590.7431      13498.827      4237.4394     -137162.41    
    114700   2692.7526      5209.197       4220.8506     -137167.76    
    114800   2380.5013     -163.73018      4276.3231     -137168.04    
    114900   2290.2523     -8538.6294      4339.7091     -137165.56    
    115000   2240.5027      2973.22        4347.3111     -137160.46    
    115100   2457.9603      4731.9145      4338.3116     -137159.75    
    115200   2572.4613      6395.8229      4362.8703     -137159.41    
    115300   2471.9649     -11746.76       4422.6693     -137159.47    
    115400   2306.2722     -5370.2981      4421.1745     -137157.12    
    115500   2643.0626     -8429.9427      4354.1099     -137163.3     
    115600   2748.9864      7963.9664      4271.8246     -137161.25    
    115700   2535.9551      3682.4666      4259.9676     -137160.89    
    115800   2457.3211     -5919.9467      4281.2643     -137165.87    
    115900   2299.3921     -435.52093      4288.7723     -137161.68    
    116000   2408.6591      83.72467       4287.8869     -137159.89    
    116100   2542.8932      7059.4813      4273.4559     -137161.47    
    116200   2543.7438      3641.4992      4284.8976     -137164.72    
    116300   2399.5205      1043.3764      4330.2482     -137163.27    
    116400   2502.5145     -6334.0551      4399.1358     -137162.82    
    116500   2385.1462     -5386.0837      4432.5191     -137155.4     
    116600   2570.3273     -6161.1966      4410.8291     -137157.21    
    116700   2507.4877      9019.6307      4359.4217     -137156.72    
    116800   2517.6746     -5535.0705      4343.9938     -137160.43    
    116900   2308.339       2314.2824      4311.9026     -137160.02    
    117000   2394.5128      6218.7121      4266.887      -137164.38    
    117100   2427.3252      3759.7458      4254.6593     -137159.81    
    117200   2783.0935      5632.8784      4280.9852     -137161.89    
    117300   2543.3216     -717.71203      4359.0579     -137157.28    
    117400   2337.3286     -963.90265      4440.8099     -137156.05    
    117500   2220.114      -16495.079      4484.1336     -137158.55    
    117600   2301.0062     -1042.3104      4404.414      -137161.17    
    117700   2576.3065      16777.358      4294.8968     -137158.08    
    117800   2748.6028     -1014.5159      4277.5433     -137163.48    
    117900   2357.3464      2964.3214      4291.2985     -137159.65    
    118000   2613.9705     -3677.6905      4299.8264     -137168.77    
    118100   2500.5782      5106.2363      4298.3915     -137166.24    
    118200   2426.4767     -4565.6969      4317.8468     -137162.85    
    118300   2581.9516      5594.8595      4322.647      -137160.37    
    118400   2572.8491     -608.85206      4362.5409     -137158.54    
    118500   2499.9278     -4683.8226      4426.6798     -137157.94    
    118600   2541.8978     -15549.171      4450.5265     -137160.75    
    118700   2462.7435     -6434.475       4395.7119     -137160.6     
    118800   2502.3256      5513.8921      4308.8533     -137163.67    
    118900   2315.2196      4527.8011      4268.5736     -137164.52    
    119000   2113.1483      6287.346       4268.9688     -137159.58    
    119100   2414.7206      10156.365      4291.9048     -137158.15    
    119200   2419.8867      934.82919      4345.9402     -137154.6     
    119300   2555.8009     -1343.4776      4385.0116     -137157.82    
    119400   2529.1596     -4273.9381      4414.8795     -137162.03    
    119500   2186.4928     -11326.403      4402.9215     -137157.67    
    119600   2438.4667      7822.0408      4305.7836     -137158.9     
    119700   2721.1288      6831.2608      4227.2324     -137158.66    
    119800   2661.267       14149.513      4196.7219     -137161.95    
    119900   2491.0929     -91.780459      4249.3488     -137163.59    
    120000   2546.0743     -16388.444      4329.2588     -137165.68    
    120100   2437.554      -1694.3002      4347.1118     -137160.5     
    120200   2812.9219      1462.2857      4342.5332     -137161.66    
    120300   2597.6087     -3704.3693      4322.7028     -137159.07    
    120400   2490.4825      268.15666      4288.704      -137163.22    
    120500   2478.6246      4058.5781      4281.942      -137162.66    
    120600   2521.9758      9635.4975      4309.1525     -137162       
    120700   2555.3193     -7905.788       4370.7012     -137162.64    
    120800   2303.9102     -1334.706       4416.4897     -137156.47    
    120900   2545.8357     -14759.201      4419.2786     -137163.53    
    121000   2318.2041      6538.8711      4322.8472     -137158.85    
    121100   2634.6069      7468.4445      4236.2653     -137165.62    
    121200   2493.1874      13569.845      4217.308      -137161.11    
    121300   2383.2453      999.1563       4258.5929     -137163.67    
    121400   2352.485      -5415.0592      4324.7287     -137165.5     
    121500   2466.1737     -12782.23       4382.2115     -137159.1     
    121600   2627.9334     -2981.7279      4389.0236     -137157.84    
    121700   2596.5627      9832.6715      4398.1247     -137157.29    
    121800   2495.2638     -9465.4244      4434.7116     -137160.79    
    121900   2357.5227     -7939.0589      4404.9185     -137159.63    
    122000   2540.2274      7178.9509      4331.1163     -137159.66    
    122100   2863.6856      1154.3736      4305.5736     -137160.59    
    122200   2749.5859     -6099.4145      4347.4198     -137158.11    
    122300   2613.3959     -12181.736      4395.4337     -137165.58    
    122400   2276.2865     -2872.1844      4370.1158     -137159.38    
    122500   2435.4776      7164.8666      4302.8171     -137158.43    
    122600   2646.5997     -3840.7454      4254.6568     -137160.74    
    122700   2547.2939      5009.5987      4230.9188     -137164.68    
    122800   2482.8804     -4349.639       4234.6361     -137169.3     
    122900   2410.846       7813.2494      4226.3121     -137166.71    
    123000   2522.8882      2895.4028      4272.4069     -137164.94    
    123100   2481.6586      1981.1691      4340.4283     -137157.96    
    123200   2599.7291     -7738.425       4399.9056     -137158.1     
    123300   2608.0352     -1546.1924      4443.4579     -137163.17    
    123400   2248.1406     -9942.2002      4478.5567     -137162.43    
    123500   2353.3277     -9071.4264      4437.0253     -137160.67    
    123600   2564.2186      4365.5583      4318.8928     -137159.91    
    123700   2670.1975      20902.648      4253.0231     -137163.73    
    123800   2499.5483      778.10143      4323.4017     -137165.41    
    123900   2390.2957     -11111.274      4431.7964     -137161.56    
    124000   2497.8749     -4499.4502      4475.3716     -137158.87    
    124100   2419.2584     -3899.4873      4459.2801     -137153.87    
    124200   2584.9482     -346.85419      4398.5616     -137157.15    
    124300   2567.8651      6960.3734      4327.0323     -137163.15    
    124400   2391.5728      2826.8946      4309.1596     -137163.67    
    124500   2430.6049      1194.4892      4305.8753     -137163.29    
    124600   2498.3357     -4881.2583      4294.4238     -137162.28    
    124700   2428.0138      12273.147      4279.9923     -137159.2     
    124800   2490.0628      1293.1943      4316.303      -137161.48    
    124900   2505.2001     -2118.7244      4351.2095     -137164.14    
    125000   2307.945      -13816.863      4346.1383     -137163.74    
    125100   2426.7831      4431.6386      4283.7508     -137164.63    
    125200   2542.9297      17082.327      4241.2721     -137159.93    
    125300   2481.7242      10766.002      4267.9824     -137158.55    
    125400   2428.5891     -8400.703       4332.8318     -137162.12    
    125500   2131.2703     -14781.432      4339.9289     -137161.77    
    125600   2356.3964     -5135.2994      4253.3591     -137165.84    
    125700   2665.2725      16088.41       4170.1974     -137165.48    
    125800   2573.5676      6311.5592      4183.7519     -137166.4     
    125900   2370.43       -3472.5847      4241.2441     -137166.03    
    126000   2413.2126     -986.63321      4288.7423     -137165.98    
    126100   2544.8811     -794.00644      4333.5765     -137160.86    
    126200   2518.9225      1438.756       4361.7848     -137157.47    
    126300   2587.3822     -3434.2674      4370.8938     -137160.51    
    126400   2550.5753     -4691.6363      4344.4906     -137162.36    
    126500   2541.1708      10830.703      4295.4056     -137163.86    
    126600   2553.711      -2643.9091      4295.8867     -137166.51    
    126700   2280.5318     -7278.9803      4283.7789     -137168.07    
    126800   2352.9023     -484.04562      4242.5052     -137167.38    
    126900   2517.3722      9809.3055      4201.7178     -137164.48    
    127000   2538.1798      6274.89        4230.276      -137163.21    
    127100   2486.9579      3109.6761      4299.1348     -137161.67    
    127200   2571.4343     -3410.4066      4366.327      -137161.14    
    127300   2631.527      -4182.8831      4432.14       -137157.42    
    127400   2759.9802     -11567.901      4465.1186     -137160.11    
    127500   2357.1162     -7360.1168      4433.2174     -137156.38    
    127600   2323.3441     -2519.7902      4362.2543     -137159.52    
    127700   2557.0071      1024.7943      4270.3237     -137164.03    
    127800   2808.6089      13056.068      4193.8932     -137162.46    
    127900   2707.1552      3757.1997      4194.3141     -137162.24    
    128000   2593.1249     -3127.1526      4234.1022     -137168.25    
    128100   2314.6287     -5220.3723      4271.5318     -137163.19    
    128200   2441.8472      7425.5055      4282.0453     -137162.81    
    128300   2727.3612      2817.9184      4326.0662     -137165.47    
    128400   2447.7322     -4163.8483      4394.9757     -137160.05    
    128500   2115.3544     -4325.845       4433.2159     -137159.68    
    128600   2336.0307     -2936.6983      4413.0504     -137160.81    
    128700   2631.9416     -4092.9622      4343.8094     -137163.72    
    128800   2408.4165      22714.113      4276.8469     -137158.07    
    128900   2522.5094      823.49441      4309.0599     -137164.57    
    129000   2400.4347     -11587.168      4363.6307     -137166.9     
    129100   2368.4856     -670.84863      4359.1568     -137164.73    
    129200   2534.049       2509.1862      4345.048      -137158.48    
    129300   2717.3875     -733.68119      4341.5661     -137162.75    
    129400   2514.2861     -8460.6752      4342.4588     -137162.12    
    129500   2315.9477      12079.001      4310.459      -137161.33    
    129600   2436.798       1730.9355      4327.1511     -137162.76    
    129700   2746.2448      3969.3422      4371.1605     -137160.23    
    129800   2636.4158     -3878.5198      4420.4475     -137160.35    
    129900   2434.3062     -4149.2709      4438.0667     -137160.56    
    130000   2477.359      -8179.0744      4401.0519     -137163.69    
    130100   2460.1126      7582.2505      4321.0413     -137162.76    
    130200   2551.0424      7638.6511      4282.829      -137161.16    
    130300   2630.3693      4609.81        4290.481      -137160.05    
    130400   2527.047       2351.252       4337.4108     -137161.93    
    130500   2237.9794     -14400.308      4388.6216     -137158.69    
    130600   2438.8159      141.61364      4350.6119     -137161.1     
    130700   2795.2638      8185.7227      4283.8592     -137161.72    
    130800   2541.9562      16181.775      4275.0163     -137157.27    
    130900   2450.3069     -1525.8243      4352.5317     -137159.41    
    131000   2503.1884     -18921.671      4416.1317     -137161.64    
    131100   2573.1722     -2711.8823      4392.0569     -137160.83    
    131200   2833.518       2754.5201      4368.3739     -137160.23    
    131300   2642.5214      563.37532      4377.4093     -137158.41    
    131400   2422.5147      1761.9168      4389.8576     -137160.67    
    131500   2280.0091     -3959.6775      4394.0553     -137156.7     
    131600   2709.695      -6513.4978      4361.3195     -137163.7     
    131700   2534.2499      11342.865      4305.7583     -137159.78    
    131800   2323.7535     -3727.5835      4315.4208     -137161.87    
    131900   2063.6478      2365.318       4298.1574     -137159.85    
    132000   2468.908      -2236.58        4256.5045     -137164.3     
    132100   2520.5289      4870.4056      4208.5379     -137163.42    
    132200   2406.5593      10557.947      4203.4214     -137159.86    
    132300   2711.7319     -2728.4637      4257.2529     -137163.83    
    132400   2694.7095      2063.9316      4339.8286     -137160.16    
    132500   2447.4172     -14839.178      4447.251      -137159.56    
    132600   2332.7047     -17593.047      4468.3302     -137161.21    
    132700   2509.551      -6694.5115      4384.4768     -137161.15    
    132800   2665.2127      11032.427      4268.5811     -137162.12    
    132900   2629.401       4406.4245      4176.6496     -137165.84    
    133000   2539.612       17407.47       4128.9321     -137168.32    
    133100   2477.6567      565.23039      4187.3688     -137169.16    
    133200   2307.1326      4835.4463      4273.4208     -137160.16    
    133300   2617.6471      8775.5804      4350.3575     -137161.19    
    133400   2521.3466     -7756.5521      4436.4303     -137159.18    
    133500   2374.1761     -11868.137      4491.1236     -137154.27    
    133600   2503.6212      3745.1909      4482.7862     -137154.52    
    133700   2486.6211     -2237.8454      4454.6939     -137151.01    
    133800   2607.7131      1698.4725      4386.9439     -137157.92    
    133900   2382.044      -3642.9007      4311.6634     -137161.37    
    134000   2448.4222      1315.3545      4232.7051     -137165.1     
    134100   2449.0911      16342.666      4187.5952     -137164.97    
    134200   2604.5969      4639.9947      4237.1162     -137168.24    
    134300   2581.7847     -700.8308       4321.1242     -137165.58    
    134400   2535.3341      725.9318       4406.079      -137161.71    
    134500   2632.1909     -19158.84       4458.4659     -137160.85    
    134600   2497.6295      7715.9955      4406.2301     -137155.01    
    134700   2596.1949      7116.0178      4372.6052     -137157.02    
    134800   2511.7923     -5001.6016      4369.8613     -137161.09    
    134900   2490.6288     -932.78869      4340.5285     -137166.65    
    135000   2504.5914      5231.6716      4291.921      -137165.82    
    135100   2570.6366      11981.629      4262.1173     -137161.81    
    135200   2732.3296      3176.2714      4288.8543     -137159.05    
    135300   2957.5597     -2885.4724      4354.9855     -137160.61    
    135400   2453.7413      5988.6248      4439.1362     -137157.2     
    135500   2495.2991     -7661.5069      4531.1462     -137162.41    
    135600   2497.7549     -16826.337      4555.3892     -137160.12    
    135700   2501.0582      1121.0216      4482.4962     -137152.6     
    135800   2729.7699     -1420.2932      4400.9711     -137158.36    
    135900   2527.2553      4137.8768      4322.4718     -137159.56    
    136000   2467.6262      4678.1895      4264.5378     -137163.39    
    136100   2294.8242      4536.1347      4245.577      -137159.34    
    136200   2687.1783     -2621.8267      4229.9173     -137165.94    
    136300   2321.3926      10405.145      4225.2971     -137160.57    
    136400   2407.3042      1477.2891      4284.9757     -137169.8     
    136500   2288.1209     -6757.1335      4366.1615     -137163.44    
    136600   2461.0206      1029.6234      4414.3674     -137159.07    
    136700   2487.2184     -12196.658      4424.0681     -137158.71    
    136800   2526.2944      544.13905      4368.6159     -137159.31    
    136900   2685.8757      6061.0216      4318.0548     -137163.43    
    137000   2475.8789      1468.7457      4305.2523     -137163.05    
    137100   2474.502       4790.1802      4331.3558     -137166.12    
    137200   2460.0649     -9130.6809      4390.6424     -137159.98    
    137300   2503.0606      2367.3391      4396.4278     -137152.86    
    137400   2721.814      -4092.2069      4375.6918     -137159.01    
    137500   2646.0141     -521.3405       4325.4526     -137163.78    
    137600   2482.3521     -773.61127      4282.9885     -137163.78    
    137700   2533.5679      8017.0717      4268.7677     -137165.92    
    137800   2384.7176      5155.2283      4287.2858     -137163.73    
    137900   2627.0415     -7235.2062      4310.4251     -137169.59    
    138000   2374.2083      9109.016       4319.0901     -137156.67    
    138100   2799.4761     -3772.4942      4365.5511     -137162.42    
    138200   2473.6834     -5260.2153      4424.8264     -137156.41    
    138300   2392.3264     -12050.107      4453.3003     -137159.26    
    138400   2230.5246     -2622.9226      4392.228      -137160.04    
    138500   2439.2187      901.08196      4293.36       -137161.28    
    138600   2704.2569      14369.662      4225.7706     -137160.61    
    138700   2339.1256      19636.714      4240.4758     -137155.61    
    138800   2498.2961     -7737.3824      4305.1133     -137166.19    
    138900   2329.7259      3878.722       4330.7547     -137160.01    
    139000   2506.2492      2087.0511      4354.3302     -137161.2     
    139100   2410.8458     -97.686353      4375.6336     -137157.63    
    139200   2516.3159     -1714.7486      4365.3774     -137158.4     
    139300   2475.123       6092.5339      4342.4705     -137157.19    
    139400   2415.9273     -5311.8466      4329.3896     -137158.4     
    139500   2555.2897     -857.31617      4284.6085     -137162.75    
    139600   2436.2922      4779.6735      4232.5567     -137162.74    
    139700   2356.8743      4363.3788      4221.0805     -137163.41    
    139800   2386.52        550.82676      4234.0077     -137160.19    
    139900   2697.9029      5877.1404      4243.2082     -137161.58    
    140000   2487.0108      1556.3025      4291.429      -137159.6     
    140100   2411.3316     -6471.9433      4349.6694     -137161.76    
    140200   2391.1388     -2243.2418      4382.1169     -137158.92    
    140300   2555.5782      3435.6779      4396.9254     -137160.43    
    140400   2501.3569      521.75178      4410.9095     -137158.66    
    140500   2593.4676     -6274.5051      4421.3957     -137162.36    
    140600   2618.5513     -6678.8626      4412.7892     -137158.15    
    140700   2763.5911     -1834.3784      4371.679      -137155.58    
    140800   2610.2237     -4593.865       4326.2459     -137157.19    
    140900   2524.5382      11676.88       4263.8064     -137163.06    
    141000   2343.6302      10680.58       4256.9335     -137160.07    
    141100   2496.4535     -3312.5684      4302.2712     -137163.06    
    141200   2391.6702      3162.1696      4347.6263     -137156.21    
    141300   2730.2469     -3979.1471      4398.0312     -137157.89    
    141400   2648.8683     -6623.4177      4435.4916     -137156.76    
    141500   2440.3045     -5024.5931      4438.3492     -137160.04    
    141600   2418.9474     -3963.4866      4381.5744     -137160.33    
    141700   2598.3778      3332.1435      4294.2537     -137162.17    
    141800   2561.4656      2248.8919      4232.597      -137162.2     
    141900   2339.9723      6222.7382      4210.6603     -137163.65    
    142000   2288.1525     -1425.5048      4217.525      -137166.32    
    142100   2340.3262      11399.751      4210.9122     -137162.8     
    142200   2489.445       2573.5266      4236.6224     -137164.93    
    142300   2438.11       -7321.3444      4289.3104     -137162.08    
    142400   2541.6625      3871.3562      4335.4904     -137159.75    
    142500   2712.3056     -10572.856      4377.4786     -137159.87    
    142600   2736.4767     -12748.346      4348.6554     -137166.38    
    142700   2337.2221      4182.3644      4274.1134     -137162.48    
    142800   2396.6183      11135.451      4207.7965     -137163.04    
    142900   2504.6826      15735.867      4192.8231     -137164.72    
    143000   2565.2899      2924.354       4304.8678     -137163.8     
    143100   2543.4547     -10718.501      4485.3299     -137155.63    
    143200   2560.8739     -11315.938      4595.18       -137151.17    
    143300   2536.6459     -5267.878       4593.1843     -137151.29    
    143400   2405.9884     -4488.6         4537.4139     -137156.42    
    143500   2458.0129     -5848.6746      4443.8812     -137162.2     
    143600   2504.43        7236.1802      4313.8576     -137162.89    
    143700   2608.3796      3888.0033      4241.3884     -137161.92    
    143800   2734.8186      9731.4853      4224.9506     -137161.69    
    143900   2599.0269     -3587.8385      4261.0068     -137164.34    
    144000   2426.954      -8374.5166      4292.6866     -137166.45    
    144100   2347.7331      6957.7855      4295.9517     -137163.62    
    144200   2557.8205     -6089.7655      4316.0064     -137163.14    
    144300   2522.1409      364.87147      4335.0116     -137159.64    
    144400   2502.4905     -801.43251      4350.3461     -137160.4     
    144500   2384.6355     -420.41206      4333.7954     -137166.45    
    144600   2332.9936     -93.558804      4295.3801     -137164.67    
    144700   2532.1821     -860.14212      4272.1444     -137161.43    
    144800   2642.9406      10500.246      4260.7944     -137163.98    
    144900   2348.445      -1375.9478      4298.9024     -137161.64    
    145000   2166.8612      47.526948      4350.7881     -137156.99    
    145100   2653.0327      601.33752      4395.016      -137159.49    
    145200   2770.6726     -10306.878      4410.9841     -137162.81    
    145300   2379.5283     -2846.1695      4359.1937     -137158.16    
    145400   2429.2308      10627.815      4284.5943     -137162.58    
    145500   2351.9134      96.19818       4245.5486     -137165.29    
    145600   2252.7617      8544.5268      4215.87       -137166.91    
    145700   2371.6019      10345.989      4240.0586     -137164.41    
    145800   2572.9837     -7319.9557      4338.8725     -137161.81    
    145900   2579.1754     -5843.604       4431.8939     -137159.09    
    146000   2580.9485     -8822.4874      4466.8517     -137159.79    
    146100   2294.9815     -12023.64       4432.344      -137156.95    
    146200   2405.1592      8152.4382      4324.5882     -137163.1     
    146300   2628.7016      7841.0935      4240.6358     -137166.45    
    146400   2749.4306      11719.249      4216.1215     -137164.45    
    146500   2307.908       7565.6897      4250.0711     -137159.17    
    146600   2425.0409     -401.27108      4307.4874     -137166.83    
    146700   2372.8091     -6140.5714      4358.8827     -137162.68    
    146800   2633.1323     -8808.3011      4357.685      -137164.96    
    146900   2560.1911     -7836.5366      4316.3311     -137161.87    
    147000   2518.9853      3379.0194      4244.0951     -137162.52    
    147100   2493.7438      14433.934      4200.4915     -137165.68    
    147200   2367.5571      4373.5548      4233.0653     -137165.39    
    147300   2305.999       892.17487      4300.9672     -137162.21    
    147400   2564.3596     -9767.9542      4365.4472     -137159.09    
    147500   2657.6567      733.71102      4387.9736     -137158.35    
    147600   2552.4575     -6504.1379      4394.654      -137160.22    
    147700   2370.9677     -8139.9621      4367.314      -137161       
    147800   2469.6865     -1850.5092      4298.5326     -137163.96    
    147900   2800.338       6230.4274      4218.5038     -137164.62    
    148000   2594.1503      20220.558      4199.5383     -137157.14    
    148100   2348.1455      13741.385      4272.9268     -137159.62    
    148200   2259.044      -7817.6329      4402.0775     -137157.71    
    148300   2512.6054     -15703.668      4477.7977     -137157.96    
    148400   2580.1866     -6288.7777      4451.1561     -137156.15    
    148500   2460.5453     -3382.4825      4373.5164     -137154.44    
    148600   2570.1621     -199.55113      4291.9345     -137165.24    
    148700   2310.4435      7450.1307      4237.4915     -137163.07    
    148800   2395.1879      5919.79        4230.2089     -137163.73    
    148900   2413.1611      7494.7907      4274.1456     -137160.49    
    149000   2563.2945     -4852.8812      4328.7054     -137159.48    
    149100   2654.4057      2345.9248      4367.2979     -137155.92    
    149200   2647.6009     -11552.483      4416.8887     -137155.39    
    149300   2480.8614     -9155.9127      4381.8771     -137162.82    
    149400   2351.2898      568.33154      4275.1366     -137162.64    
    149500   2393.1007      15554.721      4177.8805     -137163.66    
    149600   2458.6841      12173.152      4172.5385     -137163.06    
    149700   2624.769       4085.156       4251.831      -137163.27    
    149800   2357.7137      5162.9797      4361.7566     -137157.05    
    149900   2464.124      -10947.345      4465.8115     -137160.25    
    150000   2552.9167     -14840.229      4479.6349     -137156.47    
    150100   2715.8301     -302.98953      4402.0718     -137156.58    
    150200   2468.0864      8972.1797      4343.0371     -137156.98    
    150300   2489.8664     -3946.992       4327.9635     -137162.41    
    150400   2422.6695      8145.7321      4304.9895     -137159.45    
    150500   2519.297       2086.4969      4305.2278     -137163.58    
    150600   2265.322      -3716.8018      4319.2664     -137159.75    
    150700   2405.6864      4385.0129      4287.1801     -137164.22    
    150800   2564.6239      8500.1023      4278.3721     -137164.87    
    150900   2522.848       6016.3153      4321.4959     -137159.3     
    151000   2511.6918     -2373.0006      4380.7821     -137156.7     
    151100   2499.9508     -4195.5072      4417.7657     -137155.08    
    151200   2678.0296     -1118.2446      4400.6752     -137158.86    
    151300   2529.5133     -2094.0976      4347.0327     -137162.27    
    151400   2439.6003     -4541.5906      4293.6842     -137164.58    
    151500   2523.2793      1466.2621      4232.2331     -137168.96    
    151600   2396.0354      10593.032      4203.7533     -137169.1     
    151700   2096.1828      1570.2028      4228.8735     -137166.27    
    151800   2497.0079      3667.3431      4267.6869     -137168.74    
    151900   2462.1753     -150.17811      4313.7691     -137163.79    
    152000   2433.5831     -6091.7634      4342.5903     -137161.89    
    152100   2445.6003     -1444.74        4322.0146     -137162.16    
    152200   2549.9054     -2720.0874      4281.0277     -137165.65    
    152300   2570.0558      4013.2853      4246.1572     -137162.45    
    152400   2774.955       3733.0748      4237.415      -137166.4     
    152500   2496.3242      942.97469      4264.4948     -137167.58    
    152600   2308.3847     -8170.7488      4317.8238     -137162.86    
    152700   2436.359      -4463.6745      4346.4414     -137159.84    
    152800   2586.8535      459.85229      4358.9449     -137159.64    
    152900   2643.0635      2688.5379      4379.8687     -137160.49    
    153000   2421.4243     -2478.7215      4414.7086     -137157.82    
    153100   2291.3465     -8572.007       4424.652      -137161.27    
    153200   2362.5409     -128.21046      4374.5615     -137164.27    
    153300   2654.393       12700.35       4300.376      -137161.37    
    153400   2558.9806      3016.2679      4287.9788     -137159.18    
    153500   2539.2893     -3224.119       4316.241      -137163.34    
    153600   2453.3159     -307.79918      4374.4831     -137160.67    
    153700   2662.1531     -14603.895      4451.6037     -137156.72    
    153800   2580.2631     -6630.6654      4466.5296     -137151.03    
    153900   2630.3832     -2396.8935      4422.7338     -137158.03    
    154000   2439.6378      2003.795       4338.3841     -137156.8     
    154100   2700.8689      3209.2764      4234.4896     -137165.88    
    154200   2505.8615      12389.957      4162.2428     -137167.41    
    154300   2434.7961      5177.5592      4167.0321     -137167.21    
    154400   2431.4945      5328.5128      4232.2311     -137165.9     
    154500   2405.8402     -2085.8983      4323.2383     -137163.18    
    154600   2448.6298      2922.2731      4374.8685     -137159.69    
    154700   2520.3152     -7908.8073      4390.1942     -137158.74    
    154800   2363.0595     -1655.2987      4349.5928     -137159.54    
    154900   2413.5349      5980.8369      4295.293      -137166.47    
    155000   2357.7863     -3708.7024      4253.7302     -137163.57    
    155100   2580.1917      19454.301      4209.5498     -137161.39    
    155200   2569.0299      13373.361      4235.2919     -137161.03    
    155300   2346.166      -2297.3102      4318.4359     -137162.66    
    155400   2411.5273     -1639.1157      4397.726      -137162.8     
    155500   2461.1005     -3178.9538      4469.391      -137158.78    
    155600   2696.2121     -10423.439      4513.2329     -137160.36    
    155700   2635.7192     -8640.2232      4490.224      -137158.29    
    155800   2410.1071     -3935.9285      4377.6197     -137162.81    
    155900   2615.944       1315.3337      4246.0007     -137169.41    
    156000   2512.6852      15575.637      4158.4735     -137166.35    
    156100   2400.0081      10168.095      4139.2182     -137166.18    
    156200   2396.0142      4692.9033      4193.1593     -137168.41    
    156300   2596.1665     -4362.2339      4291.1113     -137166.57    
    156400   2460.6956     -3765.8247      4372.701      -137155.77    
    156500   2593.2953     -5455.3039      4400.3761     -137157.83    
    156600   2455.3314      1483.9002      4376.7843     -137158.24    
    156700   2477.1016     -9137.1754      4344.4548     -137167.77    
    156800   2411.7055     -7566.4591      4281.2183     -137167.4     
    156900   2492.0186      18484.231      4210.0756     -137166.04    
    157000   2620.5915      2120.5928      4229.4676     -137169.22    
    157100   2351.2361      3789.4009      4271.863      -137163.84    
    157200   2395.3231     -9191.7644      4310.6228     -137162.53    
    157300   2707.1563      4592.027       4321.3842     -137158.62    
    157400   2584.0308     -9458.2536      4358.9104     -137157.75    
    157500   2433.9834      5611.6599      4374.65       -137158.93    
    157600   2419.8097     -2022.7163      4419.3623     -137160.98    
    157700   2446.0294     -5138.9142      4441.2123     -137157.54    
    157800   2636.1682      2696.7467      4407.3305     -137155.2     
    157900   2484.9054     -1585.107       4366.7911     -137155.1     
    158000   2389.4607     -1042.0213      4331.1997     -137154.34    
    158100   2558.881       4120.6222      4297.2838     -137159.08    
    158200   2392.3994      7041.0889      4279.1472     -137157.9     
    158300   2448.206       1730.9952      4293.8864     -137163.08    
    158400   2148.4394      244.50293      4300.0536     -137161.9     
    158500   2343.9343      4695.947       4287.8153     -137163.82    
    158600   2573.7567      2812.4429      4277.279      -137163.33    
    158700   2549.0247     -1487.5242      4269.1445     -137162.07    
    158800   2357.2733      6773.0561      4274.5646     -137160.79    
    158900   2240.708      -2342.1892      4309.0916     -137167.5     
    159000   2483.8497     -2434.2123      4333.3275     -137171.72    
    159100   2451.5475     -7446.0475      4379.0798     -137165.87    
    159200   2449.9821     -9170.3083      4413.4353     -137160.22    
    159300   2416.3033      5615.4416      4397.672      -137155.36    
    159400   2484.1732      700.50051      4356.449      -137156.44    
    159500   2426.2417      3278.6983      4301.5409     -137157.94    
    159600   2400.9191     -4402.1174      4281.8776     -137166.73    
    159700   2296.3809      8009.5001      4271.5675     -137164.86    
    159800   2392.5554      1406.5898      4294.8364     -137161.73    
    159900   2743.7235     -2055.0575      4341.6623     -137165.54    
    160000   2589.1676     -11405.401      4385.3533     -137163.03    
    160100   2416.8577     -3847.1993      4357.7625     -137161       
    160200   2541.164      -5466.5143      4303.3601     -137164.4     
    160300   2480.0518      12294.748      4241.9909     -137164       
    160400   2259.3248      887.27036      4224.5471     -137167.17    
    160500   2184.041       12657.891      4217.2699     -137164.16    
    160600   2439.8549     -7951.1493      4262.356      -137162.66    
    160700   2635.5407     -2070.0053      4310.2312     -137163.52    
    160800   2454.8859     -5878.4129      4367.8841     -137156.05    
    160900   2597.0025      5061.5672      4395.629      -137157.12    
    161000   2617.1606      2326.461       4433.4774     -137153.8     
    161100   2809.083      -9915.9086      4464.2206     -137159.86    
    161200   2333.7114     -7995.0678      4448.5937     -137156.61    
    161300   2458.9834     -4195.6981      4365.8519     -137162.42    
    161400   2497.038       15219.112      4262.7852     -137160.25    
    161500   2605.8522      15733.667      4229.1261     -137159.33    
    161600   2526.6279      639.55492      4285.8219     -137160.37    
    161700   2423.9524     -6415.9546      4369.8891     -137164.54    
    161800   2397.5468     -10538.639      4427.4529     -137160.94    
    161900   2597.294      -7843.0435      4424.2944     -137160.03    
    162000   2659.807       2117.6934      4387.5708     -137161.28    
    162100   2391.8348      7081.5277      4360.4672     -137158.26    
    162200   2444.1907     -11685.157      4352.196      -137165.2     
    162300   2187.4643     -1615.3872      4304.5958     -137166.02    
    162400   2482.9775      7823.4671      4230.2144     -137167.26    
    162500   2566.7364      6989.4912      4194.1844     -137163.38    
    162600   2563.0461      12100.776      4229.2776     -137161.19    
    162700   2453.5196     -1399.1435      4349.9822     -137160.93    
    162800   2336.4237     -19837.779      4473.5671     -137162.44    
    162900   2318.2384     -10813.866      4479.1427     -137159.02    
    163000   2610.6333      8841.6125      4392.5516     -137158.39    
    163100   2776.599       286.475        4337.8482     -137165.26    
    163200   2591.5549     -10387.737      4322.7226     -137167.11    
    163300   2458.6018     -2760.9733      4289.2735     -137165.89    
    163400   2400.588       6832.0156      4263.9025     -137163.3     
    163500   2303.9681      7457.5484      4271.1661     -137156.49    
    163600   2833.3587      1190.7429      4327.0994     -137159.98    
    163700   2526.2484     -10422.997      4408.5229     -137155.55    
    163800   2476.7578     -13594.2        4434.7225     -137158.97    
    163900   2650.7502     -2146.6633      4406.5111     -137163.9     
    164000   2515.5069     -6081.6335      4370.4106     -137159.72    
    164100   2675.7389      8383.5741      4308.0949     -137164.51    
    164200   2344.5606      2955.8687      4302.037      -137163.2     
    164300   2473.3818     -26.106886      4336.8483     -137168.33    
    164400   2472.484       375.80051      4361.98       -137163.16    
    164500   2535.5241      6229.8348      4374.8664     -137157.97    
    164600   2708.4702      7093.8156      4407.0818     -137161.95    
    164700   2454.2357     -8832.6869      4457.3795     -137159.94    
    164800   2369.6013     -5632.8637      4447.0187     -137158.2     
    164900   2481.1907     -4621.5369      4393.7853     -137158.38    
    165000   2733.7045      1343.223       4313.2975     -137164.12    
    165100   2565.5395      11166.62       4261.8554     -137164.39    
    165200   2341.4321      2586.2501      4282.1189     -137166.79    
    165300   2213.313       3715.7918      4344.8339     -137159.96    
    165400   2500.7772     -6985.8166      4417.9775     -137161.03    
    165500   2585.3785     -14798.759      4447.3795     -137159.93    
    165600   2470.5741      4859.532       4418.9323     -137154.94    
    165700   2623.4805      6571.1335      4402.2248     -137155.02    
    165800   2585.6465     -2361.4334      4399.3143     -137158.99    
    165900   2470.4765     -10328.537      4363.8827     -137163.79    
    166000   2547.0529      4938.7655      4286.6238     -137164.83    
    166100   2730.5123      3194.7786      4256.8631     -137165.37    
    166200   2451.7245      10175.429      4266.4707     -137159.19    
    166300   2352.7907     -2313.0746      4312.6026     -137164.66    
    166400   2266.3165     -1598.3413      4357.4234     -137163.22    
    166500   2416.6998     -9195.5792      4379.12       -137159.24    
    166600   2487.8895      2507.9681      4354.5705     -137158.2     
    166700   2496.4973      7833.9306      4326.6267     -137159       
    166800   2526.9962      206.97765      4326.2314     -137160.05    
    166900   2459.6299      2432.9236      4324.9501     -137161.37    
    167000   2266.8532      1589.0859      4321.4449     -137162.36    
    167100   2357.9543      2885.011       4310.7664     -137161.74    
    167200   2605.3078      8552.4559      4317.9284     -137161.19    
    167300   2558.5724     -7633.1822      4391.5999     -137160.33    
    167400   2596.932      -21338.15       4459.799      -137161.1     
    167500   2508.5048     -2905.8458      4423.6076     -137156.84    
    167600   2474.1058      5744.7756      4341.0977     -137155.85    
    167700   2418.4298      5334.2802      4262.5263     -137162.46    
    167800   2273.8587      866.06581      4204.1724     -137163.66    
    167900   2388.1745      12031.584      4179.2416     -137162.97    
    168000   2629.4397     -769.11605      4238.5147     -137163.19    
    168100   2520.3072     -3723.3242      4330.6507     -137160.21    
    168200   2321.5769     -15551.745      4399.2117     -137156.84    
    168300   2532.3752     -10355.422      4374.118      -137157.81    
    168400   2703.7727      8383.414       4283.005      -137156.02    
    168500   2604.4095      3813.2947      4250.7091     -137159.92    
    168600   2474.64        1097.0262      4255.1865     -137162.94    
    168700   2395.6821      6530.491       4262.9874     -137160.36    
    168800   2491.1237      10269.435      4308.2428     -137160.64    
    168900   2486.9109     -12751.431      4393.4724     -137160.7     
    169000   2463.0567     -3901.1227      4408.4508     -137161.91    
    169100   2503.0545     -1880.3597      4395.1964     -137164.61    
    169200   2352.099       1414.3524      4384.2213     -137159.44    
    169300   2682.7102     -5618.7815      4367.1304     -137162.06    
    169400   2762.3157     -9851.692       4347.3908     -137161.51    
    169500   2444.4254      5630.2737      4284.9112     -137162.86    
    169600   2412.3585      4220.134       4229.6122     -137164.64    
    169700   2391.6265      8704.2902      4201.2566     -137162.67    
    169800   2478.9602      13291.668      4200.1642     -137162.49    
    169900   2554.9188      10967.277      4266.366      -137160.34    
    170000   2717.4367     -9314.5191      4408.8948     -137158.24    
    170100   2609.6261     -15461.181      4514.4648     -137153.85    
    170200   2551.4494     -16432.815      4513.7675     -137155.78    
    170300   2269.5717     -7521.0333      4394.0216     -137156.45    
    170400   2342.2574      16953.602      4220.8018     -137158.7     
    170500   2597.2875      27074.586      4158.7874     -137161.62    
    170600   2618.2909      2720.9338      4235.9065     -137167.64    
    170700   2347.5487     -6500.1931      4322.7009     -137166.49    
    170800   2269.0181     -6523.1798      4349.5658     -137161.05    
    170900   2526.7549     -55.917063      4346.4489     -137160.19    
    171000   2534.3791      653.50907      4335.0068     -137160.6     
    171100   2527.361      -6391.1664      4331.1882     -137163.99    
    171200   2308.2682     -4644.7931      4306.5593     -137160.03    
    171300   2721.4616      8428.4012      4272.7155     -137163.95    
    171400   2673.7023      5671.736       4318.0804     -137159.46    
    171500   2435.1301     -6202.8057      4388.9572     -137158.27    
    171600   2351.4857     -9889.1916      4434.4379     -137159.24    
    171700   2321.5565      3012.3475      4414.2756     -137157.88    
    171800   2499.5235     -1111.6952      4392.7903     -137156.36    
    171900   2668.0618      6828.6929      4368.1859     -137158.57    
    172000   2469.8343     -5565.3826      4354.4543     -137160.97    
    172100   2387.5817      8315.8787      4322.2173     -137163.21    
    172200   2350.1181     -1033.939       4325.3498     -137161.29    
    172300   2482.8925     -11244.683      4324.6356     -137160.31    
    172400   2502.916       8316.3251      4283.9492     -137157.84    
    172500   2585.3632     -1380.0567      4294.3135     -137161.02    
    172600   2478.31       -1908.6504      4306.5537     -137160.16    
    172700   2395.7843      391.20771      4312.5217     -137160.24    
    172800   2359.5327      2175.2765      4323.9004     -137160.74    
    172900   2417.3771     -6605.5115      4320.8626     -137162.3     
    173000   2479.731       8081.3157      4285.777      -137159.49    
    173100   2810.0284     -4701.576       4289.4194     -137166.07    
    173200   2442.2301     -1344.9397      4320.8279     -137162.71    
    173300   2337.5771     -314.49986      4346.2155     -137161.65    
    173400   2577.1367     -3922.4873      4358.5916     -137161.21    
    173500   2868.143       3460.8599      4369.1677     -137160.43    
    173600   2553.4399     -7658.8377      4412.5228     -137157.9     
    173700   2502.3362     -7074.1111      4407.503      -137159.34    
    173800   2649.797      -4620.3647      4345.5377     -137164.35    
    173900   2353.8634     -270.57618      4277.5303     -137164.06    
    174000   2259.0477      10102.734      4210.3202     -137165.43    
    174100   2539.6232      6370.6082      4173.7795     -137168.55    
    174200   2447.5127      11421.211      4184.0803     -137165.57    
    174300   2460.987       927.77851      4272.8386     -137165.69    
    174400   2416.0963     -12819.204      4386.4071     -137160.61    
    174500   2407.4077     -12670.362      4432.2327     -137157.25    
    174600   2611.919      -10441.88       4394.1814     -137161.04    
    174700   2491.9615      10659.005      4281.2277     -137160.87    
    174800   2396.977       16442.801      4216.9507     -137164.68    
    174900   2375.8911     -3077.0207      4229.0925     -137166.07    
    175000   2437.9464      3713.6957      4262.5617     -137164.98    
    175100   2567.8828     -1178.2718      4326.2075     -137164.37    
    175200   2469.8154     -4168.3729      4386.5345     -137158.02    
    175300   2725.9635     -5074.2419      4422.0127     -137162.77    
    175400   2396.5272     -3408.1817      4427.0778     -137155.4     
    175500   2387.5323     -3066.8966      4376.1092     -137160.27    
    175600   2418.0448     -1544.0335      4292.6444     -137162.24    
    175700   2550.7436      14157.643      4200.4867     -137164.33    
    175800   2598.074       15095.671      4190.96       -137166.6     
    175900   2362.0912      454.54664      4264.2596     -137166.2     
    176000   2425.1977     -7041.2773      4342.8583     -137166.91    
    176100   2504.5315     -8587.1153      4392.8485     -137158.65    
    176200   2591.7897     -2506.8353      4410.0971     -137157.52    
    176300   2519.3617     -6272.9601      4414.0536     -137158.36    
    176400   2490.7707      1137.0507      4383.9545     -137161.64    
    176500   2340.959      -7722.3143      4337.7477     -137161.91    
    176600   2373.4686      777.65827      4242.337      -137167.54    
    176700   2438.9367      8965.6033      4161.4111     -137166.81    
    176800   2698.0691      13680.267      4167.9701     -137165.31    
    176900   2540.3437     -946.25029      4288.2781     -137163.35    
    177000   2387.7431     -18002.663      4420.7613     -137161.85    
    177100   2375.9955     -9496.6616      4436.5817     -137159.25    
    177200   2789.5436      6622.6754      4384.2585     -137159.5     
    177300   2425.8054      11912.577      4377.6274     -137155.34    
    177400   2347.5215     -11910.618      4418.2181     -137158.24    
    177500   2396.2111     -11472.118      4402.4498     -137158.06    
    177600   2700.0798     -9604.988       4318.0394     -137160.1     
    177700   2623.2357      27057.19       4219.0237     -137160.02    
    177800   2332.5199      6006.4171      4242.9555     -137164.27    
    177900   2333.1958     -3303.8126      4290.7643     -137162.54    
    178000   2566.2866      1546.7131      4323.0208     -137161.78    
    178100   2574.595      -4063.2511      4372.604      -137159.06    
    178200   2427.3266      792.05144      4407.1465     -137157.13    
    178300   2201.0252     -13202.324      4409.7381     -137156.4     
    178400   2386.6609      8528.0895      4339.3763     -137162.36    
    178500   2613.6811      5426.9913      4299.6981     -137163.62    
    178600   2674.2011      9769.8961      4297.3304     -137161.84    
    178700   2390.536      -4184.9565      4344.2903     -137161.92    
    178800   2206.1662     -7952.3091      4368.9877     -137160.38    
    178900   2380.9173      5533.6936      4335.4444     -137159.36    
    179000   2526.0322      5162.7909      4324.9941     -137159.71    
    179100   2379.7365      8965.7657      4366.8031     -137154.05    
    179200   2412.3163     -6435.9549      4413.3054     -137156.7     
    179300   2342.4835     -8934.9112      4401.7797     -137163.08    
    179400   2310.2571      2175.4342      4320.6499     -137160.78    
    179500   2628.5754      21184.052      4218.4662     -137161.57    
    179600   2698.7212      5376.9531      4195.8172     -137165.19    
    179700   2601.6877      200.45068      4234.7068     -137167.61    
    179800   2362.7649     -961.21969      4309.6927     -137165.65    
    179900   2352.0088     -10123.756      4386.7229     -137162.13    
    180000   2475.3561     -4359.5349      4417.1704     -137158.67    
    180100   2560.2525     -2426.5676      4418.4898     -137158.81    
    180200   2512.5554     -6707.0304      4376.8287     -137158.76    
    180300   2398.8314      11924.485      4289.8227     -137159.54    
    180400   2467.0779      3350.6518      4245.1143     -137166.79    
    180500   2229.0399      1402.0345      4240.1641     -137163.65    
    180600   2539.5237      2476.9079      4243.9017     -137163.74    
    180700   2587.9504      5427.5859      4259.4529     -137160.42    
    180800   2277.8041      9600.7893      4312.7214     -137156.6     
    180900   2362.7985     -15056.354      4410.6072     -137160.29    
    181000   2732.4906     -7438.2796      4447.5297     -137161.12    
    181100   2784.4127     -3516.8773      4447.9509     -137159.44    
    181200   2398.6773     -1908.0825      4439.9294     -137153.22    
    181300   2524.3685      3648.1228      4405.5798     -137158.31    
    181400   2669.8794     -7079.6424      4372.2172     -137167.04    
    181500   2352.8491     -9820.5229      4322.781      -137165.55    
    181600   2519.5016      3860.6024      4239.1208     -137168.21    
    181700   2883.1353      18107.321      4204.491      -137164.38    
    181800   2681.5469      4156.1149      4285.3076     -137160.59    
    181900   2395.6731     -11666.877      4410.066      -137158.23    
    182000   2356.9367     -20020.028      4461.3455     -137156.55    
    182100   2612.5095      1919.8517      4398.6771     -137156.01    
    182200   2660.8697      10224.553      4357.6932     -137156.73    
    182300   2644.6065     -9685.1241      4377.7942     -137160.37    
    182400   2500.9207     -2955.3189      4355.3757     -137161.56    
    182500   2487.38       -2280.263       4320.47       -137162.17    
    182600   2566.1367      9741.2648      4300.6749     -137160.68    
    182700   2688.9427      4183.3105      4334.4619     -137155.11    
    182800   2643.7144     -3901.2144      4405.9048     -137155.64    
    182900   2381.6533     -13093.999      4453.6805     -137159.15    
    183000   2496.1397     -11598.656      4407.5425     -137161.77    
    183100   2548.7434      8748.3972      4284.9096     -137161       
    183200   2677.7347      2774.5009      4197.2843     -137164.6     
    183300   2491.8475      15777.875      4155.8563     -137168.93    
    183400   2361.8391     -126.42751      4191.5287     -137168.54    
    183500   2322.2127      8879.6083      4245.9324     -137162.82    
    183600   2463.922      -845.85557      4332.6552     -137160.73    
    183700   2463.0647     -589.40824      4394.9719     -137157.6     
    183800   2487.9487     -10902.361      4401.4406     -137156.39    
    183900   2775.8822      2691.8577      4371.3474     -137159.05    
    184000   2643.4827     -2406.3595      4367.2825     -137159.59    
    184100   2426.9637     -5927.035       4352.2287     -137162.69    
    184200   2384.0026     -1675.1697      4298.9781     -137162.21    
    184300   2506.3644      7555.7748      4253.1194     -137161.98    
    184400   2551.6507      1207.8972      4247.5028     -137161.3     
    184500   2462.6103      4996.037       4257.5274     -137162.46    
    184600   2365.9735      1652.6819      4277.2633     -137165.17    
    184700   2395.8819     -8874.4394      4303.8311     -137166.26    
    184800   2758.9921     -8689.2281      4293.1695     -137168.1     
    184900   2581.1924      12704.134      4268.5119     -137159.4     
    185000   2592.827       3371.9291      4316.0086     -137164.06    
    185100   2500.3879     -7603.1363      4404.2495     -137163.55    
    185200   2244.5478     -2668.7263      4434.6901     -137155.97    
    185300   2501.8404     -6873.3213      4401.6757     -137159.19    
    185400   2574.9499      3305.868       4328.8068     -137158.77    
    185500   2563.2054      8011.4977      4275.0349     -137159.82    
    185600   2412.0265      2155.6321      4260.0261     -137163.64    
    185700   2258.0638     -30.357633      4260.355      -137168.46    
    185800   2244.6088     -1676.9424      4246.3387     -137166.44    
    185900   2598.4754      13151.905      4233.727      -137162.36    
    186000   2698.0765     -1490.1059      4272.2655     -137165.33    
    186100   2510.1247     -14136.363      4316.4759     -137164.84    
    186200   2442.3548      6687.0645      4300.2606     -137163.15    
    186300   2458.1723      6716.3612      4265.6433     -137162.72    
    186400   2602.6739      2092.227       4256.125      -137164.21    
    186500   2649.9938      12846.307      4274.9818     -137161.48    
    186600   2419.2769     -678.48369      4341.1346     -137162.91    
    186700   2278.2658     -13214.771      4408.0711     -137162.31    
    186800   2456.033      -6253.5053      4400.1551     -137161.82    
    186900   2505.5129     -794.89578      4341.7624     -137159.68    
    187000   2427.484       720.39988      4274.4376     -137156.25    
    187100   2689.7815      345.25601      4228.616      -137165.67    
    187200   2339.1859      2829.1944      4225.3621     -137166.59    
    187300   2303.8297     -3171.0725      4241.113      -137166.91    
    187400   2401.9818      4150.3583      4231.0479     -137164.91    
    187500   2492.8864      11506.299      4222.9004     -137163.7     
    187600   2637.8257      4409.9189      4264.701      -137167.18    
    187700   2339.1919     -7098.646       4342.9362     -137161.71    
    187800   2296.2133     -622.93417      4384.6985     -137161.87    
    187900   2551.5132     -13524.999      4386.6414     -137161.77    
    188000   2680.7793      5232.9024      4341.8266     -137159.97    
    188100   2437.9515      193.52858      4320.8347     -137156.34    
    188200   2397.8571      1989.2175      4309.9432     -137161.71    
    188300   2407.0434      2558.4792      4326.3208     -137164.63    
    188400   2551.9049      4683.7734      4378.4341     -137161.85    
    188500   2477.5959     -2237.3038      4437.1386     -137152.71    
    188600   2637.9588     -9609.5042      4436.1435     -137158.24    
    188700   2467.7147     -14941.381      4368.7387     -137162.02    
    188800   2463.4703      6719.0029      4249.614      -137164.82    
    188900   2611.0968      1012.1598      4207.5105     -137167.34    
    189000   2591.9398      3293.4944      4225.2758     -137168.44    
    189100   2471.6148     -1016.111       4266.4524     -137166.49    
    189200   2686.1612     -5470.5969      4297.4529     -137165.18    
    189300   2688.0739      1822.4499      4299.9042     -137157.76    
    189400   2511.503       3813.6747      4305.6616     -137161.06    
    189500   2526.3512     -486.87318      4328.0367     -137167.7     
    189600   2483.036      -11448.417      4353.0491     -137167.8     
    189700   2506.4867      1872.5186      4328.2885     -137164.48    
    189800   2714.568       9480.5271      4305.775      -137161.71    
    189900   2627.4589     -1610.9638      4322.6844     -137160.87    
    190000   2334.9459     -1778.3645      4340.5854     -137163.54    
    190100   2309.6792      2125.637       4354.7394     -137161.42    
    190200   2479.4631      891.12437      4357.4921     -137159.05    
    190300   2735.5007     -2620.6131      4364.4792     -137164.04    
    190400   2512.7957     -2532.0661      4388.4027     -137161.45    
    190500   2242.7692     -8405.0472      4387.4211     -137154.96    
    190600   2593.2836      3148.5347      4299.0227     -137156.76    
    190700   2728.1434      15173.215      4210.6651     -137160.04    
    190800   2508.3105      15285.063      4228.2876     -137163.28    
    190900   2471.4494     -7919.0497      4343.5081     -137164.76    
    191000   2496.2562     -17070.788      4420.7982     -137161.1     
    191100   2785.8813     -1650.0899      4391.4151     -137162.95    
    191200   2591.3042      3540.227       4347.7351     -137161.55    
    191300   2493.9879     -4168.1084      4328.2896     -137161.78    
    191400   2414.0999      4699.3998      4306.8933     -137158.75    
    191500   2562.3816      5170.5959      4298.3869     -137161.79    
    191600   2608.579       742.37204      4308.4601     -137164.7     
    191700   2495.3596     -18464.289      4290.7244     -137170.07    
    191800   2313.4011      11781.509      4195.1519     -137168.27    
    191900   2426.6884      12492.55       4151.0087     -137166.41    
    192000   2626.3742      6361.093       4167.8679     -137163.68    
    192100   2648.3177      7119.5686      4227.0887     -137164.34    
    192200   2405.7981     -3885.2855      4306.5461     -137160.28    
    192300   2404.3668     -5621.3965      4350.268      -137157.66    
    192400   2815.0335      6512.4941      4351.2381     -137161.9     
    192500   2724.5784     -1687.3419      4379.982      -137158.5     
    192600   2255.7519     -6366.1243      4387.9453     -137157.28    
    192700   2479.7196     -4897.8197      4343.5381     -137164.39    
    192800   2547.8161     -618.03723      4275.6053     -137162.69    
    192900   2845.0127      8472.9707      4236.8142     -137165.44    
    193000   2578.7448     -3990.0025      4262.7406     -137163.63    
    193100   2246.8417      4904.8884      4287.6219     -137163.46    
    193200   2492.8476     -293.88038      4324.4876     -137167.04    
    193300   2562.2144     -3189.8129      4351.1979     -137163.46    
    193400   2414.3297     -7188.3556      4359.5001     -137157.05    
    193500   2621.9542      2878.8326      4348.007      -137160.97    
    193600   2462.0571      7043.9792      4354.7793     -137157.49    
    193700   2410.0859     -6848.9556      4378.2043     -137160.97    
    193800   2486.4607     -947.72649      4368.0799     -137163.26    
    193900   2480.8057     -291.58219      4341.4997     -137158.95    
    194000   2723.4989      1508.4248      4319.723      -137159.97    
    194100   2456.7505      1613.7363      4304.0831     -137156.67    
    194200   2341.2628      3903.7981      4284.7905     -137162.86    
    194300   2481.9219      2781.4776      4281.1731     -137166.36    
    194400   2518.7561     -4111.474       4302.6287     -137164.46    
    194500   2646.1869      441.0028       4322.5494     -137160.92    
    194600   2824.8187     -2632.3527      4345.7506     -137159.08    
    194700   2588.068       6750.0636      4387.4888     -137157.92    
    194800   2249.0071     -9372.5873      4440.3423     -137156.11    
    194900   2509.9631     -2861.0336      4430.1916     -137161.02    
    195000   2475.5776     -3236.9519      4389.4563     -137157.61    
    195100   2617.3328      2697.11        4305.8959     -137159.51    
    195200   2503.063       4024.1055      4231.0667     -137163.3     
    195300   2417.3828      6182.3699      4185.5871     -137168.06    
    195400   2345.3868      7264.3726      4170.8312     -137165.07    
    195500   2581.4521      7003.5432      4186.5781     -137166.58    
    195600   2721.7801      722.07394      4265.9047     -137163.56    
    195700   2681.9968     -6841.0298      4379.4298     -137156.93    
    195800   2348.9736     -14564.25       4446.5795     -137151.6     
    195900   2477.3622     -684.11923      4403.3403     -137161.12    
    196000   2362.9315     -4200.0316      4317.288      -137161.23    
    196100   2623.7294      11197.916      4216.2761     -137165.75    
    196200   2782.2133      11021.008      4196.5115     -137165.65    
    196300   2311.5373     -2799.1849      4278.9832     -137156.64    
    196400   2459.4441     -7537.0336      4345.664      -137163.93    
    196500   2333.362       9415.4224      4389.5996     -137159.54    
    196600   2495.1289     -4689.6623      4453.5608     -137154.41    
    196700   2593.2289     -10138.571      4461.2176     -137153.93    
    196800   2605.7535     -6104.7085      4401.3044     -137156.57    
    196900   2527.7571      5232.9781      4322.715      -137163.18    
    197000   2413.2071      5075.0427      4279.3892     -137163.51    
    197100   2417.7268      1366.0663      4255.5962     -137161.91    
    197200   2475.6068      8359.7791      4247.0031     -137160.99    
    197300   2524.6966     -4953.8612      4259.9925     -137163.71    
    197400   2162.8565      2904.7128      4227.5482     -137162.54    
    197500   2499.2515      8075.2244      4191.264      -137170.73    
    197600   2388.6714      13805.571      4217.3081     -137162.07    
    197700   2701.8811     -5877.279       4318.9364     -137164.73    
    197800   2364.3215     -3313.9619      4424.1579     -137155.3     
    197900   2469.4426     -8900.3418      4491.2116     -137156.87    
    198000   2596.8963     -18861.431      4513.6357     -137155.65    
    198100   2720.0449     -1954.27        4433.237      -137152.69    
    198200   2837.1368      9128.014       4339.0975     -137157.03    
    198300   2519.4593      11403.233      4293.9452     -137161.79    
    198400   2428.6982     -6707.6983      4292.3795     -137163.25    
    198500   2510.4861      4373.1998      4278.5767     -137165.37    
    198600   2504.1887      3163.0796      4288.4587     -137161.8     
    198700   2654.4569      11752.857      4311.8951     -137163.09    
    198800   2506.856      -2872.3821      4385.824      -137164.62    
    198900   2155.6593     -12194.602      4449.2175     -137159.54    
    199000   2396.5978     -12080.161      4421.1654     -137159.73    
    199100   2576.8016      2617.4233      4314.7095     -137161.49    
    199200   2594.5935      17957.686      4228.9256     -137162.13    
    199300   2409.5951      3692.6797      4226.7526     -137163.84    
    199400   2224.6289     -2852.6169      4244.3748     -137161.89    
    199500   2461.2989      1694.6752      4246.9981     -137164.04    
    199600   2427.893      -1043.7196      4270.2082     -137160.63    
    199700   2536.7437      3218.664       4292.838      -137163.06    
    199800   2543.0101     -5959.018       4333.3137     -137161.01    
    199900   2686.5784      4448.1894      4365.2971     -137162.34    
    200000   2575.9779     -778.0181       4413.644      -137157.69    
    200100   2489.0246     -8519.832       4452.5714     -137158.44    
    200200   2209.0843     -2282.7767      4435.8871     -137154.7     
    200300   2528.0509      830.94978      4345.9755     -137163.11    
    200400   2600.7886      4974.79        4243.2344     -137160.26    
    200500   2625.1104      20643.259      4184.5575     -137158.24    
    200600   2429.6228      1096.1982      4232.6084     -137164.01    
    200700   2391.4579     -4649.5087      4291.5049     -137165.23    
    200800   2528.1971     -5852.6208      4319.1624     -137165.46    
    200900   2526.3751      5703.8188      4329.0553     -137159.11    
    201000   2507.3056      5596.9919      4360.7704     -137154.28    
    201100   2436.3855     -1138.9991      4406.7749     -137155.79    
    201200   2206.1782     -16584.129      4455.4129     -137159.44    
    201300   2309.0775     -8089.671       4407.4472     -137164.72    
    201400   2485.6997      2198.0989      4282.8233     -137164.71    
    201500   2482.0515      14926.163      4180.4412     -137162.28    
    201600   2463.1458      16511.239      4155.0517     -137161.98    
    201700   2470.069       6807.6141      4227.2656     -137167.41    
    201800   2192.3824     -11133.472      4346.9355     -137164.14    
    201900   2463.2383     -8708.4819      4405.8922     -137162.14    
    202000   2610.9996     -11937.811      4433.0223     -137160.78    
    202100   2579.5071     -2146.5818      4413.4885     -137158.57    
    202200   2588.5697      459.76334      4392.0258     -137158.93    
    202300   2451.3383     -11472.937      4377.2265     -137161.73    
    202400   2378.3622      361.95335      4292.9787     -137165.72    
    202500   2312.2241      14187.746      4207.6508     -137162.04    
    202600   2705.3528      9562.2931      4191.4858     -137165.64    
    202700   2815.2022      11860.097      4247.6101     -137160.58    
    202800   2763.2512      1291.3727      4374.641      -137158.12    
    202900   2431.3052     -9965.9078      4502.2517     -137159.1     
    203000   2287.3935     -17366.196      4539.9283     -137156.95    
    203100   2524.7501     -10776.413      4469.6513     -137157.2     
    203200   2606.9158      5907.2795      4333.2117     -137156.11    
    203300   2737.6702      3038.9663      4248.6401     -137163.16    
    203400   2443.1811      14029.554      4238.6309     -137161.87    
    203500   2482.1841      1046.392       4298.1594     -137164.47    
    203600   2304.6844      6605.3367      4364.2372     -137158.6     
    203700   2546.6972     -9400.8151      4417.8803     -137158.86    
    203800   2632.7038     -4588.551       4410.4088     -137154.65    
    203900   2653.9276      2324.5579      4351.778      -137158.53    
    204000   2517.7183      9205.3786      4298.6316     -137159.37    
    204100   2579.1684      530.80184      4287.4276     -137164.48    
    204200   2410.0356      3681.4903      4290.9274     -137163.71    
    204300   2426.4198     -1093.5252      4296.5192     -137165.01    
    204400   2550.7332      2379.1171      4301.4071     -137162.88    
    204500   2758.7639      3369.9827      4309.1125     -137162.01    
    204600   2584.4202     -1408.0154      4323.547      -137162.27    
    204700   2487.5161     -9376.5405      4333.258      -137165.25    
    204800   2387.1565      1709.7256      4303.7654     -137162.33    
    204900   2464.2638      2939.9726      4265.1341     -137161.9     
    205000   2712.6499      1202.3747      4256.2219     -137166.03    
    205100   2520.2788      9073.46        4288.1613     -137160.2     
    205200   2333.5824     -5846.8114      4364.3165     -137160.52    
    205300   2351.3404     -8601.4609      4391.9255     -137162.97    
    205400   2642.8341      1233.9121      4376.5299     -137163.62    
    205500   2678.5522     -5893.5858      4392.6633     -137159.25    
    205600   2600.727       1516.8054      4420.3083     -137159.67    
    205700   2458.515      -19775.585      4456.9986     -137159.08    
    205800   2478.6933     -2915.6968      4387.4172     -137160.71    
    205900   2403.9653      4088.806       4268.6802     -137161.81    
    206000   2331.6966      8842.593       4154.58       -137169.7     
    206100   2344.2646      16805.04       4115.3415     -137167.28    
    206200   2564.1167      9090.7718      4159.6973     -137167.02    
    206300   2329.3223      8761.3506      4265.7841     -137160.29    
    206400   2444.2023     -4459.2194      4408.0713     -137160.62    
    206500   2445.1396     -8227.5375      4530.2507     -137153.48    
    206600   2574.4227     -19861.813      4568.902      -137154.96    
    206700   2527.8999      3039.4173      4489.2145     -137153.64    
    206800   2630.923      -8619.8191      4414.7658     -137159.15    
    206900   2499.2556      5133.0373      4330.0502     -137163.85    
    207000   2439.6119     -321.82248      4281.4723     -137166.4     
    207100   2504.2326      2244.4001      4266.3403     -137165.11    
    207200   2594.3881     -166.60834      4286.0602     -137164.6     
    207300   2537.98       -586.89345      4326.9675     -137162.91    
    207400   2517.9026     -2903.106       4372.9133     -137163.98    
    207500   2252.2726      4043.8199      4397.9085     -137159.82    
    207600   2494.8962     -9427.1717      4399.6253     -137162.81    
    207700   2704.94       -4512.4148      4344.6872     -137162.64    
    207800   2754.1232      5005.9095      4306.5481     -137168.13    
    207900   2261.3129      5103.5129      4309.4336     -137161.12    
    208000   2557.2543     -2305.7138      4309.5175     -137168.88    
    208100   2501.1189     -2945.2744      4311.4089     -137166.36    
    208200   2626.9234      141.67661      4314.5516     -137162.91    
    208300   2688.4         754.13684      4344.6814     -137158.06    
    208400   2440.5344     -2450.3933      4376.7078     -137154.93    
    208500   2429.4581     -189.3392       4362.7838     -137161.23    
    208600   2477.6239      5976.0071      4322.7875     -137164.22    
    208700   2455.933       9347.9851      4298.1998     -137164.16    
    208800   2473.7822     -1243.2078      4308.6479     -137165.33    
    208900   2374.2133     -1659.1604      4328.0782     -137159.7     
    209000   2705.7349      14769.713      4333.2913     -137161.71    
    209100   2641.283      -10548.143      4412.7389     -137154.76    
    209200   2511.1812      1734.9207      4478.927      -137152.73    
    209300   2383.88       -12320.305      4530.2581     -137155.95    
    209400   2411.4967     -2688.717       4501.6307     -137157.16    
    209500   2534.5621     -5296.4536      4421.5583     -137155.24    
    209600   2825.7088      1394.6014      4289.4189     -137161.09    
    209700   2646.1263      2492.6548      4174.9201     -137168.03    
    209800   2356.2194      22379.857      4138.0455     -137164.77    
    209900   2380.0026      5768.1146      4216.1127     -137167.18    
    210000   2466.4647     -7821.3454      4320.3626     -137164.8     
    210100   2760.6781     -2189.4802      4390.7513     -137164.32    
    210200   2441.5905     -5178.329       4446.3646     -137155.79    
    210300   2461.8381     -8840.5695      4444.4133     -137156.3     
    210400   2662.4835     -7325.1655      4377.0891     -137162.61    
    210500   2469.3159     -5229.35        4304.1198     -137162.46    
    210600   2405.9368      12973.018      4250.7955     -137163.67    
    210700   2555.403       95.417931      4261.6895     -137162.88    
    210800   2649.8236      2824.2093      4292.994      -137160.41    
    210900   2416.6184     -394.89424      4342.3831     -137158.4     
    211000   2370.9829     -15557.528      4377.5933     -137164.91    
    211100   2276.0986      641.86206      4343.2391     -137162.82    
    211200   2620.6519      457.15002      4308.8597     -137162.25    
    211300   2596.7507      7269.3833      4288.313      -137162.9     
    211400   2411.4876     -8477.8045      4279.7144     -137162.24    
    211500   2307.1142      17808.868      4243.5317     -137159.84    
    211600   2467.4015      11673.643      4274.3211     -137158.51    
    211700   2658.0687      5789.4087      4352.2789     -137156.77    
    211800   2430.572      -9659.583       4424.7198     -137155.9     
    211900   2350.6138     -3401.4475      4413.4192     -137158.63    
    212000   2513.1989     -1080.4225      4349.1147     -137161.57    
    212100   2743.4264      1323.5191      4281.891      -137167.85    
    212200   2466.3078      450.96173      4238.1284     -137164.88    
    212300   2086.0351      7568.6995      4210.9743     -137161.96    
    212400   2167.7874      9667.6638      4203.174      -137167.1     
    212500   2649.5707      2280.5547      4244.2436     -137169.94    
    212600   2375.7382      9187.0071      4321.6973     -137158.04    
    212700   2623.5238     -7812.4446      4416.0703     -137160.78    
    212800   2734.8407     -17517.777      4476.3826     -137161.5     
    212900   2448.4508     -4564.8756      4455.6497     -137157.63    
    213000   2401.1379     -3346.4061      4392.5939     -137164.92    
    213100   2449.4869      1927.4381      4327.7431     -137167.27    
    213200   2478.2267      6667.5687      4303.8788     -137162.18    
    213300   2571.0612      8929.121       4324.3813     -137158.03    
    213400   2673.428      -6301.8277      4359.2352     -137162.58    
    213500   2305.4741      1561.6989      4370.0586     -137155.04    
    213600   2441.5861      5641.8724      4371.9883     -137158.46    
    213700   2507.2678     -4012.7804      4381.2775     -137157.28    
    213800   2750.6904     -1737.5105      4371.6211     -137158.46    
    213900   2604.4416     -1078.8059      4381.0936     -137159.65    
    214000   2346.8631     -7640.5798      4398.6579     -137159.66    
    214100   2377.1907      5065.392       4360.2698     -137159.77    
    214200   2526.7182     -4897.0967      4303.3486     -137160.25    
    214300   2743.5846      2511.5251      4223.9524     -137169.46    
    214400   2250.4655      9395.1554      4168.5054     -137165.33    
    214500   2533.8366      4114.403       4164.2257     -137168.63    
    214600   2506.6356      7069.2394      4204.4819     -137162       
    214700   2423.2078      3667.008       4285.1683     -137158.17    
    214800   2463.8998     -6792.8809      4373.6263     -137157.89    
    214900   2571.2396     -4367.9222      4418.9386     -137155.22    
    215000   2614.5122     -9359.917       4432.1668     -137152.16    
    215100   2629.8113     -6902.0294      4397.2906     -137158.83    
    215200   2458.7472     -498.88364      4323.169      -137161.66    
    215300   2423.9546      12921.318      4249.7529     -137162.56    
    215400   2471.532       6742.8978      4233.5274     -137165.3     
    215500   2577.5194      5769.5278      4286.9836     -137168.6     
    215600   2538.6606      972.48415      4393.5875     -137159.74    
    215700   2524.2192     -8856.7908      4482.4345     -137154.88    
    215800   2637.2699     -13909.649      4512.758      -137155.51    
    215900   2764.4504     -2132.7151      4458.238      -137156.9     
    216000   2452.0422      2853.6144      4403.9113     -137157.71    
    216100   2412.8742      715.49011      4354.8034     -137162.78    
    216200   2433.235       7806.7137      4296.0498     -137163.19    
    216300   2525.095       7298.2418      4291.2886     -137162.7     
    216400   2629.4028      6644.7056      4351.1879     -137160.68    
    216500   2610.8926     -3456.6681      4450.796      -137156.07    
    216600   2320.0436     -4160.082       4532.4844     -137147.97    
    216700   2456.3841     -5634.8844      4558.9982     -137154.4     
    216800   2452.2448     -7149.1597      4549.2865     -137156.47    
    216900   2382.3347      563.87013      4482.9546     -137157.61    
    217000   2588.7686     -5077.7716      4388.1834     -137162.41    
    217100   2602.1641      8261.9214      4285.6228     -137159.05    
    217200   2613.4735      10644.801      4228.2158     -137160.74    
    217300   2490.7873      3021.3854      4232.3945     -137166.27    
    217400   2355.9082     -2246.1659      4279.6281     -137163.55    
    217500   2527.8727      2007.8416      4300.7688     -137164.3     
    217600   2618.34       -4994.7216      4315.4696     -137159.73    
    217700   2954.4797      3120.877       4337.9598     -137158.64    
    217800   2722.9771      597.9534       4385.576      -137160.12    
    217900   2442.2667     -12173.947      4427.6505     -137156.72    
    218000   2539.0233     -8694.7127      4412.4586     -137158.94    
    218100   2517.3839     -7525.8365      4356.6254     -137156.09    
    218200   2688.5082      9035.4479      4279.0953     -137161.65    
    218300   2570.9501     -3349.1514      4239.1596     -137167.95    
    218400   2335.6789      16818.737      4223.6754     -137163.41    
    218500   2385.2934     -2206.2604      4279.7313     -137162.04    
    218600   2581.3747      8783.5914      4353.4444     -137159       
    218700   2547.4263     -18072.869      4434.8739     -137156.3     
    218800   2654.211      -12581.459      4423.8881     -137159.14    
    218900   2716.7993     -5611.6764      4343.4278     -137163.65    
    219000   2352.0971      1931.0946      4270.9557     -137163.21    
    219100   2447.6845     -185.36259      4244.9679     -137167.92    
    219200   2370.0025      8606.6315      4238.9671     -137163.38    
    219300   2637.1734      1486.9619      4283.7404     -137164.67    
    219400   2585.6499     -9576.1574      4358.6732     -137162.04    
    219500   2596.3899     -10297.728      4404.2318     -137163.9     
    219600   2454.6959     -7953.7103      4392.7832     -137160.27    
    219700   2506.3845      16012.929      4342.6572     -137157.24    
    219800   2738.1108      2063.3753      4358.0369     -137158.74    
    219900   2650.5943     -7487.4167      4382.6678     -137163.97    
    220000   2412.8395     -2092.7303      4363.6141     -137163.26    
    220100   2459.0924      2530.3879      4319.6835     -137164       
    220200   2491.8811      2572.2447      4291.6504     -137161.56    
    220300   2630.0561      11163.622      4290.628      -137155.83    
    220400   2733.1239     -496.33487      4357.2564     -137161.59    
    220500   2630.2482     -15643.288      4431.8268     -137164.01    
    220600   2435.2405     -5607.6122      4420.9858     -137159.55    
    220700   2495.1288     -1479.0635      4366.5641     -137157.7     
    220800   2679.4736      8794.4086      4319.0904     -137157.84    
    220900   2672.3219      8472.2781      4331.5968     -137154.78    
    221000   2503.461      -6810.7309      4378.7338     -137159.14    
    221100   2446.8821     -4430.4738      4390.9252     -137164.04    
    221200   2310.1617      383.0367       4368.8355     -137161.78    
    221300   2547.606       2542.319       4354.4173     -137162.4     
    221400   2502.3104      13197.751      4372.7214     -137155.33    
    221500   2561.0797     -6617.4619      4423.5298     -137154.3     
    221600   2427.4147     -5554.0664      4409.3626     -137157.57    
    221700   2337.2921     -8723.1929      4356.9907     -137160.99    
    221800   2484.3393      5657.687       4293.3751     -137161.78    
    221900   2581.8157      8927.9797      4275.8502     -137161.29    
    222000   2533.5606      4329.6906      4317.706      -137162.72    
    222100   2402.5494     -6519.7067      4398.2874     -137163.87    
    222200   2367.0394     -13604.921      4441.1799     -137159.82    
    222300   2576.8612      5113.8156      4415.4359     -137156.55    
    222400   2619.6523     -3966.1093      4388.5629     -137158.57    
    222500   2487.7281      2895.3738      4336.7969     -137159.78    
    222600   2538.3343     -5342.7799      4282.7433     -137165.94    
    222700   2332.4774      2735.602       4221.0802     -137168.23    
    222800   2092.6717      9354.4852      4173.6652     -137168.91    
    222900   2272.4743      4159.4478      4155.3339     -137174.81    
    223000   2488.3571      6065.8267      4171.3896     -137170.1     
    223100   2388.9819      4407.6163      4253.5517     -137161.44    
    223200   2541.829       946.8504       4373.0318     -137160.09    
    223300   2617.7971     -15823.9        4473.0486     -137159.05    
    223400   2517.2569     -7257.186       4486.0243     -137155.25    
    223500   2467.823      -6189.2094      4425.652      -137157.35    
    223600   2384.1294     -5323.9571      4319.4903     -137160.5     
    223700   2438.3673      6843.6335      4205.7478     -137163.66    
    223800   2513.7517      9035.6218      4141.7256     -137166.94    
    223900   2385.4012      6929.1863      4140.8809     -137168.59    
    224000   2331.9026     -109.79988      4198.883      -137168.98    
    224100   2533.7694      865.32894      4264.1174     -137165.82    
    224200   2632.1108     -4854.3275      4323.6027     -137163.13    
    224300   2477.0325      2310.6187      4372.3804     -137158.57    
    224400   2484.4168     -4893.8328      4414.321      -137159.8     
    224500   2295.2885     -1080.495       4430.3851     -137155.66    
    224600   2562.7452     -615.02649      4409.2253     -137163.06    
    224700   2403.7465     -7393.0848      4373.2767     -137156.89    
    224800   2712.0194      11263.754      4309.8144     -137160.03    
    224900   2614.6202     -2045.225       4290.3817     -137161.39    
    225000   2479.1004      6889.9568      4265.8055     -137166.73    
    225100   2422.5857     -5662.2819      4260.1662     -137165.72    
    225200   2391.8647      8117.3182      4246.8788     -137160.09    
    225300   2534.572       6524.9288      4241.113      -137160.34    
    225400   2451.0299      4436.3889      4246.0289     -137159.19    
    225500   2647.7143      3992.0028      4271.7327     -137168.41    
    225600   2271.0349     -8823.1752      4307.9483     -137169.64    
    225700   2310.1671     -871.2978       4297.1862     -137166.51    
    225800   2535.2443      980.66282      4257.4061     -137165.9     
    225900   2453.0305      7721.5479      4249.2772     -137159.16    
    226000   2570.2711     -1606.2568      4275.5859     -137160.25    
    226100   2243.5353      11911.063      4283.9607     -137156.46    
    226200   2193.7374     -2970.1426      4307.2702     -137161.61    
    226300   2564.7828      4466.0452      4334.4662     -137165.09    
    226400   2370.5118     -1747.0569      4400.8761     -137155.24    
    226500   2586.6293     -11419.834      4446.1006     -137157.42    
    226600   2688.5146     -1727.0503      4427.3958     -137159.86    
    226700   2342.0554     -8348.5652      4390.8291     -137157.88    
    226800   2356.3535     -3233.7849      4295.5356     -137162.74    
    226900   2424.7014      16341.545      4180.1473     -137162.99    
    227000   2566.1976      8506.4502      4163.0854     -137165.5     
    227100   2474.9823      7354.7373      4227.9377     -137165.08    
    227200   2428.9653     -7206.7241      4348.6748     -137163.4     
    227300   2531.4968     -12161.789      4432.7455     -137161.28    
    227400   2557.2315     -2632.8697      4436.0697     -137156.18    
    227500   2527.4928     -6808.2027      4389.4405     -137154.07    
    227600   2514.2515      1574.8061      4300.7706     -137160.27    
    227700   2524.7394     -652.07393      4224.6977     -137169.17    
    227800   2471.7987      11070.825      4176.6493     -137168.48    
    227900   2461.7361      6106.5843      4206.062      -137167.02    
    228000   2437.7436      1843.8373      4292.6012     -137162.92    
    228100   2586.947      -12372.381      4397.5536     -137157.82    
    228200   2648.6089     -2646.9031      4460.2096     -137156.51    
    228300   2408.4602     -8635.4099      4483.8538     -137154.02    
    228400   2259.7668      1892.739       4445.5728     -137158.01    
    228500   2151.6091      481.54116      4374.3367     -137160.33    
    228600   2464.9064      16185.197      4266.9787     -137162.17    
    228700   2724.7763      13762.269      4229.9258     -137161.68    
    228800   2372.5839      10330.019      4294.9017     -137158.11    
    228900   2450.7074     -14810.878      4404.7737     -137162.78    
    229000   2526.391      -15635.165      4431.7259     -137160.57    
    229100   2625.5024      996.64371      4375.2326     -137154.8     
    229200   2658.3329      5169.4772      4309.8018     -137157.41    
    229300   2531.9965      1064.9536      4273.3987     -137159.36    
    229400   2649.162       3244.8202      4252.6942     -137169.1     
    229500   2425.9629     -2768.2117      4275.7233     -137167.45    
    229600   2346.3917      3052.3891      4306.8273     -137163.55    
    229700   2580.1702      4379.7048      4367.3691     -137160.12    
    229800   2517.4025     -10103.419      4476.7584     -137157.33    
    229900   2476.3231     -13208.922      4523.6552     -137155.21    
    230000   2614.715      -6696.3596      4470.248      -137157.81    
    230100   2420.0081     -3264.4235      4365.132      -137158.7     
    230200   2569.4773     -5173.8306      4229.2614     -137170.28    
    230300   2407.4179      22465.611      4112.2719     -137165.94    
    230400   2499.1034      10685.512      4104.7025     -137164.72    
    230500   2600.6077      20749.61       4174.9485     -137165.65    
    230600   2551.3432     -9123.5187      4330.5131     -137159.95    
    230700   2669.7298     -11758.581      4430.7169     -137157.46    
    230800   2593.8529     -11821.133      4443.4269     -137156.4     
    230900   2453.8963     -2969.5875      4382.0313     -137160.58    
    231000   2495.0196      10045.294      4321.66       -137165       
    231100   2490.6322     -6200.719       4330.2125     -137162.45    
    231200   2625.3047      6458.0662      4324.4623     -137160.3     
    231300   2847.5987      8485.4615      4342.2993     -137156.08    
    231400   2688.2354     -9916.6869      4393.6198     -137157.81    
    231500   2476.9457     -3957.753       4380.3709     -137159.44    
    231600   2565.069       2969.5065      4334.7901     -137162.71    
    231700   2325.7202      2403.8305      4296.5768     -137159.31    
    231800   2417.9731      2497.2228      4270.2416     -137163.54    
    231900   2660.9208      1146.2287      4257.9559     -137165.24    
    232000   2557.1162      12452.225      4270.5209     -137157.77    
    232100   2551.2418     -1966.293       4344.2955     -137160.97    
    232200   2254.1688     -10946.627      4416.6663     -137159.82    
    232300   2401.8279     -7284.6128      4429.7504     -137160.86    
    232400   2755.9797     -723.28269      4377.6655     -137161.5     
    232500   2750.9907      565.04834      4310.6443     -137163.8     
    232600   2541.4685      3015.3437      4271.0658     -137164.65    
    232700   2422.93        1408.1979      4249.585      -137165.21    
    232800   2475.9063      2480.5623      4243.8188     -137166.8     
    232900   2639.7322     -3482.8786      4276.8932     -137165.05    
    233000   2651.1338     -3166.6083      4315.2352     -137157.2     
    233100   2695.3366     -4224.0157      4347.0453     -137161.56    
    233200   2337.4402     -2311.6718      4362.3057     -137157.51    
    233300   2472.1857     -5365.0804      4330.9586     -137160.77    
    233400   2632.0619      14824.37       4281.5654     -137163.36    
    233500   2477.3955      2856.5932      4313.4903     -137162.29    
    233600   2276.7123     -8685.122       4351.3291     -137158.26    
    233700   2641.8842      599.17117      4322.5164     -137159.9     
    233800   2794.9209      4744.7293      4313.6003     -137161.08    
    233900   2459.2232     -733.51648      4359.2477     -137160.01    
    234000   2326.8751     -14360.882      4406.0254     -137158.35    
    234100   2498.7639      561.16825      4369.6481     -137158.76    
    234200   2504.5348      5542.6294      4315.2204     -137155.25    
    234300   2279.1407      4335.3957      4261.2361     -137159.4     
    234400   2322.5254      8231.14        4221.9411     -137164.61    
    234500   2548.5978     -290.80242      4242.3601     -137163.93    
    234600   2599.1939      6382.4354      4298.5395     -137162.3     
    234700   2470.0313     -15260.034      4407.3193     -137158.36    
    234800   2697.565      -11044.929      4457.2748     -137158.09    
    234900   2624.2423      1437.5508      4421.7386     -137154       
    235000   2534.1457     -5440.5371      4363.5594     -137163.1     
    235100   2539.4388     -2328.3191      4302.5796     -137166.81    
    235200   2326.1741      10895.501      4246.9742     -137162.97    
    235300   2380.705       10611.738      4237.227      -137162.44    
    235400   2655.0468      3480.1844      4276.627      -137161.53    
    235500   2707.322      -8465.2912      4338.8772     -137162.14    
    235600   2256.0129      1490.3572      4388.0215     -137156.49    
    235700   2240.8545     -8040.2726      4426.3835     -137158.48    
    235800   2628.385       3624.2283      4428.5122     -137155.41    
    235900   2532.2262     -3815.858       4432.3959     -137153.04    
    236000   2557.6971     -2721.6838      4399.0008     -137162.2     
    236100   2497.8633     -2136.7422      4345.854      -137166.01    
    236200   2418.482       1092.3952      4283.9239     -137163.67    
    236300   2639.0203      8752.7742      4233.7988     -137163.26    
    236400   2603.0509      15061.542      4253.6571     -137160.68    
    236500   2235.6936     -5909.8175      4332.2065     -137160.11    
    236600   2271.8076     -4634.6885      4363.3178     -137160.9     
    236700   2501.2355      635.28822      4326.8483     -137161.81    
    236800   2737.8525      3479.443       4260.2009     -137167.74    
    236900   2406.3234      19220.981      4228.3645     -137160.63    
    237000   2528.5716      5594.1442      4270.7021     -137163.85    
    237100   2494.8923     -3483.4525      4352.6066     -137160.05    
    237200   2714.182      -2706.255       4414.2485     -137155.44    
    237300   2696.6038     -15734.744      4456.8867     -137156.58    
    237400   2463.2272     -7832.5199      4430.6024     -137156.03    
    237500   2552.2917      4633.1288      4353.4602     -137159.41    
    237600   2486.8035      2289.1787      4281.5665     -137160.3     
    237700   2460.7649      10327.163      4221.2131     -137162.14    
    237800   2379.0994      1821.4866      4241.7344     -137162.32    
    237900   2390.2905     -2491.3778      4279.2411     -137162.58    
    238000   2601.583       4260.6158      4300.9915     -137165.22    
    238100   2554.7051     -5668.11        4350.8579     -137163.16    
    238200   2425.2716      0.55173457     4387.6295     -137156.68    
    238300   2723.0275     -2868.3013      4413.5641     -137157.65    
    238400   2548.6413     -5646.8473      4437.3948     -137154.07    
    238500   2399.7384     -2349.3169      4418.7391     -137159.5     
    238600   2352.7488      3473.1685      4362.0498     -137159.73    
    238700   2494.5416      1493.3344      4297.9909     -137160.27    
    238800   2626.5975      14350.089      4262.7307     -137159.23    
    238900   2685.4311     -7553.4284      4290.5384     -137165.94    
    239000   2362.828      -7111.607       4303.0633     -137164.35    
    239100   2456.5458      10527.693      4265.2516     -137165.49    
    239200   2570.7134      158.27771      4259.9655     -137164.35    
    239300   2543.53        4625.196       4266.7721     -137161.89    
    239400   2511.4478      4655.3958      4303.9655     -137162.55    
    239500   2194.8433     -9632.1659      4349.4432     -137158.54    
    239600   2496.7849      4194.4123      4307.0127     -137163.2     
    239700   2700.975       10327.649      4250.8363     -137163.6     
    239800   2511.6128     -1217.3288      4238.7795     -137165.06    
    239900   2466.2242      9783.7326      4225.8386     -137169.09    
    240000   2384.4865      8897.8121      4244.502      -137166.59    
    240100   2437.9176      1412.2481      4292.0438     -137165.89    
    240200   2474.9922      9522.4739      4346.251      -137159.1     
    240300   2489.5846      2115.8816      4421.4442     -137156.2     
    240400   2426.7884     -7233.9905      4508.9918     -137154.84    
    240500   2450.1461     -17002.606      4517.5425     -137156.39    
    240600   2371.1938      6499.9931      4404.3663     -137153.52    
    240700   2462.0988      14784.899      4317.6343     -137152.89    
    240800   2723.4405      3215.0171      4304.2926     -137161.63    
    240900   2475.488       10112.874      4316.6258     -137158.97    
    241000   2531.9626     -7780.0292      4365.014      -137161.96    
    241100   2470.9751     -5271.5078      4376.6405     -137162.93    
    241200   2409.3305     -8483.7257      4353.2625     -137162.41    
    241300   2608.7324      3597.5912      4286.5803     -137161.57    
    241400   2683.7655      7176.3971      4236.6108     -137159.26    
    241500   2523.6469      7563.897       4219.1875     -137163.59    
    241600   2448.3938      6567.2196      4237.9866     -137165.37    
    241700   2524.7473     -661.04204      4289.8373     -137166.63    
    241800   2452.8173     -4615.0218      4335.4996     -137162       
    241900   2694.0539     -7867.5745      4358.7255     -137159.22    
    242000   2602.7243      7044.9546      4360.4687     -137154.82    
    242100   2491.3957     -1857.834       4375.9677     -137157.83    
    242200   2656.4866     -13193.251      4379.6114     -137165.72    
    242300   2429.9577      3507.7432      4321.3442     -137162.33    
    242400   2597.6672      4075.4348      4272.9834     -137164.18    
    242500   2819.0715      8349.7544      4280.1614     -137161.57    
    242600   2584.6935      2166.5711      4375.1452     -137155.38    
    242700   2408.9516     -13653.55       4468.3498     -137160.9     
    242800   2354.0486     -965.3743       4454.5974     -137159.95    
    242900   2451.8103      2031.0117      4394.7981     -137159.36    
    243000   2608.5093      803.36104      4324.5257     -137158.97    
    243100   2760.5781      12316.606      4266.32       -137159.57    
    243200   2626.1056     -5005.0995      4283.9118     -137165.79    
    243300   2473.9853      2361.0052      4308.4577     -137166.62    
    243400   2532.2596     -3518.0738      4349.3702     -137165.26    
    243500   2523.2892     -9499.3415      4391.9317     -137158.03    
    243600   2643.1457     -8375.2443      4373.5132     -137159.24    
    243700   2379.3807      5335.9358      4305.3366     -137157.43    
    243800   2317.1008      7062.0067      4224.8706     -137161.96    
    243900   2589.1949      7510.1121      4155.5124     -137169.58    
    244000   2688.7173      23756.896      4156.0302     -137165.36    
    244100   2447.0985     -878.84464      4305.5379     -137159.31    
    244200   2558.3484     -21295.573      4474.0581     -137161.4     
    244300   2513.4492     -7705.237       4523.6914     -137157.87    
    244400   2490.9022     -8003.3201      4503.6569     -137153.07    
    244500   2631.8637      5613.7616      4423.7256     -137152.61    
    244600   2686.8054      4071.242       4351.182      -137161.74    
    244700   2371.7207      2428.2372      4316.2207     -137160.6     
    244800   2551.4623      5066.7106      4314.4821     -137164.26    
    244900   2452.6646      5538.7198      4350.3807     -137158.17    
    245000   2542.6485     -5952.0994      4404.9569     -137155.31    
    245100   2763.3642     -2270.2434      4425.6662     -137158.4     
    245200   2509.7023     -8831.1866      4432.8986     -137156.41    
    245300   2470.1334     -1748.7744      4395.7869     -137161.86    
    245400   2481.3315     -6496.9619      4354.361      -137162.28    
    245500   2532.434       11312.211      4288.8803     -137159.3     
    245600   2806.9543      3648.0758      4269.0913     -137158.94    
    245700   2591.1059     -1094.2399      4292.5583     -137158.12    
    245800   2538.5891     -8651.2747      4314.4788     -137164.23    
    245900   2574.4142     -2062.5319      4284.8938     -137166.95    
    246000   2327.6792      8837.5085      4260.7101     -137160.22    
    246100   2577.5753      4181.581       4280.211      -137161.71    
    246200   2831.4474     -4182.0729      4326.1784     -137163.02    
    246300   2380.8808     -3326.8703      4359.2815     -137160.2     
    246400   2262.7107     -1615.3826      4367.1224     -137158.62    
    246500   2521.8558      2135.5295      4324.7853     -137161.72    
    246600   2543.343       9954.6068      4278.6076     -137161.26    
    246700   2193.5726      1033.5754      4296.3294     -137157.55    
    246800   2327.9376      618.41351      4299.6918     -137167.75    
    246900   2523.6666     -8006.163       4289.5607     -137171.22    
    247000   2468.5925      15461.887      4256.8541     -137160.43    
    247100   2687.5413      6918.5452      4268.4164     -137164.66    
    247200   2670.7153     -7491.0829      4326.8093     -137168.4     
    247300   2366.8248     -10021.915      4382.2508     -137162.43    
    247400   2392.8368     -2306.7248      4375.3092     -137160.19    
    247500   2667.816       10646.118      4316.0282     -137159.07    
    247600   2713.9225      11514.268      4281.1579     -137158.94    
    247700   2431.8582      133.00829      4311.7191     -137159.89    
    247800   2517.5885     -3281.3622      4377.853      -137162.49    
    247900   2416.5653     -13381.023      4419.9625     -137159.53    
    248000   2625.8602     -354.0493       4390.3589     -137161.47    
    248100   2662.3771      6749.1952      4341.1129     -137158.63    
    248200   2460.5347      3285.0134      4311.2108     -137160.66    
    248300   2375.6347     -7683.5792      4300.0691     -137165.74    
    248400   2371.6162      8276.9743      4256.5865     -137163.9     
    248500   2669.2619      3895.9771      4240.6689     -137166.3     
    248600   2448.9443      5077.2034      4281.9868     -137160.48    
    248700   2594.3559     -9305.0701      4374.4678     -137163.95    
    248800   2567.5908     -1228.067       4434.5442     -137156       
    248900   2724.0817     -1692.9666      4484.4506     -137155.12    
    249000   2467.9522     -9873.8778      4542.8018     -137153.39    
    249100   2444.2582     -11223.368      4540.059      -137158.64    
    249200   2608.1664     -4463.496       4452.8961     -137162.29    
    249300   2343.1962      1.1071022      4316.8983     -137158.23    
    249400   2405.7261      17062.875      4169.1093     -137164.39    
    249500   2415.9003      13244.898      4104.7018     -137169.63    
    249600   2360.6289      9965.8087      4144.9717     -137168.1     
    249700   2377.8957      11955.263      4259.7564     -137163.32    
    249800   2503.7335     -12903.39       4415.0649     -137159.36    
    249900   2523.9438     -13301.441      4466.2938     -137156.33    
    250000   2633.1976     -6159.3113      4424.8085     -137158.5     
    250100   2442.3723     -4663.6153      4346.8541     -137160.92    
    250200   2357.597       14248.996      4269.6696     -137164.99    
    250300   2263.4499      8121.0906      4257.288      -137163.08    
    250400   2572.356       1797.0551      4280.8729     -137166.38    
    250500   2727.1322      1483.3529      4320.6595     -137162.61    
    250600   2732.3182     -8515.6437      4390.6471     -137154.01    
    250700   2709.3208      2872.322       4447.0452     -137158.19    
    250800   2461.0531     -11327.305      4505.4892     -137157.83    
    250900   2577.4601     -7246.5649      4504.9284     -137162.3     
    251000   2506.6264     -15192.775      4437.513      -137160.59    
    251100   2694.7065      13364.071      4307.5614     -137159.71    
    251200   2749.8217      9111.3938      4248.8625     -137160.24    
    251300   2546.4061      2792.1204      4262.0152     -137165.88    
    251400   2236.045       4923.6506      4291.249      -137158.93    
    251500   2635.83        798.87634      4321.2569     -137162.96    
    251600   2645.4025     -8903.1408      4356.563      -137159.87    
    251700   2605.4709      2322.2382      4359.1247     -137162.22    
    251800   2424.8851     -650.72978      4355.1167     -137165.83    
    251900   2427.8139     -8290.0092      4334.1241     -137168.43    
    252000   2571.7414     -891.18568      4284.9339     -137168.87    
    252100   2425.5804      4466.5391      4252.1482     -137162.65    
    252200   2423.9458      14209.311      4249.0287     -137160.85    
    252300   2522.9476      8627.1386      4297.0765     -137158.59    
    252400   2682.9158     -3118.8956      4369.7861     -137157.47    
    252500   2477.2621     -5531.2661      4413.6832     -137156.64    
    252600   2389.7875      2029.4299      4402.6973     -137162.01    
    252700   2477.2701     -5726.8228      4377.531      -137163.34    
    252800   2548.0676      6261.4515      4335.2561     -137162.51    
    252900   2477.5078      7437.2599      4321.1033     -137161.3     
    253000   2477.6034     -3195.1628      4344.9159     -137163.34    
    253100   2400.7259     -3589.4836      4360.2074     -137161.92    
    253200   2413.1614     -591.90465      4354.7681     -137157.67    
    253300   2662.8779     -735.57867      4326.4386     -137158.83    
    253400   2577.7902      5753.8331      4295.5432     -137158.67    
    253500   2580.6666      1492.7374      4300.7566     -137166.91    
    253600   2509.5923      1493.132       4319.3244     -137168.15    
    253700   2517.9735      823.22073      4341.5063     -137166.97    
    253800   2405.0945     -8634.2346      4363.4806     -137157.21    
    253900   2884.2274      3683.1325      4347.2701     -137161.67    
    254000   2503.7227      3045.4441      4358.7554     -137157.49    
    254100   2338.3132      398.17784      4388.9095     -137158.14    
    254200   2518.7391     -6832.6064      4394.328      -137163.48    
    254300   2440.0008      893.73979      4352.9044     -137159.02    
    254400   2833.7578      782.22544      4325.5679     -137160.35    
    254500   2721.3319     -1628.5964      4344.4064     -137158.99    
    254600   2402.8797      458.85941      4394.9407     -137156.61    
    254700   2439.0577     -17009.59       4458.6689     -137158.2     
    254800   2607.6457     -12997.531      4453.3802     -137159.45    
    254900   2709.9605      3935.6338      4350.7342     -137163.73    
    255000   2381.4649      9758.8923      4252.9335     -137162.98    
    255100   2459.4553      7216.6873      4223.4509     -137165.73    
    255200   2470.3555     -1407.3501      4249.2411     -137163.85    
    255300   2415.3203      7169.5743      4293.5844     -137158.92    
    255400   2520.6792      1155.1314      4371.1204     -137154.18    
    255500   2600.4732     -2627.8522      4444.4535     -137154.21    
    255600   2549.2417     -7105.6341      4464.3483     -137157.32    
    255700   2407.2165      1570.0291      4439.9199     -137156.01    
    255800   2457.0376     -804.74686      4394.4852     -137158.15    
    255900   2690.0052     -4742.8534      4329.5006     -137166.71    
    256000   2295.3811      10452.504      4267.045      -137163.47    
    256100   2258.6898      3707.9069      4250.5823     -137162.78    
    256200   2619.6707      1232.0958      4267.6509     -137163.68    
    256300   2543.3057      4490.176       4316.0871     -137160.68    
    256400   2634.4975     -5010.9705      4381.1672     -137165.1     
    256500   2293.2753     -11831.911      4408.9202     -137156.44    
    256600   2798.6133      5960.6062      4367.527      -137161.68    
    256700   2763.9673      4591.9234      4348.0815     -137159.88    
    256800   2506.9371     -4696.7647      4357.2256     -137164.27    
    256900   2336.2607      4113.1864      4345.2943     -137160.73    
    257000   2536.5783     -2800.3985      4338.3756     -137160.73    
    257100   2583.8564      7404.6996      4314.6833     -137157.87    
    257200   2680.6209     -2089.1744      4322.8433     -137161.91    
    257300   2406.1009     -12520.992      4347.6        -137163.4     
    257400   2387.2813     -3896.9926      4315.0534     -137165.68    
    257500   2314.5418      16579.497      4260.0836     -137160.86    
    257600   2631.7129     -6747.0282      4256.3276     -137168.16    
    257700   2483.4142      4995.0198      4264.8142     -137165.59    
    257800   2358.2426      694.2753       4306.5997     -137161.36    
    257900   2589.2849     -1545.2105      4346.4069     -137163.12    
    258000   2559.4952     -7022.9197      4341.7381     -137161.93    
    258100   2253.9681      840.89666      4311.7817     -137161.36    
    258200   2179.0387      17852.117      4273.2302     -137165.75    
    258300   2408.1924      547.156        4285.2589     -137165.43    
    258400   2500.2958      7601.6752      4315.6905     -137161.89    
    258500   2616.4604      2180.7931      4376.3442     -137163.98    
    258600   2459.0941     -10189.695      4447.9798     -137159.68    
    258700   2439.9638      1144.4714      4465.1636     -137151.94    
    258800   2774.9966     -12192.313      4461.9113     -137155.23    
    258900   2713.8591     -6257.7005      4412.9815     -137160.19    
    259000   2583.4362      2895.9721      4328.6227     -137163.16    
    259100   2534.2186      4754.724       4255.3218     -137164.7     
    259200   2540.3516      1209.1974      4218.0119     -137165.29    
    259300   2632.9338      8549.3711      4224.4191     -137163.99    
    259400   2848.2083     -468.44565      4303.5109     -137162.63    
    259500   2484.2203     -8235.3114      4381.2        -137160.06    
    259600   2422.8716     -12126.234      4414.1346     -137160.68    
    259700   2806.5688     -7272.6429      4394.0014     -137167.63    
    259800   2534.1024      332.4279       4373.0239     -137160.36    
    259900   2481.562      -762.72151      4356.0179     -137159.03    
    260000   2960.66        4502.0946      4325.2682     -137162.47    
    260100   2624.0969      3766.5048      4347.7936     -137157.46    
    260200   2366.273      -1581.473       4407.0591     -137157.22    
    260300   2456.263      -3633.4613      4441.0882     -137159.53    
    260400   2621.3975     -13296.158      4428.9525     -137162.17    
    260500   2644.8965      4812.8889      4366.8549     -137161.49    
    260600   2462.2456     -1155.5482      4321.0812     -137162.76    
    260700   2330.3382     -3878.9171      4276.4634     -137164.95    
    260800   2439.8682     -4017.036       4247.9334     -137166.03    
    260900   2549.6983      11123.507      4225.8331     -137161.14    
    261000   2635.442       7785.9569      4242.5443     -137161.28    
    261100   2555.2358     -7445.617       4316.8938     -137162.2     
    261200   2365.7234     -6772.1108      4382.4828     -137158.66    
    261300   2483.1655     -10745.831      4403.3646     -137159.59    
    261400   2644.9481      460.60643      4375.8698     -137161.19    
    261500   2469.377       5909.4232      4327.3453     -137161.1     
    261600   2338.6454      6818.6959      4291.2507     -137165.43    
    261700   2277.1186      7229.4713      4318.6563     -137161.14    
    261800   2380.4781     -4081.1825      4395.8053     -137158.22    
    261900   2594.5316     -14333.663      4434.0163     -137160.93    
    262000   2567.1846     -3171.883       4383.9409     -137159.27    
    262100   2407.3496      5207.2674      4289.0351     -137157.7     
    262200   2320.8511      9970.1034      4208.3902     -137162.74    
    262300   2237.6808      8624.123       4168.5353     -137166.68    
    262400   2459.9656      4915.811       4188.2862     -137168.74    
    262500   2504.8789      1021.716       4257.0729     -137165.42    
    262600   2436.4569     -4601.6079      4345.6021     -137160.65    
    262700   2446.1103     -11393.202      4416.7844     -137156.5     
    262800   2618.0698     -3241.3997      4408.8134     -137158.78    
    262900   2506.1476     -289.34552      4361.209      -137160.44    
    263000   2357.6231     -3734.7075      4305.1658     -137164.72    
    263100   2535.5891      8943.4183      4250.1306     -137168.54    
    263200   2509.238       1499.6992      4254.5075     -137167.95    
    263300   2253.0558      2627.6586      4297.4091     -137160.08    
    263400   2600.5841      1773.9421      4347.226      -137160.9     
    263500   2607.5165     -2634.9866      4394.105      -137159.35    
    263600   2362.9545     -856.3122       4429.8863     -137156.15    
    263700   2291.2675     -9589.8294      4396.6893     -137161.74    
    263800   2230.9887      3440.2339      4277.341      -137164.36    
    263900   2678.7852      12541.036      4190.1525     -137165.13    
    264000   2715.6625      10400.615      4188.9394     -137165.86    
    264100   2429.8214      1638.6465      4264.7182     -137163.56    
    264200   2264.7529     -13315.291      4333.1491     -137161.25    
    264300   2600.9889     -3951.6404      4326.2561     -137161.93    
    264400   2613.7479      3254.6278      4287.5186     -137162.17    
    264500   2418.5593      5244.0926      4280.5941     -137161.56    
    264600   2512.146      -5167.7601      4300.4859     -137165.96    
    264700   2462.758      -8905.0525      4301.2629     -137163.86    
    264800   2604.9913      14660.517      4271.889      -137159.27    
    264900   2571.7469     -316.36787      4297.779      -137157.09    
    265000   2358.5921      2695.8648      4342.236      -137158.05    
    265100   2442.5453     -2472.3938      4406.6885     -137163.15    
    265200   2482.6705     -11367.598      4448.6258     -137159.91    
    265300   2741.1705     -3969.7345      4402.7734     -137155.92    
    265400   2614.9299      8645.2589      4314.6981     -137159.53    
    265500   2440.8716     -3012.8898      4259.7843     -137162.34    
    265600   2490.8218      9397.2324      4205.3442     -137167.48    
    265700   2392.0361      8903.2035      4212.1507     -137165.51    
    265800   2519.0061      13915.611      4262.3126     -137163.57    
    265900   2706.2922     -11471.547      4357.6684     -137161.14    
    266000   2550.8199     -15642.479      4384.9359     -137159.15    
    266100   2267.7384      4066.8907      4314.7485     -137160.21    
    266200   2412.3665      13082.286      4239.6696     -137164.47    
    266300   2404.9055      7755.0325      4240.5303     -137162.13    
    266400   2464.7156      6245.8047      4280.3148     -137161.71    
    266500   2518.0385     -4408.2327      4320.5562     -137160.96    
    266600   2551.7424      3357.3649      4343.3909     -137157.04    
    266700   2709.9076      988.09531      4367.8949     -137158.82    
    266800   2245.223      -1537.4462      4400.5986     -137153.76    
    266900   2381.6142     -3569.1044      4417.0204     -137159.13    
    267000   2562.4492     -3919.9821      4397.0863     -137158.6     
    267100   2770.8741      5464.1664      4369.519      -137154.92    
    267200   2633.0403     -2212.48        4364.409      -137156.77    
    267300   2428.8757     -7143.658       4352.6144     -137158.05    
    267400   2497.5019     -7290.3592      4326.3199     -137162.02    
    267500   2394.4138      7056.3984      4293.6952     -137158.21    
    267600   2561.8633      14052.061      4289.6219     -137157.67    
    267700   2755.905       1704.4904      4349.1615     -137157.47    
    267800   2488.0667     -3778.3474      4403.3285     -137156.35    
    267900   2508.6281     -16606.792      4408.6405     -137162.27    
    268000   2433.3458      2207.2101      4349.6408     -137159.66    
    268100   2527.7345     -9896.2459      4295.9602     -137162.18    
    268200   2640.8963      12232.477      4251.7199     -137165.38    
    268300   2417.6805     -9431.1177      4280.8645     -137167.73    
    268400   2241.7976     -8354.1806      4288.6015     -137166.02    
    268500   2443.5573      3361.0898      4285.3363     -137163.42    
    268600   2555.6395     -2833.5335      4315.6334     -137161.01    
    268700   2552.5534     -6419.4016      4348.0547     -137157.48    
    268800   2733.0601      3638.3288      4369.8073     -137160.42    
    268900   2371.2586     -7523.1985      4399.2492     -137160.28    
    269000   2344.2031      377.31689      4383.0846     -137161.66    
    269100   2428.7294      5052.9625      4349.4092     -137158.9     
    269200   2716.7674      6514.8998      4343.2088     -137162.65    
    269300   2494.4174     -5659.7006      4369.7263     -137160.16    
    269400   2544.9572     -12915.289      4374.5891     -137164.34    
    269500   2479.8673     -1357.5627      4321.8324     -137162.69    
    269600   2531.5273      11661.978      4256.742      -137163.77    
    269700   2653.7109     -2643.4893      4264.3069     -137168.59    
    269800   2446.1913     -2830.5422      4306.7598     -137167.02    
    269900   2340.5217     -9547.0021      4325.7563     -137165.34    
    270000   2633.0612      4541.6981      4288.4977     -137162.92    
    270100   2835.2327     -6541.6412      4276.2974     -137167       
    270200   2456.1995      5342.0069      4264.1977     -137162.17    
    270300   2429.071       3019.6723      4269.4481     -137164.41    
    270400   2420.7474      3007.005       4297.6652     -137166.28    
    270500   2299.0981     -2674.9432      4347.9992     -137158.88    
    270600   2773.9113     -7703.8646      4366.8895     -137163.29    
    270700   2629.9975      6158.1641      4371.8016     -137161.41    
    270800   2358.7803     -13538.511      4386.2073     -137161.73    
    270900   2430.3354      252.74633      4331.3868     -137162.59    
    271000   2583.1548      12534.194      4269.352      -137161.72    
    271100   2469.867       5778.2662      4306.4365     -137157.85    
    271200   2502.2999     -8206.8588      4403.0197     -137158.72    
    271300   2529.3831     -8641.4616      4457.2507     -137158.14    
    271400   2598.107      -4089.4743      4441.542      -137155.8     
    271500   2844.2601      15184.814      4380.1516     -137153.97    
    271600   2564.5414      7184.6224      4364.0628     -137155.97    
    271700   2515.3623      3217.1473      4383.2929     -137161.43    
    271800   2414.3945     -8286.3086      4417.4313     -137160.94    
    271900   2306.4805      6848.138       4425.6411     -137153.05    
    272000   2625.8341     -1433.8109      4423.2843     -137156.1     
    272100   2582.7944     -4898.4204      4404.8904     -137159.54    
    272200   2463.913       457.90985      4366.3157     -137161.01    
    272300   2547.8547      1323.466       4343.3451     -137163.09    
    272400   2551.631      -5369.3785      4327.9602     -137162.84    
    272500   2655.9514     -2869.5565      4294.7339     -137165.63    
    272600   2309.6515      17037.592      4258.4165     -137162.22    
    272700   2300.448       2817.8457      4283.5494     -137164.94    
    272800   2521.3089     -11184.369      4332.3723     -137163.1     
    272900   2466.465       164.55776      4343.7268     -137156.98    
    273000   2550.366      -7167.0682      4356.5187     -137158.58    
    273100   2549.8384     -1604.696       4357.6296     -137161.58    
    273200   2326.8825     -3333.1538      4372.0663     -137162.86    
    273300   2361.4986     -15296.231      4348.0279     -137166.73    
    273400   2447.3409      9687.1897      4253.008      -137157.18    
    273500   2739.2359      20130.488      4194.4548     -137163.54    
    273600   2395.6191     -4102.6582      4224.429      -137162.72    
    273700   2342.4064     -2060.4937      4244.1213     -137162.64    
    273800   2635.3323      2195.0175      4240.9248     -137164.57    
    273900   2703.2104      5733.263       4261.8292     -137164.87    
    274000   2481.9502     -117.85561      4329.5263     -137166.52    
    274100   2284.287      -8398.4132      4421.5847     -137161.6     
    274200   2443.2118     -10404.861      4450.186      -137160.51    
    274300   2556.5906     -1065.3682      4413.8723     -137158.39    
    274400   2517.3244      1589.9133      4365.7582     -137156.39    
    274500   2577.8385      1811.6575      4318.5153     -137164.01    
    274600   2386.6773     -3187.4472      4290.5802     -137166.22    
    274700   2512.8338      2260.2555      4271.3264     -137166.24    
    274800   2519.9984      4711.0907      4276.8139     -137162.49    
    274900   2460.3082      6291.4867      4304.261      -137159.66    
    275000   2378.8625     -2871.0922      4350.1791     -137159.83    
    275100   2251.9194     -8760.7331      4370.4136     -137161.46    
    275200   2523.0407      3881.2599      4327.6868     -137166.35    
    275300   2581.2356     -5189.8284      4261.8677     -137163.65    
    275400   2572.231       17271.881      4182.0749     -137162.99    
    275500   2328.7533      2965.9154      4191.0938     -137165.2     
    275600   2308.6009     -2332.4164      4248.5187     -137166.4     
    275700   2387.8194     -1461.0778      4307.7065     -137162.55    
    275800   2511.8897      721.39801      4344.0627     -137160.4     
    275900   2529.3548     -562.76974      4391.8273     -137159.33    
    276000   2488.53       -9905.3115      4438.2017     -137159.14    
    276100   2552.0059     -7072.4441      4425.0933     -137160.01    
    276200   2616.197       2354.5976      4367.8422     -137155.73    
    276300   2676.0729      3714.1068      4302.4369     -137156.25    
    276400   2499.5162      9780.3508      4253.9307     -137160.89    
    276500   2344.2597      8636.6725      4232.2174     -137162.51    
    276600   2490.039       5781.6932      4265.1872     -137166.21    
    276700   2555.6039     -9733.8884      4364.2934     -137163.85    
    276800   2641.6642     -6724.0908      4433.6448     -137159.07    
    276900   2694.783       2112.684       4455.0842     -137156.33    
    277000   2434.0274     -18929.483      4473.9369     -137159.09    
    277100   2446.2565     -12687.684      4424.8563     -137164.44    
    277200   2477.0875      12243.589      4301.0979     -137164.82    
    277300   2532.1556      6679.5014      4173.353      -137163.91    
    277400   2757.6381      22626.572      4075.5094     -137166.42    
    277500   2406.4445      14986.615      4123.8936     -137167.74    
    277600   2236.5435     -11666.174      4279.5315     -137164.43    
    277700   2520.0378     -6062.6224      4380.9235     -137163.31    
    277800   2491.6189     -274.21874      4424.9506     -137157.57    
    277900   2700.6297     -11312.573      4434.5203     -137162.38    
    278000   2388.5705     -96.900177      4401.1928     -137157.88    
    278100   2369.3217     -6637.5838      4346.1249     -137166.15    
    278200   2429.329       7960.2196      4252.9598     -137169.87    
    278300   2430.9789      8944.3897      4220.706      -137165.14    
    278400   2706.7641      7082.6042      4258.0348     -137168.29    
    278500   2496.1252     -4798.761       4321.642      -137163.92    
    278600   2384.4498     -5259.0621      4367.3541     -137157.94    
    278700   2577.4762     -2791.3993      4377.433      -137156.97    
    278800   2693.0982     -14094.482      4353.873      -137162.27    
    278900   2581.1243     -654.57358      4287.811      -137168.6     
    279000   2301.8691      7230.7489      4228.617      -137162.8     
    279100   2513.7323      3592.2512      4204.8249     -137166.84    
    279200   2404.2736      5430.5059      4222.4099     -137162.18    
    279300   2642.9358      7129.9908      4285.399      -137163.56    
    279400   2510.0541     -2338.616       4382.645      -137154.81    
    279500   2785.9671     -940.36477      4476.868      -137155.55    
    279600   2606.3723     -10737.406      4564.2871     -137151.63    
    279700   2388.7103     -13040.147      4570.6975     -137156.5     
    279800   2326.9838     -7068.9733      4469.3024     -137157.08    
    279900   2661.0359      1491.8392      4325.0745     -137161.75    
    280000   2620.4181      7709.3141      4214.3133     -137161.93    
    280100   2532.581       4850.2099      4166.243      -137167.84    
    280200   2399.4063      14424.704      4185.6644     -137165.93    
    280300   2510.8         2723.3506      4267.8752     -137167.89    
    280400   2480.5941     -6711.5007      4342.8683     -137160.91    
    280500   2589.7101     -995.67468      4385.0666     -137157.61    
    280600   2604.2682     -2272.4888      4416.0342     -137159.32    
    280700   2515.2864     -4094.628       4432.0147     -137158.3     
    280800   2461.2916     -6578.1218      4415.7424     -137156.86    
    280900   2473.9054     -1354.5449      4366.0878     -137156.3     
    281000   2646.9561      7950.7388      4311.6849     -137161.96    
    281100   2491.2433      4277.7376      4284.4812     -137163.45    
    281200   2434.733      -889.4483       4283.6287     -137166.06    
    281300   2502.6332      1009.4122      4290.4354     -137165.61    
    281400   2702.6779      2567.1489      4313.5555     -137161.46    
    281500   2481.9425      8870.1817      4360.6338     -137154.7     
    281600   2453.3562     -9868.4477      4423.3505     -137155.65    
    281700   2596.9822     -8552.1561      4430.3593     -137160.46    
    281800   2399.508      -6345.1305      4386.9633     -137161.06    
    281900   2405.687       380.55315      4308.9651     -137167.15    
    282000   2449.5648      5717.6374      4245.0719     -137165.3     
    282100   2656.5321      21071.935      4239.872      -137160.77    
    282200   2480.3662     -234.17048      4321.5102     -137159.53    
    282300   2264.2612     -11480.946      4392.6344     -137156.77    
    282400   2386.0287      15556.043      4407.2726     -137156.8     
    282500   2616.564       4782.3179      4473.7019     -137156.23    
    282600   2549.9749     -12428.656      4555.3626     -137153.38    
    282700   2407.3088     -23255.364      4541.4798     -137156.3     
    282800   2445.3838     -11755.123      4414.8425     -137161.25    
    282900   2668.1063      2442.1243      4271.2615     -137164.19    
    283000   2694.2345      18929.311      4207.5871     -137165.28    
    283100   2243.0691      1138.9929      4250.2081     -137163.23    
    283200   2388.2094     -3310.8495      4286.8152     -137165.75    
    283300   2451.9213      9512.8409      4310.6071     -137161.43    
    283400   2488.9332     -837.23419      4364.46       -137158.91    
    283500   2429.7397     -6483.6017      4404.9488     -137157.6     
    283600   2451.5274     -3683.3095      4402.1261     -137159.21    
    283700   2497.494       938.63453      4375.9461     -137159.19    
    283800   2911.2612      7519.0289      4354.7289     -137159.21    
    283900   2815.6201     -5905.8047      4382.7644     -137158.24    
    284000   2498.9467     -13022.747      4386.6287     -137159.08    
    284100   2633.8385     -2943.055       4313.5005     -137164.33    
    284200   2484.1146      14037.177      4258.8136     -137161.41    
    284300   2436.2444     -4740.969       4285.0141     -137164.47    
    284400   2333.3648      2710.6023      4301.3891     -137167.09    
    284500   2258.5776     -2719.5669      4293.3744     -137165.07    
    284600   2640.0195      7588.5977      4245.5056     -137165.49    
    284700   2565.4884      4334.9148      4231.4085     -137163.64    
    284800   2328.3832      5718.7821      4245.5477     -137161.15    
    284900   2352.5468     -9041.3335      4277.6137     -137166.45    
    285000   2175.9991     -3396.8823      4283.9319     -137163.75    
    285100   2497.6673      2385.2175      4264.8268     -137162.19    
    285200   2776.1244      3740.6096      4259.3367     -137166.36    
    285300   2562.3744      675.20178      4301.7517     -137164.09    
    285400   2256.0256     -7570.0698      4358.5555     -137158.63    
    285500   2459.2763     -2485.5269      4383.0885     -137155.83    
    285600   2672.9672     -210.43207      4384.7279     -137158       
    285700   2556.0681     -3391.2792      4390.4448     -137158.26    
    285800   2258.6088     -8720.5572      4358.6607     -137155.94    
    285900   2593.0552      7689.5754      4263.7351     -137163.34    
    286000   2699.3494      11864.818      4209.9304     -137165.54    
    286100   2367.0036     -1076.0483      4216.2869     -137169.89    
    286200   2370.8826     -864.56675      4220.5101     -137169.08    
    286300   2654.2169      5598.8279      4237.0968     -137169.25    
    286400   2390.2366      8612.2577      4325.0547     -137158.45    
    286500   2514.5957     -12236.302      4460.8467     -137156.66    
    286600   2625.7749     -9815.4501      4515.321      -137156.37    
    286700   2686.6023     -9397.762       4485.2829     -137161.51    
    286800   2397.0534     -835.32328      4378.8489     -137161.46    
    286900   2307.2252      15150.829      4258.2869     -137159.55    
    287000   2531.8841      13556.591      4211.5589     -137162.14    
    287100   2686.916       6245.1081      4228.5784     -137164.25    
    287200   2237.6479     -3788.1844      4299.4175     -137158.33    
    287300   2462.1777      1218.3347      4346.9087     -137165.52    
    287400   2638.2847     -7508.7844      4401.7577     -137162.83    
    287500   2674.5343     -3841.5149      4437.8982     -137159.33    
    287600   2491.9222     -6314.188       4438.3884     -137157.34    
    287700   2398.4441     -4854.9588      4408.6258     -137156.49    
    287800   2659.1396      920.8819       4350.8689     -137160.96    
    287900   2539.6975      8402.149       4295.6614     -137158.88    
    288000   2401.6698      5433.5187      4281.1347     -137163.44    
    288100   2366.625       2303.7531      4294.9065     -137164.74    
    288200   2542.4237     -2845.8504      4310.2606     -137163.76    
    288300   2480.0632     -1129.6484      4350.8522     -137155.95    
    288400   2532.024      -2118.0576      4401.6198     -137157.95    
    288500   2353.3954     -5903.074       4438.0986     -137157.05    
    288600   2267.9623     -2585.2373      4415.1801     -137153.49    
    288700   2855.1094     -1342.8752      4343.525      -137157.73    
    288800   2609.719       10427.368      4261.3667     -137157.63    
    288900   2619.9739      7792.7115      4211.2027     -137166.39    
    289000   2370.8143      9305.8293      4218.1867     -137164.66    
    289100   2298.6047      5413.0338      4287.2695     -137160.86    
    289200   2651.4887     -10149.999      4388.4262     -137162.58    
    289300   2611.0179     -14304.12       4450.4941     -137159.69    
    289400   2537.4255      3462.7773      4418.0285     -137161.08    
    289500   2394.3887     -1251.252       4363.2034     -137162.66    
    289600   2316.6342      1164.783       4306.714      -137160.21    
    289700   2577.4268      9901.6312      4272.0139     -137164.72    
    289800   2460.0698     -2626.47        4284.0559     -137163.08    
    289900   2465.206      -8061.1775      4293.5446     -137162.9     
    290000   2582.8288      6191.2924      4290.8929     -137158.81    
    290100   2575.1407      1756.7164      4318.8614     -137158.4     
    290200   2406.3535     -10252.487      4375.5096     -137160.95    
    290300   2217.2637     -2997.1355      4392.8623     -137160.89    
    290400   2575.8094     -11119.553      4367.2605     -137165.36    
    290500   2527.8227     -778.72633      4290.814      -137159.31    
    290600   2535.7562      19131.736      4215.3527     -137161.7     
    290700   2443.4538      7914.7988      4238.808      -137164.88    
    290800   2347.9954     -3016.8027      4306.5506     -137164.3     
    290900   2380.4413      697.09784      4362.8855     -137159.16    
    291000   2576.1835     -3536.9886      4389.3599     -137161.19    
    291100   2544.8333      890.63897      4392.7805     -137160.38    
    291200   2532.7804     -3293.4722      4382.988      -137163.93    
    291300   2292.9582     -3937.2145      4355.863      -137164.92    
    291400   2407.5167      651.18318      4307.4863     -137167.27    
    291500   2556.1711     -5126.1241      4264.4655     -137165.64    
    291600   2575.392       11563.445      4235.491      -137164.14    
    291700   2287.7971     -275.47611      4280.4582     -137158.66    
    291800   2422.6103     -1217.9716      4341.8324     -137160.73    
    291900   2512.7787      7063.8807      4388.3603     -137156.89    
    292000   2715.4927     -18935.543      4451.5892     -137161.15    
    292100   2289.3214     -4526.4436      4432.6566     -137157.91    
    292200   2205.6924      6265.4086      4337.1972     -137157.91    
    292300   2582.7433      13424.71       4253.426      -137161.59    
    292400   2583.229       2987.1961      4261.3556     -137160.18    
    292500   2427.4696     -4631.8061      4305.6339     -137159.63    
    292600   2498.2595      5857.2574      4314.5462     -137162.8     
    292700   2521.3799     -710.32774      4331.9864     -137162.5     
    292800   2590.7053     -9898.849       4339.6471     -137163.87    
    292900   2338.4531      13017.939      4313.3624     -137154.48    
    293000   2667.1194     -457.47368      4328.1305     -137160.27    
    293100   2382.1254     -4929.7345      4345.4802     -137160.55    
    293200   2352.8694     -11560.243      4315.9977     -137162.92    
    293300   2431.2162      15823.071      4217.7488     -137160.82    
    293400   2535.44        14365.34       4183.2799     -137161.13    
    293500   2608.1363     -3078.3132      4249.636      -137164.49    
    293600   2683.7653     -15757          4326.5078     -137168.24    
    293700   2648.2239     -10359.598      4337.3659     -137168.16    
    293800   2395.8732      3975.6295      4291.0265     -137161.51    
    293900   2562.578       6246.4906      4248.2808     -137164.93    
    294000   2535.227       5738.2341      4230.0939     -137166.68    
    294100   2251.8863     -6738.2238      4240.8421     -137165.44    
    294200   2286.9353      1290.554       4242.1593     -137164.77    
    294300   2498.3393      13168.9        4247.6317     -137159.84    
    294400   2593.8048     -3680.8939      4289.8265     -137163.61    
    294500   2545.6555     -3227.7213      4320.5874     -137165.94    
    294600   2267.5748     -5408.0769      4326.0368     -137163.08    
    294700   2335.9941      6803.9281      4301.017      -137163.91    
    294800   2669.0998     -3477.277       4273.6937     -137161.82    
    294900   2608.0676      10651.198      4246.0461     -137160.45    
    295000   2534.9586     -3430.7992      4279.0195     -137166.5     
    295100   2392.9809      2259.3747      4325.4554     -137164.15    
    295200   2429.5372     -13923.87       4391.479      -137158.72    
    295300   2491.1019     -1670.0408      4392.2291     -137156.6     
    295400   2636.2069     -4305.2937      4353.7992     -137160.21    
    295500   2677.5018     -5377.8437      4308.2269     -137166.16    
    295600   2351.9078     -667.24406      4255.8312     -137164.75    
    295700   2343.5938      11100.18       4210.3226     -137162.16    
    295800   2607.4085      3812.1578      4201.1832     -137168.44    
    295900   2321.6683      3644.794       4235.258      -137160.3     
    296000   2750.2847     -1321.2445      4304.7658     -137161.88    
    296100   2571.4093     -2149.0925      4389.2695     -137154.88    
    296200   2446.6912     -12315.643      4456.0233     -137155.06    
    296300   2428.7858      2532.0598      4459.0952     -137157.49    
    296400   2492.9843     -6802.751       4447.3956     -137160.59    
    296500   2526.5602     -2705.6791      4420.9062     -137153.88    
    296600   2703.2639      481.52842      4378.6235     -137155.25    
    296700   2539.9735     -2441.8154      4337.4426     -137159.98    
    296800   2449.9174      15.170903      4285.8655     -137161.86    
    296900   2450.9629      13015.506      4240.5298     -137161.41    
    297000   2595.2761      1364.9532      4264.7298     -137161.63    
    297100   2708.4261      3439.4885      4311.3197     -137159.76    
    297200   2482.5292      1745.5401      4385.4162     -137156.79    
    297300   2365.8714     -12849.862      4453.0455     -137160.41    
    297400   2315.0419     -3770.1892      4421.2692     -137158.53    
    297500   2552.8576      2462.1717      4346.59       -137156.99    
    297600   2581.7366      19994.406      4304.0123     -137156.74    
    297700   2579.9521      5632.3683      4330.4187     -137163.01    
    297800   2381.2442     -9305.9393      4382.4064     -137162.96    
    297900   2466.6927     -9315.2488      4393.1204     -137165.13    
    298000   2459.1192      2784.0976      4358.2592     -137157.74    
    298100   2664.1672      4862.0826      4329.9443     -137158.58    
    298200   2441.0301      9356.9351      4348.5532     -137155.97    
    298300   2495.02       -5596.8296      4402.2428     -137159.2     
    298400   2460.3525     -8771.4087      4409.3617     -137161.28    
    298500   2460.2573     -6787.6633      4358.0958     -137164.71    
    298600   2321.8695      7597.0773      4280.7912     -137162.44    
    298700   2669.7551      7943.6811      4221.9535     -137169.08    
    298800   2484.0557      2973.7418      4213.2242     -137162.25    
    298900   2646.7092      2287.1499      4219.1251     -137169.65    
    299000   2317.2618      1544.5968      4239.2708     -137168.44    
    299100   2379.1188     -1017.8208      4263.6073     -137166.61    
    299200   2491.0548      6039.0556      4286.0257     -137164.54    
    299300   2608.2098     -9481.8364      4351.4286     -137166.93    
    299400   2414.3862     -8173.0375      4382.7196     -137162.6     
    299500   2608.6337      2464.9958      4372.0212     -137160.95    
    299600   2855.8238     -2580.6893      4385.6202     -137160.73    
    299700   2497.8442      533.62419      4439.286      -137155       
    299800   2519.6314     -10877.083      4478.7716     -137159.52    
    299900   2448.908      -10875.647      4423.3751     -137158.17    
    300000   2451.3864      9865.7395      4306.7848     -137155.58    
    300100   2748.318       13458.758      4248.307      -137163.31    
    300200   2381.7779     -1892.0737      4274.3089     -137164.93    
    300300   2366.5062     -1446.2052      4300.462      -137164.76    
    300400   2544.7548      3930.5193      4317.2474     -137164.45    
    300500   2592.0213     -11401.217      4359.765      -137161.43    
    300600   2614.57       -3620.5694      4368.6171     -137158.88    
    300700   2500.7042      2071.8183      4343.4259     -137159.23    
    300800   2411.8297     -6594.0587      4320.8361     -137164.91    
    300900   2325.5287      5845.1407      4269.6788     -137163.92    
    301000   2632.5623      4575.22        4224.718      -137167.56    
    301100   2480.6219      14445.558      4230.8656     -137158.21    
    301200   2694.3306      6868.721       4320.3315     -137157.89    
    301300   2634.5566     -8003.1101      4440.845      -137154.33    
    301400   2471.0968     -16743.348      4501.0281     -137157.31    
    301500   2492.7203     -5965.339       4458.0832     -137162.25    
    301600   2523.7868     -313.40978      4398.5401     -137162.41    
    301700   2534.9022      343.96868      4359.5657     -137161.07    
    301800   2508.1695      2510.2865      4336.7393     -137158.01    
    301900   2480.3216     -409.13823      4328.8209     -137161.73    
    302000   2386.942       1234.6881      4328.1875     -137164.49    
    302100   2366.8564      302.95971      4336.0433     -137164.01    
    302200   2616.8513      6964.3894      4341.9036     -137162.2     
    302300   2625.4754      2126.1004      4368.5657     -137157.66    
    302400   2481.2573      688.34846      4421.2523     -137157.48    
    302500   2183.7149     -1825.0913      4453.7492     -137152.96    
    302600   2523.3379     -285.24875      4435.4972     -137160.31    
    302700   2574.2272     -2619.8527      4395.109      -137161.68    
    302800   2479.1629      948.45227      4329.3372     -137162.92    
    302900   2355.6846      1229.2647      4265.7742     -137164.29    
    303000   2400.0446      8699.0643      4227.158      -137169.04    
    303100   2555.5226      3417.186       4244.7036     -137173.26    
    303200   2323.1115      3630.6715      4288.4248     -137160.04    
    303300   2576.7196      1041.2803      4333.9286     -137159.79    
    303400   2475.2871      4945.6196      4386.2107     -137156.24    
    303500   2479.5147     -16449.611      4459.3707     -137157.32    
    303600   2355.8761     -8361.5119      4442.4492     -137156.07    
    303700   2594.6574      774.2098       4343.1985     -137163.93    
    303800   2494.8672      3398.6384      4248.0562     -137165.4     
    303900   2433.2464      9500.0502      4205.204      -137168.05    
    304000   2446.8413      3458.0236      4233.2585     -137170.33    
    304100   2515.3821      670.18204      4292.7686     -137165.71    
    304200   2608.5836     -4505.0414      4347.0715     -137161.36    
    304300   2494.1176     -1638.5487      4367.7952     -137159.21    
    304400   2365.6812     -9620.74        4362.9851     -137160.12    
    304500   2309.0999      8461.1429      4321.7351     -137164.76    
    304600   2224.6455     -737.50062      4306.9023     -137164.07    
    304700   2513.7267      4384.0334      4285.8481     -137162.35    
    304800   2657.5777      3353.3221      4297.9926     -137163.55    
    304900   2474.4394     -1627.4617      4341.9881     -137161.16    
    305000   2314.1236      6114.6512      4376.6984     -137161.39    
    305100   2289.4062     -9562.9579      4427.2169     -137161.39    
    305200   2575.1924      192.23611      4447.0846     -137157.86    
    305300   2598.513      -2949.5899      4458.4697     -137154.78    
    305400   2476.8662     -3057.6677      4436.7139     -137154.66    
    305500   2442.8159      145.13501      4389.4314     -137158.8     
    305600   2293.6477     -2.4321721      4353.9254     -137158.26    
    305700   2465.7128     -2091.2518      4313.488      -137162.93    
    305800   2654.9071      7461.1433      4264.9786     -137163.54    
    305900   2659.2953     -2287.1416      4253.3972     -137163.63    
    306000   2385.6882      8436.6224      4250.2964     -137163.47    
    306100   2309.2358     -1561.9076      4289.363      -137163.46    
    306200   2511.447       2133.2854      4329.8984     -137162.91    
    306300   2787.1293     -4798.5137      4371.732      -137164.08    
    306400   2851.784       2403.6421      4404.5886     -137158.18    
    306500   2665.2586     -5761.2322      4438.7517     -137158.69    
    306600   2467.8894     -8248.0872      4436.1465     -137161.18    
    306700   2600.8285     -269.29423      4373.6396     -137164.24    
    306800   2665.2809      2138.5627      4325.8483     -137162.35    
    306900   2596.5769      9301.7951      4317.75       -137158.51    
    307000   2354.0211      3767.9002      4341.2671     -137161.49    
    307100   2315.8978      3133.1056      4380.2549     -137163.91    
    307200   2359.5313     -7050.8678      4424.9247     -137159.64    
    307300   2476.2915      2277.9624      4413.6536     -137157.36    
    307400   2587.4269     -6600.8724      4394.1154     -137159.39    
    307500   2518.6495      6607.8748      4359.2756     -137157.5     
    307600   2560.7966     -1070.6373      4355.6086     -137160.37    
    307700   2341.5916     -4001.7155      4353.2473     -137164.18    
    307800   2237.3133      9790.5114      4337.9594     -137163.81    
    307900   2432.8624     -624.1508       4351.1151     -137161.94    
    308000   2597.962      -217.41394      4341.8658     -137162.72    
    308100   2511.4925      1091.1621      4323.7751     -137161.82    
    308200   2438.2887     -7346.4201      4295.8353     -137165.25    
    308300   2204.1958     -2932.6632      4224.3706     -137167.35    
    308400   2349.6388      13591.77       4142.1095     -137167.52    
    308500   2541.1213      16587.981      4138.969      -137165.3     
    308600   2395.6056      3302.0676      4253.0732     -137163.19    
    308700   2390.714      -14483.907      4395.8951     -137161.8     
    308800   2533.6891     -16506.042      4449.1874     -137161.45    
    308900   2616.0683     -11061.395      4388.2074     -137160.4     
    309000   2547.9404      4571.437       4250.8403     -137161.83    
    309100   2493.8935      7997.6732      4148.5255     -137168.21    
    309200   2380.4269      18034.465      4126.5759     -137168.45    
    309300   2428.8718      6987.7056      4188.7795     -137169.69    
    309400   2612.2999     -1801.0148      4274.9425     -137166.53    
    309500   2567.0328     -2665.4371      4352.3026     -137157.95    
    309600   2516.7408     -912.98902      4400.3553     -137155.83    
    309700   2577.2104     -5235.378       4405.8666     -137157.62    
    309800   2520.8699     -4346.5263      4379.0559     -137161.01    
    309900   2245.7659     -1910.5037      4353.1684     -137159.54    
    310000   2358.4983      6666.4038      4306.8946     -137160.45    
    310100   2713.1721      7499.2158      4283.7937     -137159.94    
    310200   2710.6569     -3376.2844      4321.9778     -137161.53    
    310300   2368.9525      686.53489      4379.2793     -137157.62    
    310400   2399.3998     -7535.5193      4414.1781     -137159.02    
    310500   2526.5715     -1497.7645      4387.77       -137157.52    
    310600   2794.613       2782.347       4361.3738     -137156.31    
    310700   2717.5383     -5458.8274      4366.9761     -137159.11    
    310800   2519.438      -1869.7164      4376.0933     -137158.93    
    310900   2380.3352     -17912.281      4357.7165     -137158.25    
    311000   2568.9821      8062.9476      4255.2584     -137160.68    
    311100   2735.6804      21543.805      4199.2902     -137159.53    
    311200   2446.5003      3136.3852      4247.814      -137160.67    
    311300   2344.5184     -8425.1394      4296.4697     -137162.25    
    311400   2554.3077      1349.236       4283.1131     -137164.18    
    311500   2710.758       1643.0676      4274.9345     -137164.04    
    311600   2617.9477     -2584.4017      4280.2016     -137168.78    
    311700   2347.8862     -5750.5668      4305.5953     -137165.67    
    311800   2518.0703     -10277.778      4316.622      -137164.44    
    311900   2642.6155      5185.1434      4291.0812     -137163       
    312000   2679.1988      4904.5625      4294.553      -137166.12    
    312100   2107.8964      1903.3912      4348.47       -137155.78    
    312200   2491.2843     -2113.9444      4378.9749     -137164.26    
    312300   2608.0653     -1727.0264      4362.1356     -137157.76    
    312400   2529.0541      8895.5573      4331.6498     -137155.44    
    312500   2512.2668      9192.4935      4342.6905     -137161.9     
    312600   2374.4751     -6516.5907      4369.787      -137162.02    
    312700   2521.9098     -3439.707       4357.3922     -137164.73    
    312800   2486.1292     -492.77967      4346.6056     -137161.08    
    312900   2737.7684      117.49184      4346.5911     -137165.68    
    313000   2294.6802     -11441.614      4356.9084     -137161.5     
    313100   2217.6067     -8134.0553      4316.2785     -137161.74    
    313200   2575.3766      6117.1922      4248.4272     -137164.4     
    313300   2669.1034      9395.9312      4243.5158     -137165.65    
    313400   2439.9749      4547.0806      4289.0809     -137163.32    
    313500   2320.4593     -4808.7431      4350.7696     -137160.79    
    313600   2490.8036     -5016.7806      4366.3171     -137160.36    
    313700   2564.5569      3091.8192      4333.2052     -137159.48    
    313800   2612.1031     -1317.4089      4311.9048     -137162.36    
    313900   2501.8572      11195.452      4314.2017     -137163.41    
    314000   2335.9005     -13216.035      4351.6731     -137162.67    
    314100   2562.092       6559.1479      4324.2415     -137164.05    
    314200   2715.0961      6218.6911      4328.0772     -137162.29    
    314300   2686.3697      469.51716      4380.7552     -137162.25    
    314400   2153.0499     -10335.737      4441.8489     -137158.84    
    314500   2319.3245     -4659.8077      4437.1004     -137163.55    
    314600   2436.3625      38.522083      4386.3994     -137160.99    
    314700   2716.1073     -1967.1212      4317.873      -137164.84    
    314800   2575.7725      7277.977       4257.3901     -137163.37    
    314900   2347.4134      821.62376      4240.8337     -137166.09    
    315000   2307.5226      1496.6665      4245.6533     -137165.02    
    315100   2370.5846      12577.901      4283.6667     -137161.9     
    315200   2437.6967     -6922.2475      4365.3414     -137158.53    
    315300   2664.0495     -7146.5037      4394.9046     -137159.2     
    315400   2783.0534     -8144.1402      4384.5124     -137162.82    
    315500   2599.5166      4125.9185      4340.2114     -137164.15    
    315600   2560.7982     -2053.2305      4311.1428     -137165.13    
    315700   2337.5657      7345.2713      4287.0548     -137160.66    
    315800   2396.2107      3938.1352      4277.8605     -137162.42    
    315900   2660.9323      608.21123      4291.0973     -137162.16    
    316000   2654.5926     -6327.6057      4319.9779     -137158.47    
    316100   2436.0835      6156.7126      4344.229      -137158.8     
    316200   2309.1743     -12048.638      4369.2556     -137160.12    
    316300   2423.153      -3039.7575      4332.06       -137160.92    
    316400   2348.2069      2062.8113      4289.6651     -137156.1     
    316500   2560.8143      7754.3881      4257.6796     -137160.54    
    316600   2461.5756      7308.2993      4260.9139     -137161.91    
    316700   2460.3174     -2583.1547      4288.6512     -137169.45    
    316800   2362.918      -366.77699      4305.5664     -137164.88    
    316900   2664.6713      566.86903      4321.7752     -137165.06    
    317000   2591.6113     -5654.6555      4345.6515     -137161.34    
    317100   2586.2308     -3886.4715      4360.6914     -137160.07    
    317200   2650.9218     -14663.214      4355.5983     -137160.9     
    317300   2485.1827      10839.604      4296.7957     -137158.58    
    317400   2511.0255      3609.9541      4268.9566     -137165.6     
    317500   2451.0012      732.6029       4265.5732     -137167.34    
    317600   2415.5359      2913.1928      4285.6839     -137163.2     
    317700   2771.9395     -15541.39       4325.4193     -137163.81    
    317800   2545.3471     -223.27194      4320.1137     -137158.44    
    317900   2443.7877      605.44837      4298.3661     -137164.49    
    318000   2251.355      -825.15228      4278.4283     -137165.28    
    318100   2359.2101      4750.0867      4249.4242     -137164.24    
    318200   2477.9526      5477.2121      4255.7229     -137160.29    
    318300   2678.1929     -3414.8747      4316.7222     -137162.48    
    318400   2322.1745      3593.967       4387.666      -137153.69    
    318500   2430.8882     -18697.971      4438.6181     -137159.35    
    318600   2425.1426     -12311.369      4389.1558     -137164.15    
    318700   2498.2841      1672.7873      4281.8517     -137164.69    
    318800   2757.2594      18718.959      4194.0751     -137165.68    
    318900   2518.7376      11644.813      4219.755      -137164.46    
    319000   2322.9444     -6467.7915      4323.4021     -137166.1     
    319100   2256.2128     -6354.7091      4392.1167     -137161.13    
    319200   2501.0905     -2223.2808      4377.4222     -137162.81    
    319300   2551.7521     -1011.3768      4319.9552     -137162.24    
    319400   2595.7169      12770.533      4273.5704     -137164.54    
    319500   2284.1656      7113.8188      4279.6506     -137163.86    
    319600   2255.7095     -15081.464      4313.9558     -137167.64    
    319700   2545.0019      1923.9939      4305.8781     -137163.41    
    319800   2522.7311      4645.3524      4301.2183     -137159.02    
    319900   2664.1042     -821.38311      4319.3644     -137164.42    
    320000   2333.9071      0.81777372     4329.2398     -137160.75    
    320100   2488.0929      2928.1475      4332.221      -137162.65    
    320200   2585.8663      396.49531      4353.3891     -137157.89    
    320300   2629.6394     -1998.1522      4383.7261     -137159.57    
    320400   2524.3493     -15358.496      4405.7372     -137159.99    
    320500   2363.5576      878.13754      4350.401      -137156.31    
    320600   2677.2653      13483.467      4263.7956     -137165.3     
    320700   2272.2192      11631.841      4245.2475     -137161.06    
    320800   2396.1971      798.18084      4289.9705     -137166.16    
    320900   2596.67       -7636.8559      4346.8916     -137162.83    
    321000   2597.7409     -453.91543      4357.8251     -137160.41    
    321100   2520.9442      3934.8146      4346.912      -137160.92    
    321200   2375.7058     -387.61975      4348.2606     -137161.85    
    321300   2485.835      -2319.7122      4352.1296     -137160.82    
    321400   2690.6446      4465.0253      4361.181      -137159.78    
    321500   2582.8612      2137.0093      4423.3055     -137158.06    
    321600   2479.4573     -16615.207      4493.0938     -137159       
    321700   2471.3997     -1442.9013      4475.5419     -137161       
    321800   2360.7265     -7332.2326      4389.1624     -137161.16    
    321900   2554.5715      8056.7868      4247.0632     -137163.55    
    322000   2704.206       16364.69       4153.3472     -137163.52    
    322100   2477.9345      9501.47        4157.201      -137163.39    
    322200   2357.3935     -2143.1168      4231.7906     -137165.58    
    322300   2376.2314     -6421.0269      4309.7745     -137161.15    
    322400   2574.8529     -7052.54        4338.5087     -137161.06    
    322500   2499.2669      6370.8168      4334.1076     -137158.52    
    322600   2544.3946      254.45002      4349.4737     -137161.8     
    322700   2324.0373     -6623.074       4367.0815     -137162.05    
    322800   2318.6593     -2127.5862      4361.288      -137163.76    
    322900   2496.7319     -2569.5238      4335.7184     -137158.17    
    323000   2596.9349      2807.8126      4298.3442     -137157.56    
    323100   2756.6306      736.40007      4269.8515     -137166.91    
    323200   2464.9531      742.41481      4261.883      -137165.81    
    323300   2421.9136     -1507.8734      4292.4443     -137163.27    
    323400   2432.3698      3326.5311      4341.6595     -137158.8     
    323500   2654.5699      1661.1014      4410.7176     -137161.17    
    323600   2546.6585     -10426.585      4479.261      -137159.9     
    323700   2578.2271     -14452.987      4478.4972     -137161.07    
    323800   2583.1384      322.82165      4380.4815     -137161.35    
    323900   2537.8631      8932.8617      4273.3978     -137161.95    
    324000   2433.1259      1719.227       4205.2552     -137168.09    
    324100   2449.6089     -3905.6096      4166.7593     -137170.38    
    324200   2417.3655      14613.331      4164.2299     -137164.49    
    324300   2559.0803      10763.239      4245.8656     -137163.31    
    324400   2458.6307     -9400.8086      4403.7084     -137159.44    
    324500   2608.4559     -16175.776      4487.0127     -137160.95    
    324600   2569.9372     -3052.5126      4448.3532     -137157.43    
    324700   2617.9359      8202.755       4395.5035     -137156.53    
    324800   2404.5243     -1091.8041      4391.2977     -137157.21    
    324900   2393.5288     -6482.0069      4382.6587     -137161.46    
    325000   2575.0409     -1883.6934      4346.2532     -137163.17    
    325100   2676.2545      6547.865       4309.1242     -137162.64    
    325200   2388.6696     -435.61761      4312.4634     -137162.1     
    325300   2222.392      -1470.247       4309.6625     -137162.83    
    325400   2376.4974      3306.0633      4271.5412     -137161.93    
    325500   2763.6827      6596.8425      4225.8366     -137167.74    
    325600   2588.5996      5566.8045      4235.3561     -137165.41    
    325700   2458.8083      458.94779      4297.0005     -137164.26    
    325800   2500.2224     -1942.0086      4360.1697     -137163.25    
    325900   2795.3782     -2493.224       4402.947      -137161.46    
    326000   2474.6364     -871.33027      4429.7605     -137156.57    
    326100   2411.1921     -2896.8708      4425.676      -137158.43    
    326200   2548.3297     -4365.8354      4384.3877     -137160.5     
    326300   2682.1618     -8537.11        4345.6846     -137165.35    
    326400   2403.3984     -4947.1704      4296.3426     -137165.05    
    326500   2230.4093      6345.5545      4211.8794     -137168.04    
    326600   2371.206       8947.2833      4158.1401     -137168.26    
    326700   2397.4481      15936.762      4166.4207     -137163.41    
    326800   2568.2665      7030.5635      4239.643      -137166.74    
    326900   2385.4452     -6184.8507      4361.1038     -137160.94    
    327000   2363.9285     -3158.4987      4450.2056     -137153.09    
    327100   2715.9817     -7843.2527      4484.179      -137156.03    
    327200   2481.2426      1870.4657      4464.1357     -137152.88    
    327300   2422.8826     -220.58829      4422.3228     -137156.47    
    327400   2435.2559     -6115.4432      4365.9682     -137158.12    
    327500   2566.2483      4060.502       4277.5376     -137160.22    
    327600   2546.9877      16816.242      4218.9304     -137160.06    
    327700   2472.4479     -3748.6326      4237.7325     -137165.39    
    327800   2343.11        2396.778       4262.1316     -137164.84    
    327900   2538.2182      1904.7314      4308.5892     -137164.5     
    328000   2565.2209     -6480.8068      4371.486      -137158.66    
    328100   2510.4678     -4341.6519      4400.5255     -137158.04    
    328200   2426.4811      8.9042918      4397.0566     -137157.46    
    328300   2442.6783     -2008.9885      4370.4854     -137158.9     
    328400   2644.7107      570.33344      4348.2001     -137161.7     
    328500   2639.5324      4572.3175      4335.1537     -137161.19    
    328600   2508.6758     -3941.9616      4343.8705     -137165.87    
    328700   2304.808       1384.5014      4357.5821     -137163.73    
    328800   2490.8642     -7763.4126      4375.5714     -137163.73    
    328900   2439.2999     -5567.2003      4360.5632     -137156.42    
    329000   2586.8617      4592.905       4308.7133     -137160.49    
    329100   2584.162      -1580.9199      4265.9498     -137164.17    
    329200   2425.4852      11741.669      4238.7929     -137166.42    
    329300   2303.973      -943.25077      4270.6784     -137164.27    
    329400   2294.4896      782.34006      4304.5949     -137160.51    
    329500   2321.2175     -775.50501      4320.7809     -137158.7     
    329600   2588.7633     -1879.7894      4305.481      -137162.02    
    329700   2548.3461      4013.8812      4277.4718     -137162.67    
    329800   2408.0825      452.63395      4258.9712     -137166.44    
    329900   2427.0786      5595.184       4246.0661     -137168.91    
    330000   2385.0462      3112.1849      4287.6385     -137162.5     
    330100   2614.416      -8159.9061      4380.2549     -137161.58    
    330200   2483.8427     -14570.333      4441.6453     -137157.36    
    330300   2506.1842      3858.378       4426.7056     -137158.41    
    330400   2609.7484     -5091.422       4400.268      -137164.55    
    330500   2209.55       -6017.0889      4343.0557     -137159.8     
    330600   2510.7803      13842.13       4258.1208     -137165.08    
    330700   2770.9305      7253.6167      4236.428      -137163.72    
    330800   2410.5967      9527.8147      4291.3841     -137157.88    
    330900   2296.0111     -13390.077      4407.3819     -137164.34    
    331000   2214.2705     -12079.104      4461.8174     -137161.16    
    331100   2323.6801      282.65512      4432.6716     -137159.56    
    331200   2609.6947      3898.3644      4381.332      -137161.56    
    331300   2582.5189      1061.4431      4335.047      -137158.5     
    331400   2576.298      -1519.0023      4283.298      -137162.37    
    331500   2439.1968      13466.667      4241.9357     -137165.39    
    331600   2363.5009     -7205.7161      4274.1018     -137164.03    
    331700   2559.0796      525.18086      4313.1461     -137162.15    
    331800   2560.0715     -4904.7869      4360.2325     -137159.31    
    331900   2470.7924     -7389.258       4390.9953     -137156.88    
    332000   2588.2896     -10566.073      4356.3526     -137160.47    
    332100   2331.2284      14633.741      4267.5143     -137156.91    
    332200   2405.1854      3917.7562      4235.8594     -137165.81    
    332300   2398.6618     -6292.4625      4237.2914     -137167.09    
    332400   2698.0845      4732.9592      4226.097      -137165.97    
    332500   2621.4082      7276.7089      4261.0827     -137163.37    
    332600   2267.9904     -6120.6111      4332.4563     -137157.61    
    332700   2560.2073     -13061.538      4348.2507     -137162.1     
    332800   2627.9769      13453.935      4292.9179     -137159.28    
    332900   2598.3702     -852.30593      4275.1252     -137164.6     
    333000   2387.9028      5338.8935      4276.8667     -137165.64    
    333100   2467.3333     -1247.8741      4322.1518     -137165.06    
    333200   2561.4386     -9160.5122      4378.8164     -137162.09    
    333300   2481.9639      5942.7074      4402.8475     -137153.95    
    333400   2593.0488      8800.8274      4427.3109     -137156.35    
    333500   2337.0088     -13653.441      4448.6203     -137157.17    
    333600   2375.2651     -7456.5545      4369.6534     -137163.24    
    333700   2594.5139      4581.3832      4242.9145     -137167.31    
    333800   2518.076       17133.555      4165.1446     -137165.42    
    333900   2502.4616      9174.1106      4189.235      -137168.62    
    334000   2200.5219     -5856.6377      4273.9859     -137162.21    
    334100   2423.4376      8283.1438      4339.4884     -137159.41    
    334200   2550.4908     -7040.6598      4428.1383     -137158       
    334300   2599.3693     -10611.513      4484.4414     -137155.85    
    334400   2496.6717     -11329.905      4480.7816     -137153.75    
    334500   2474.8487      519.72459      4407.115      -137162.15    
    334600   2375.1673      6223.4714      4338.4756     -137164.38    
    334700   2457.5886      5134.3548      4327.44       -137162.91    
    334800   2613.658      -3173.9095      4368.1341     -137163.61    
    334900   2442.9931     -10786.282      4407.0313     -137159.76    
    335000   2439.7037     -3447.8841      4386.5898     -137159.5     
    335100   2675.4437      8260.1039      4340.6256     -137157.6     
    335200   2783.801       2372.4091      4309.8132     -137157.7     
    335300   2513.5918     -2422.983       4289.4195     -137159.74    
    335400   2487.2585      5085.454       4269.7993     -137162.29    
    335500   2531.8832      724.08265      4263.3306     -137165.63    
    335600   2471.6491     -1952.6806      4255.9727     -137166.57    
    335700   2250.9872      939.95718      4235.0181     -137163.79    
    335800   2521.1638     -3182.1539      4213.4843     -137166.55    
    335900   2731.047       5738.6392      4196.0215     -137164.91    
    336000   2496.5887      15778.712      4251.943      -137161.13    
    336100   2196.9819     -9282.9158      4380.8891     -137158.31    
    336200   2436.9721     -12505.159      4435.2893     -137161.54    
    336300   2750.9545     -10420.886      4424.919      -137161.27    
    336400   2470.8257     -6225.2496      4366.9972     -137157.39    
    336500   2426.2127      3073.4783      4259.9325     -137161.76    
    336600   2393.779       13905.572      4164.5765     -137164.81    
    336700   2499.6513      16164.019      4160.0161     -137170.51    
    336800   2287.0926     -6660.2902      4243.3308     -137169.59    
    336900   2363.1366     -3135.1277      4313.6495     -137166.98    
    337000   2559.6884     -605.35292      4350.9949     -137162.81    
    337100   2555.2871     -2959.176       4381.9122     -137162.3     
    337200   2264.1581     -11026.649      4405.218      -137156.9     
    337300   2686.0483      958.43135      4378.1261     -137164.03    
    337400   2606.8319      124.57479      4349.7767     -137154.53    
    337500   2809.7481      837.05365      4325.6234     -137160.12    
    337600   2295.2401      4585.0481      4332.3072     -137158.81    
    337700   2309.0593     -3837.4706      4358.603      -137158.26    
    337800   2595.1469      728.69016      4354.8208     -137159.5     
    337900   2653.2429     -5195.9929      4348.8515     -137159.9     
    338000   2494.4611      3330.129       4339.033      -137162.23    
    338100   2257.7482      2260.199       4341.6438     -137160.54    
    338200   2544.5459     -1887.1927      4317.8428     -137165.99    
    338300   2541.1456      2628.6677      4282.5722     -137164.29    
    338400   2571.0784      1218.6996      4284.6641     -137165.51    
    338500   2660.0021     -1315.3149      4320.3901     -137167.51    
    338600   2484.3289     -3741.0461      4369.2757     -137157.1     
    338700   2782.5664     -11224.117      4389.0651     -137159.05    
    338800   2393.6322      3418.1421      4365.3536     -137155.61    
    338900   2563.3658     -22.991855      4341.5879     -137163.59    
    339000   2505.692       1291.247       4320.0569     -137161.85    
    339100   2623.8582     -3407.5984      4324.3717     -137161.67    
    339200   2474.3826      5166.5507      4341.0007     -137157.34    
    339300   2482.6383      1426.4678      4379.1715     -137166.65    
    339400   2314.7819     -12154.778      4430.7554     -137164.43    
    339500   2488.3576     -13151.694      4393.0723     -137163.66    
    339600   2669.4279      6254.7279      4270.3208     -137164.17    
    339700   2727.3468      16979.57       4164.8799     -137166.52    
    339800   2580.3739      7580.2656      4154.2958     -137169.37    
    339900   2360.3172      2662.8689      4209.1509     -137166.59    
    340000   2310.9414      5516.3031      4291.4778     -137161.57    
    340100   2453.5113     -10398.881      4389.0129     -137160.43    
    340200   2493.436      -9242.3567      4426.238      -137158.27    
    340300   2657.862      -709.09665      4391.7464     -137161.07    
    340400   2512.781      -5569.7259      4352.1592     -137160.68    
    340500   2273.9202     -634.78273      4275.5425     -137162.82    
    340600   2437.6083      12915.402      4177.5667     -137169.45    
    340700   2556.4829      10895.559      4165.0395     -137166.8     
    340800   2783.1664     -2887.1742      4240.5527     -137164.16    
    340900   2650.8445     -2485.2413      4352.1054     -137162.33    
    341000   2216.5625     -6454.1125      4458.0161     -137153.55    
    341100   2394.2837     -14090.202      4486.6665     -137152.97    
    341200   2721.5915     -1752.7496      4401.5469     -137155.45    
    341300   2670.236       3514.865       4308.2748     -137157.27    
    341400   2564.5416      10055.134      4255.4557     -137162.94    
    341500   2411.9237      2442.7138      4250.1112     -137164.41    
    341600   2428.4242      3362.9312      4266.0741     -137164.49    
    341700   2583.1841      8471.3917      4304.5843     -137162.92    
    341800   2594.1429      1710.2309      4353.3387     -137161.46    
    341900   2436.2666     -11663.86       4398.426      -137162.82    
    342000   2280.7435     -656.33762      4398.7691     -137161.27    
    342100   2532.8259     -1912.5328      4380.7047     -137160       
    342200   2702.9806     -8469.6026      4342.6516     -137162.01    
    342300   2568.1248     -1954.7457      4286.0406     -137162.6     
    342400   2381.7689      9910.9192      4238.2173     -137160.86    
    342500   2516.4802      8249.8461      4232.8797     -137163.93    
    342600   2553.969       4943.9609      4275.0051     -137164.43    
    342700   2525.1409     -7949.9032      4361.0895     -137162.03    
    342800   2626.3284     -8059.1228      4410.9394     -137161.9     
    342900   2714.94       -2458.179       4417.9723     -137161.77    
    343000   2663.5848     -817.93756      4422.7541     -137155.5     
    343100   2583.3747      6590.1901      4418.9801     -137157.31    
    343200   2331.5286     -9098.3176      4427.4447     -137158.15    
    343300   2440.7341      2711.6298      4385.7335     -137160.25    
    343400   2538.0306      275.60993      4338.9401     -137161.52    
    343500   2462.106       1109.9775      4294.9153     -137160.37    
    343600   2374.225       1008.8518      4246.9432     -137163.89    
    343700   2681.7531      1422.7914      4226.633      -137172.4     
    343800   2553.4402     -4520.0404      4246.8164     -137167.32    
    343900   2465.2085      17399.854      4283.6833     -137158.97    
    344000   2622.0846      1872.343       4379.0235     -137158.02    
    344100   2501.713       913.91102      4454.7057     -137153.45    
    344200   2335.3599     -13121.011      4466.3676     -137157.54    
    344300   2329.9671     -9778.617       4386.0179     -137161.9     
    344400   2620.128       8920.8519      4274.8919     -137165.55    
    344500   2826.8736      10799.632      4254.6908     -137167.23    
    344600   2459.3849     -3592.6432      4325.6184     -137164.92    
    344700   2334.8367     -9711.6952      4377.3348     -137166.89    
    344800   2482.3847     -5368.9315      4366.7943     -137164.3     
    344900   2811.3981      2448.3271      4325.4981     -137167.9     
    345000   2591.8229      1531.0422      4320.3883     -137163.98    
    345100   2323.5657      1506.4407      4334.8692     -137163.27    
    345200   2197.1671     -4507.964       4336.2359     -137160.1     
    345300   2559.5015      5240.1941      4321.7446     -137161.71    
    345400   2606.3895      1665.4865      4343.3559     -137162.86    
    345500   2546.7957     -4179.1928      4390.6081     -137162.07    
    345600   2342.9706      3030.1372      4422.1912     -137158.43    
    345700   2340.0574     -2858.1938      4431.603      -137156.31    
    345800   2641.6544     -133.68484      4398.905      -137156.83    
    345900   2714.1217     -2189.9651      4359.3311     -137158.8     
    346000   2496.604       7059.4933      4325.6054     -137160.92    
    346100   2538.4049     -4401.9433      4299.4838     -137165.16    
    346200   2425.1449      4814.8934      4250.2455     -137163.18    
    346300   2587.4064      7671.5974      4228.1059     -137167.46    
    346400   2415.9326      3169.9401      4271.9825     -137162.46    
    346500   2536.2785     -1829.8479      4345.3962     -137157.87    
    346600   2618.2955     -149.41923      4413.5251     -137156.08    
    346700   2623.2597     -6712.07        4496.6108     -137157.26    
    346800   2390.0498     -8809.5634      4529.5776     -137159.88    
    346900   2221.747       497.85631      4481.7795     -137158.44    
    347000   2414.0741     -915.18704      4402.0603     -137159       
    347100   2545.4485     -1225.9903      4319.7086     -137159.46    
    347200   2722.5304      11185.021      4241.71       -137166.05    
    347300   2398.0593      2187.8554      4229.3839     -137164.18    
    347400   2285.1277      5116.4431      4235.1742     -137161.58    
    347500   2474.0341      7045.323       4262.3694     -137163.03    
    347600   2489.6008     -5851.142       4331.5103     -137161.66    
    347700   2506.9867     -4335.8614      4375.5542     -137160.1     
    347800   2455.9223      4067.3804      4392.1126     -137156.65    
    347900   2785.7436      273.74227      4403.2711     -137158.46    
    348000   2826.1078      4206.7913      4423.9865     -137152.98    
    348100   2581.2516     -12508.782      4460.4557     -137155.98    
    348200   2436.4923     -7815.9266      4444.6301     -137155.81    
    348300   2528.9767      634.37687      4383.2693     -137161.97    
    348400   2481.5033      5279.3615      4323.566      -137166.2     
    348500   2486.7594     -4364.7234      4286.2687     -137172.12    
    348600   2219.034       4241.8248      4234.6688     -137170.19    
    348700   2358.751       10248.203      4208.6565     -137169.88    
    348800   2537.8796     -2646.8186      4253.153      -137165.27    
    348900   2510.3686      12871.582      4317.0783     -137161.22    
    349000   2465.3794     -7229.9491      4431.6819     -137158.98    
    349100   2505.39       -10727.913      4507.555      -137156.22    
    349200   2895.5847     -9798.3074      4501.8138     -137158.9     
    349300   2610.4232     -4334.144       4446.7601     -137155.28    
    349400   2474.6435      382.2606       4357.4855     -137157.99    
    349500   2522.4705      3785.1404      4267.8123     -137161.41    
    349600   2312.095       16385.966      4217.3982     -137159.14    
    349700   2348.044       6555.0391      4255.7858     -137161       
    349800   2702.4787     -6201.9456      4340.3226     -137162.78    
    349900   2528.4933     -1448.4876      4399.7332     -137152.28    
    350000   2472.9719     -5301.2753      4423.9552     -137153.39    
    350100   2406.4916     -4248.2582      4392.309      -137160.79    
    350200   2518.4448      3184.2347      4344.9437     -137163.69    
    350300   2401.3092      7508.7103      4330.7942     -137158.89    
    350400   2413.3703     -3929.5587      4332.0443     -137159       
    350500   2527.1646     -799.39221      4300.1703     -137161.69    
    350600   2425.015       5865.0814      4260.5652     -137159.44    
    350700   2369.6919      6513.7581      4257.9959     -137160.37    
    350800   2436.504      -2031.4496      4256.9306     -137165.15    
    350900   2428.8555      1794.3503      4239.8374     -137162.85    
    351000   2675.3971      10996.81       4245.9497     -137161.33    
    351100   2494.4697      6865.7971      4311.1323     -137156.6     
    351200   2354.9893     -2390.3635      4401.0422     -137156.83    
    351300   2166.45       -18712.382      4435.0428     -137158.28    
    351400   2536.9512     -1357.2168      4344.9275     -137166.02    
    351500   2664.8632      12087.191      4260.7331     -137161.9     
    351600   2664.2328      2609.3059      4264.3595     -137163.66    
    351700   2423.6465      2720.8756      4297.4862     -137163.71    
    351800   2317.9606      5147.8498      4337.7849     -137162.41    
    351900   2515.2714     -11596.916      4393.6306     -137165.22    
    352000   2438.9804      3301.6758      4404.6544     -137158.88    
    352100   2566.0123     -8328.4655      4409.4682     -137157.3     
    352200   2552.4929      1262.4838      4363.1031     -137157.02    
    352300   2482.5753      3460.747       4316.9325     -137166.27    
    352400   2361.0948     -677.49515      4283.5861     -137165.71    
    352500   2629.7097      1660.8857      4255.0438     -137167.71    
    352600   2645.4709      10175.441      4265.8369     -137163.84    
    352700   2482.5622     -5610.3378      4325.9743     -137164.9     
    352800   2265.7261     -8185.5388      4350.0585     -137165.38    
    352900   2438.7856      2294.0307      4320.4848     -137167.28    
    353000   2412.5531      3791.717       4296.6603     -137163.58    
    353100   2609.0317     -1674.2496      4295.683      -137164.3     
    353200   2569.3499      8184.8073      4320.6621     -137161.7     
    353300   2315.8771     -4629.6596      4366.0036     -137162.99    
    353400   2166.5443     -1283.3797      4374.4038     -137161.78    
    353500   2471.5266     -1691.6707      4361.9401     -137163.71    
    353600   2429.9467     -8641.5858      4323.2528     -137159.52    
    353700   2467.2926      13237.273      4256.4076     -137159.36    
    353800   2649.7721      10478.276      4248.8061     -137163.87    
    353900   2334.5834      3175.0066      4312.9633     -137157.43    
    354000   2399.0557     -8071.0868      4406.0454     -137162.39    
    354100   2618.7651     -12846.143      4445.1536     -137164.64    
    354200   2562.2142     -719.51861      4424.3082     -137157.48    
    354300   2555.4706     -1258.2367      4407.9346     -137157.45    
    354400   2423.9118     -5709.4193      4365.7981     -137164.09    
    354500   2267.8667      6371.955       4275.4954     -137162.97    
    354600   2514.8242      16801.438      4219.8645     -137165.38    
    354700   2511.025       2925.2222      4252.1745     -137161.63    
    354800   2548.134       2399.6919      4322.6806     -137161.46    
    354900   2478.108      -5205.7055      4407.4297     -137158.79    
    355000   2522.7833     -9012.0133      4443.4448     -137154.54    
    355100   2634.8728      387.03046      4415.2444     -137153.7     
    355200   2574.6916     -7134.8922      4354.422      -137160.32    
    355300   2505.6513      12177.004      4267.7643     -137164.29    
    355400   2368.5919      11405.332      4247.5712     -137164.64    
    355500   2273.7543      3447.3449      4299.9668     -137160.74    
    355600   2578.1588     -1225.8345      4382.6831     -137160.41    
    355700   2515.9568     -10218.589      4457.1788     -137158.76    
    355800   2605.7313     -23455.533      4447.0366     -137160.53    
    355900   2643.9036      7343.927       4326.3597     -137160.54    
    356000   2446.2633      8183.3383      4256.5364     -137165.86    
    356100   2279.8281     -609.46656      4269.1657     -137162.7     
    356200   2510.6982      561.48803      4294.3779     -137162.71    
    356300   2413.6436      7027.8618      4342.2112     -137156.71    
    356400   2598.2872     -9331.152       4406.7722     -137163.08    
    356500   2256.0431     -5442.1569      4417.9274     -137161.91    
    356600   2359.1396     -10183.656      4370.4163     -137164.98    
    356700   2662.8264      4870.709       4281.6664     -137161.29    
    356800   2598.4583      16071.734      4241.532      -137161.58    
    356900   2392.3161     -1036.0875      4286.273      -137163.06    
    357000   2340.9206     -1590.2959      4340.9667     -137162.39    
    357100   2515.8144     -1023.1974      4378.9109     -137160.52    
    357200   2523.8935     -6279.1031      4397.1945     -137154.5     
    357300   2659.3303      1543.3629      4364.1288     -137160.31    
    357400   2610.981       4136.8492      4335.4894     -137163.66    
    357500   2277.2646      1422.6252      4319.6187     -137158       
    357600   2462.5891      2316.9911      4296.6463     -137162.81    
    357700   2495.8468     -850.18027      4283.055      -137163.82    
    357800   2417.9613      11325.375      4282.2979     -137163.62    
    357900   2468.0397     -1427.4568      4337.2252     -137165.22    
    358000   2492.0911     -8599.4196      4384.0556     -137162.41    
    358100   2655.9699      7890.632       4404.3979     -137159.77    
    358200   2752.7553     -13038.929      4463.9749     -137160.21    
    358300   2503.7335     -16398.055      4481.9501     -137156.31    
    358400   2385.5025     -4753.0127      4400.3674     -137162.03    
    358500   2355.3473      6771.2535      4301.0881     -137160.75    
    358600   2737.101       12244.339      4252.7227     -137165.52    
    358700   2660.5377      7034.8634      4277.81       -137161.65    
    358800   2458.2842     -8526.2999      4330.0642     -137165.1     
    358900   2453.1478     -15751.161      4341.8334     -137164.84    
    359000   2504.4008      6145.0268      4283.2205     -137160.13    
    359100   2721.7447      2191.1222      4242.9462     -137165.04    
    359200   2496.1498      1614.8235      4243.5287     -137167.01    
    359300   2431.2082      2050.0843      4282.0432     -137165.25    
    359400   2426.0562     -2040.4206      4328.5789     -137160.69    
    359500   2713.1321      1253.6815      4343.9294     -137162.55    
    359600   2585.8294      1762.0216      4376.3496     -137160.15    
    359700   2271.0783     -9062.2644      4417.5661     -137159.28    
    359800   2404.7651     -7077.7726      4396.4915     -137164.49    
    359900   2676.8142      7015.1666      4344.8142     -137160.92    
    360000   2776.6354     -518.43432      4326.4483     -137161.77    
    360100   2558.7826     -1753.5638      4340.1696     -137164.73    
    360200   2348.6357     -7925.876       4362.5108     -137162.72    
    360300   2523.8386     -8753.9827      4370.4896     -137162.08    
    360400   2582.5872     -893.4787       4360.9882     -137158.27    
    360500   2694.9371      264.6289       4344.4851     -137161.96    
    360600   2509.1617     -2299.0716      4320.3858     -137164.41    
    360700   2420.3119      4380.3025      4283.7554     -137164.65    
    360800   2357.3514      7061.8154      4252.9516     -137161.24    
    360900   2551.8043     -3445.7184      4254.1929     -137162.29    
    361000   2695.5686      8801.4836      4272.6332     -137161.44    
    361100   2526.2844      570.65073      4348.3894     -137159.86    
    361200   2226.0177     -19796.737      4432.38       -137160.36    
    361300   2457.0836     -8575.974       4406.6151     -137164.06    
    361400   2496.8667      9815.667       4325.6501     -137160.89    
    361500   2573.4238      367.43859      4284.7507     -137162.47    
    361600   2592.7574      3675.8014      4271.0723     -137165.63    
    361700   2363.4647     -8088.0155      4285.9793     -137168.88    
    361800   2399.6527     -10.785775      4285.5378     -137169.47    
    361900   2390.9155      3457.6209      4289.7048     -137162.74    
    362000   2512.4836      2961.0489      4302.9872     -137163.43    
    362100   2423.8244     -12051.99       4339.1602     -137160.14    
    362200   2598.7768     -1262.2421      4343.5636     -137161.63    
    362300   2577.1874      13088.906      4338.5659     -137157.97    
    362400   2595.5075     -3017.2039      4367.2877     -137155.81    
    362500   2630.9441     -6805.8286      4371.065      -137159.27    
    362600   2467.7968      4776.3622      4337.3673     -137162.18    
    362700   2316.794      -208.36019      4298.4871     -137162.61    
    362800   2382.881       8397.3141      4231.1226     -137163.77    
    362900   2829.5425      3852.6665      4210.9357     -137165.96    
    363000   2815.6097      1831.9063      4268.5515     -137164.72    
    363100   2393.252      -5315.929       4377.6745     -137158.25    
    363200   2537.1578     -25258.929      4430.2226     -137163.52    
    363300   2462.5184      6802.4898      4370.2577     -137159.55    
    363400   2811.7419      3260.6792      4345.7997     -137161.62    
    363500   2676.4329      6462.0005      4370.4313     -137160.06    
    363600   2183.8936     -4940.8026      4429.2009     -137155.76    
    363700   2403.0563     -3292.7589      4442.274      -137159.62    
    363800   2502.362       1486.6012      4425.5799     -137156.68    
    363900   2606.922      -2073.0607      4400.3589     -137156.47    
    364000   2456.2026     -5127.5802      4361.9263     -137159.19    
    364100   2395.9763      2408.8673      4313.2072     -137166.35    
    364200   2321.9798      4911.694       4282.3889     -137162.13    
    364300   2592.4996      2125.3544      4275.5528     -137162.95    
    364400   2620.762       1632.7597      4289.0394     -137161.05    
    364500   2460.5416     -4030.0013      4308.7072     -137159.57    
    364600   2340.7397     -7731.0744      4297.4742     -137164.91    
    364700   2374.9278      10837.435      4237.354      -137165.68    
    364800   2573.4344      11691.392      4199.1941     -137161.94    
    364900   2682.9332      9731.1492      4238.8454     -137161.28    
    365000   2402.3711     -5168.0331      4372.3349     -137157.16    
    365100   2436.6595     -10882.738      4494.7192     -137157.9     
    365200   2385.5        -13356.892      4522.7989     -137153.37    
    365300   2753.6001     -2449.1092      4451.2367     -137153.71    
    365400   2736.4298      1183.3366      4370.5437     -137154.82    
    365500   2565.8191      6376.4744      4288.5509     -137158       
    365600   2482.4628      12297.901      4224.3978     -137159.91    
    365700   2595.3797      9267.407       4230.6896     -137168.09    
    365800   2325.8634     -2450.1386      4294.947      -137164.29    
    365900   2393.1938     -4115.4538      4349.3969     -137157.57    
    366000   2742.6077     -1597.8542      4367.4948     -137164.2     
    366100   2451.3986      6873.3556      4363.8419     -137160.28    
    366200   2291.1649     -5204.1122      4374.4048     -137158.76    
    366300   2602.4535      1872.2137      4367.4574     -137162.12    
    366400   2548.0244      7788.2676      4386.7119     -137156.17    
    366500   2388.0036      1542.9628      4444.2979     -137157.71    
    366600   2383.0042     -18714.571      4490.9196     -137158.77    
    366700   2566.4256      701.10418      4445.6434     -137161.3     
    366800   2577.9046      3973.053       4381.6296     -137158.75    
    366900   2536.8001      1163.7405      4315.9243     -137158.49    
    367000   2552.0807     -1976.512       4257.494      -137168.58    
    367100   2353.4275      1221.9443      4201.7159     -137166.68    
    367200   2478.6813      12365.912      4134.4323     -137166.95    
    367300   2406.0854      16099.829      4124.713      -137164.72    
    367400   2534.7073      1314.0287      4204.9553     -137166.81    
    367500   2573.334      -8928.447       4330.4477     -137161.35    
    367600   2662.9101     -7406.2852      4428.6282     -137159.16    
    367700   2513.7691     -8171.7569      4484.8253     -137157.86    
    367800   2273.1999     -14839.206      4484.2083     -137158.33    
    367900   2510.1969     -5133.3294      4377.38       -137162.17    
    368000   2719.2918      8603.9541      4240.8255     -137162       
    368100   2697.1923      15784.908      4185.2861     -137164.18    
    368200   2396.3183      5720.5981      4226.9833     -137164.8     
    368300   2477.0732     -5616.8775      4297.7445     -137169.34    
    368400   2525.7305     -13118.719      4354.909      -137166.05    
    368500   2555.8878      4226.5579      4381.2124     -137159.34    
    368600   2543.1425      1436.4582      4434.769      -137156.99    
    368700   2612.9617     -7170.0581      4496.8093     -137159.59    
    368800   2463.2211     -13910.256      4524.0566     -137159.33    
    368900   2344.8874     -11226.778      4462.6465     -137162.51    
    369000   2378.691      -1355.286       4340.4072     -137168.56    
    369100   2475.2717      2041.6365      4224.6394     -137167.5     
    369200   2465.6391      23708.661      4167.7644     -137159.71    
    369300   2509.5977     -826.01891      4237.9186     -137160.88    
    369400   2424.9476     -3521.0226      4331.2167     -137160.73    
    369500   2451.6897     -10859.138      4405.4581     -137158.44    
    369600   2706.6525     -530.46611      4427.4829     -137156.04    
    369700   2688.4777     -11019.312      4424.9733     -137156.58    
    369800   2420.3317     -1147.1973      4360.1318     -137157.23    
    369900   2205.647       10425.619      4292.1508     -137155.16    
    370000   2653.8983      3135.0066      4282.1486     -137164.85    
    370100   2585.4196     -2805.2161      4297.5447     -137160.46    
    370200   2690.4317      847.79572      4315.9778     -137159.56    
    370300   2521.7187      3541.3577      4347.4849     -137158.47    
    370400   2417.9697     -6888.6376      4374.9351     -137163.71    
    370500   2391.9774     -6171.0404      4354.2231     -137164.76    
    370600   2633.4035      2137.6542      4310.7938     -137165.7     
    370700   2541.6322      3372.5988      4290.9695     -137159.81    
    370800   2537.6494      2782.4594      4289.4102     -137163.21    
    370900   2479.111      -4518.1399      4301.0451     -137164.7     
    371000   2343.4673      4778.9671      4283.1712     -137160.61    
    371100   2453.6957      6836.9997      4244.4526     -137161.84    
    371200   2625.6071      2498.9264      4237.0895     -137166.87    
    371300   2271.7962     -8239.258       4283.5207     -137162.13    
    371400   2392.9074     -1761.0087      4307.5268     -137164.26    
    371500   2709.8123      4313.852       4319.6745     -137163.94    
    371600   2625.0396      486.91395      4357.4632     -137163.29    
    371700   2421.8196     -8494.4089      4383.7462     -137161.22    
    371800   2472.7471     -6590.179       4341.7529     -137161.37    
    371900   2434.1337      7974.3547      4276.0183     -137158.6     
    372000   2542.2086      12028.075      4252.434      -137162.17    
    372100   2406.1897     -1968.1001      4281.4782     -137163.51    
    372200   2379.8449     -3185.9737      4291.0894     -137166.56    
    372300   2269.8672      7180.8755      4279.9717     -137164.82    
    372400   2334.0074      2799.252       4285.1711     -137162.69    
    372500   2638.1024      12.253071      4303.3872     -137162.61    
    372600   2572.4769      2679.7877      4323.2835     -137159.08    
    372700   2506.0693     -4116.8552      4326.5654     -137161.2     
    372800   2401.4494     -1931.098       4282.9024     -137165.06    
    372900   2455.8056      9224.9581      4242.5337     -137167.51    
    373000   2770.6559     -2483.353       4259.2648     -137167.67    
    373100   2796.1636      2993.2697      4289.9375     -137165.28    
    373200   2452.9436     -13174.441      4342.9806     -137162.87    
    373300   2405.2345      3646.263       4369.4624     -137163.12    
    373400   2447.6076     -10534.118      4394.3112     -137160.41    
    373500   2711.6868     -538.56598      4366.6441     -137158.34    
    373600   2739.254       4770.5076      4328.8979     -137158.62    
    373700   2748.1693      20.920083      4327.8998     -137164.97    
    373800   2422.9585     -13374.712      4330.5582     -137163.09    
    373900   2397.1347      8006.3067      4257.3055     -137163.71    
    374000   2372.7793      9181.4192      4205.5158     -137159.67    
    374100   2474.2242      15997.532      4207.665      -137153.38    
    374200   2703.4235      5062.9799      4297.1057     -137158.69    
    374300   2330.951      -12504.19       4420.7737     -137155.94    
    374400   2335.3739     -8541.1854      4466.0157     -137154.44    
    374500   2718.7802     -7983.9436      4443.8429     -137159.79    
    374600   2522.847       9519.0036      4374.2318     -137157.37    
    374700   2497.2058      4381.4597      4345.1466     -137162.8     
    374800   2472.2422     -6874.2125      4357.8898     -137162.62    
    374900   2390.2951     -4794.57        4359.0384     -137158.48    
    375000   2435.1748      2618.5914      4330.8444     -137158.51    
    375100   2628.4199      10129.631      4294.1124     -137165.5     
    375200   2324.377      -273.68718      4296.3249     -137164.22    
    375300   2314.3875     -7808.7912      4295.7508     -137162.45    
    375400   2524.3276      6894.3535      4257.8081     -137162.96    
    375500   2524.0797      2687.0973      4253.8379     -137161.6     
    375600   2530.3189      3952.5085      4269.5955     -137162.47    
    375700   2448.2257     -3445.1154      4295.21       -137163.61    
    375800   2249.7308     -2440.2278      4289.8083     -137164.81    
    375900   2296.0086     -2336.8161      4251.2864     -137165.16    
    376000   2575.5         6259.8148      4217.1794     -137161.97    
    376100   2672.0348      6117.5322      4233.957      -137165.08    
    376200   2371.8783      4288.7276      4293.5524     -137164.29    
    376300   2268.9912     -10355.92       4356.5657     -137161.58    
    376400   2467.8441      6679.7166      4375.0217     -137159.57    
    376500   2532.1794     -2966.7123      4397.6443     -137159.39    
    376600   2682.9077     -8392.201       4406.4914     -137163.69    
    376700   2354.5435     -10281.795      4380.4789     -137158.69    
    376800   2166.1659     -3229.8532      4280.4826     -137163.1     
    376900   2332.8517      9184.612       4146.0322     -137167.32    
    377000   2625.0735      26171.314      4064.7141     -137170.85    
    377100   2391.6872      13748.605      4127.3751     -137166.37    
    377200   2212.2657     -8307.5082      4278.7945     -137166.11    
    377300   2270.7026     -18307.988      4379.3277     -137161.53    
    377400   2554.7433      1137.336       4354.3282     -137160.17    
    377500   2629.9424      11973.287      4330.6148     -137158.09    
    377600   2520.9632     -98.633541      4360.8535     -137160.26    
    377700   2254.6412     -5900.0298      4386.9078     -137157.88    
    377800   2496.5665     -7475.8507      4363.9211     -137162.72    
    377900   2676.6155     -2189.2568      4305.1152     -137158.53    
    378000   2897.056       7596.4925      4260.874      -137161.32    
    378100   2717.6248     -6657.8649      4261.4252     -137164.96    
    378200   2464.7233      10713.844      4270.2426     -137164.65    
    378300   2416.4554     -11202.548      4339.3307     -137166.15    
    378400   2521.1452     -12361.421      4361.5033     -137165.04    
    378500   2569.6787      620.40205      4361.4256     -137157.96    
    378600   2503.3514     -7563.2483      4364.9576     -137156.91    
    378700   2439.7472      3133.1682      4328.8252     -137158.93    
    378800   2291.415       1419.1418      4300.5476     -137162.14    
    378900   2390.3002     -3088.5396      4277.0549     -137165.63    
    379000   2683.3079      12527.965      4250.8369     -137161.78    
    379100   2733.1593     -2475.344       4282.3412     -137162.05    
    379200   2471.2285     -3006.6606      4307.3457     -137160.06    
    379300   2337.8146     -2096.4648      4308.6514     -137159.01    
    379400   2296.778       5432.8566      4293.3378     -137156.86    
    379500   2613.5948      5117.9697      4299.2319     -137156.55    
    379600   2767.0879      893.81993      4333.1777     -137159.96    
    379700   2410.2534     -2352.2488      4363.0056     -137158.29    
    379800   2378.4876     -9229.3218      4370.597      -137158.53    
    379900   2376.8193      4675.7335      4336.0897     -137156.21    
    380000   2622.2383      194.21457      4309.0122     -137159.42    
    380100   2377.4603      6155.3815      4297.9527     -137158.86    
    380200   2428.1426     -7124.0257      4299.3678     -137167.01    
    380300   2291.2672      2950.4661      4277.1652     -137162.22    
    380400   2533.1313      3238.1111      4265.0323     -137163.28    
    380500   2466.6038      1445.9102      4276.2183     -137160.03    
    380600   2402.8819      2654.5275      4296.299      -137158.25    
    380700   2542.4464      4040.3926      4307.6882     -137161.47    
    380800   2498.3666      3783.131       4321.5227     -137160.48    
    380900   2408.065      -5899.8462      4353.7305     -137162.01    
    381000   2297.7463      1813.0737      4361.8687     -137161.11    
    381100   2497.0385      627.69699      4354.5152     -137160.14    
    381200   2661.0536     -4574.1896      4345.9018     -137160.82    
    381300   2459.2752      5019.2365      4320.3807     -137158.67    
    381400   2205.8742     -1536.2156      4302.5997     -137159.22    
    381500   2367.7561     -3452.2735      4276.1337     -137169.68    
    381600   2506.4763     -101.19253      4243.5661     -137167.31    
    381700   2583.4525      7371.6424      4216.51       -137161.35    
    381800   2496.6449      10679.502      4225.9141     -137161.71    
    381900   2497.8926      1390.4678      4291.6503     -137163.73    
    382000   2476.7426     -3902.4011      4372.3353     -137162.46    
    382100   2408.0576     -5470.5023      4439.9365     -137154.84    
    382200   2756.9219     -13881.44       4485.1057     -137156.07    
    382300   2668.0652     -5062.6183      4485.2868     -137155.64    
    382400   2484.6718     -5990.0431      4457.9509     -137158.95    
    382500   2533.3828     -6041.7798      4402.7256     -137161.55    
    382600   2557.8546     -1778.6897      4326.5153     -137162.16    
    382700   2686.1358      200.63748      4246.9721     -137166.39    
    382800   2458.0532      6520.2683      4194.3822     -137165.9     
    382900   2311.9422     -3384.5688      4192.2216     -137167.28    
    383000   2454.1115      6215.4801      4208.9329     -137165.71    
    383100   2625.814       98.727516      4286.0943     -137165.01    
    383200   2478.9231     -8509.385       4373.0937     -137162.48    
    383300   2529.8356     -11154.072      4404.5798     -137164.27    
    383400   2772.2175     -3178.054       4369.2231     -137163.15    
    383500   2567.9194      9815.4229      4322.4709     -137154.04    
    383600   2489.0097      7184.2363      4308.1747     -137157.98    
    383700   2452.2248      5978.4765      4306.3307     -137160.56    
    383800   2477.3538     -2500.2643      4318.1426     -137162.17    
    383900   2479.3684      2456.624       4327.3192     -137161.68    
    384000   2747.5836     -3305.4511      4355.6542     -137163.84    
    384100   2722.4767      1004.9066      4396.6277     -137156.94    
    384200   2490.2981     -10680.451      4428.3551     -137153.94    
    384300   2421.728       4715.6681      4377.7226     -137161.12    
    384400   2526.8393      1836.8218      4303.6825     -137165.01    
    384500   2600.9149      1767.8553      4242.452      -137164.67    
    384600   2694.9417      5594.057       4217.4463     -137162.46    
    384700   2698.5742      14740.31       4248.4929     -137159.68    
    384800   2376.1447      128.6993       4342.6397     -137161.44    
    384900   2361.4077     -12846.423      4438.4593     -137162.64    
    385000   2494.811      -11967.166      4464.0973     -137158.57    
    385100   2693.2485     -4165.9882      4418.9091     -137159.97    
    385200   2637.0609     -147.36827      4347.6392     -137160.96    
    385300   2408.5847      2962.1096      4273.4779     -137162.15    
    385400   2320.2446      12146.691      4220.6622     -137163.08    
    385500   2474.99        3710.7522      4216.8136     -137166       
    385600   2474.7984      4120.7904      4248.0638     -137164.99    
    385700   2518.23        2108.0912      4301.1167     -137164.55    
    385800   2570.1851      4047.9189      4352.7044     -137159.16    
    385900   2519.9797      8945.0609      4408.4366     -137151.56    
    386000   2584.9605     -14559.348      4485.5276     -137154.21    
    386100   2518.957      -12839.599      4489.2411     -137162.1     
    386200   2396.0685     -7788.306       4409.9612     -137161.85    
    386300   2472.733      -6151.0403      4289.895      -137160.4     
    386400   2637.0699      13399.489      4174.0202     -137162.12    
    386500   2521.9921      21103.864      4162.3434     -137162.15    
    386600   2387.436      -2590.3789      4256.203      -137162.14    
    386700   2417.5148     -9948.2467      4335.758      -137163.12    
    386800   2589.6255     -4215.6041      4359.0902     -137164.71    
    386900   2669.3045      161.59142      4352.8141     -137162.64    
    387000   2403.2985      1486.1769      4359.9467     -137159.59    
    387100   2324.201      -5445.0419      4387.0404     -137165.1     
    387200   2153.5281      1924.2642      4400.5693     -137157.35    
    387300   2495.3449     -6363.4559      4385.9053     -137160.57    
    387400   2614.9772      1182.8285      4328.5753     -137162.47    
    387500   2436.944       3451.6115      4287.5206     -137158.93    
    387600   2443.5669      1308.5303      4265.3704     -137163.13    
    387700   2367.652       4464.2014      4258.7745     -137165.98    
    387800   2314.6299      3527.4026      4275.4521     -137164.82    
    387900   2576.1016     -3018.8287      4307.4966     -137163.57    
    388000   2648.2922      4159.4301      4344.1268     -137161.91    
    388100   2443.1368     -4095.2514      4386.3315     -137156.41    
    388200   2677.3099      600.33535      4397.8558     -137157.12    
    388300   2707.7258     -9234.1386      4407.0309     -137152.75    
    388400   2457.5298     -4601.9227      4380.926      -137155.98    
    388500   2518.1844      3260.956       4324.237      -137163.31    
    388600   2411.1036     -206.19929      4269.0201     -137163.32    
    388700   2313.7132      12676.441      4256.4914     -137159.95    
    388800   2563.2356      6088.5279      4317.8768     -137158.48    
    388900   2606.5924     -3984.4037      4399.2728     -137158.88    
    389000   2425.6797     -10333.879      4442.9627     -137158.23    
    389100   2465.7746     -5167.4855      4419.5239     -137159.11    
    389200   2424.9485     -4314.5672      4341.8844     -137158.31    
    389300   2622.6219      8270.1887      4255.938      -137164.13    
    389400   2205.116       7553.1362      4224.077      -137161.83    
    389500   2320.4159      3235.9917      4236.2881     -137165.82    
    389600   2434.7014      4273.8936      4285.5053     -137162.97    
    389700   2575.8599     -6600.9966      4328.263      -137162.18    
    389800   2503.0121     -2934.2174      4313.4571     -137161.45    
    389900   2353.9477      9495.649       4289.2273     -137160.4     
    390000   2184.3074     -8541.3787      4290.8363     -137166.1     
    390100   2337.9873     -185.39023      4252.4499     -137170.38    
    390200   2617.4362      5733.6929      4226.8858     -137170.24    
    390300   2587.0077     -1817.7548      4264.3634     -137166.93    
    390400   2271.6675      4764.9008      4305.5978     -137159.59    
    390500   2419.5085     -1276.7147      4339.5197     -137160.55    
    390600   2677.0394      9603.1473      4366.4177     -137157.69    
    390700   2650.2571     -12140.144      4440.401      -137157.13    
    390800   2397.9045     -4874.6977      4456.5834     -137155.77    
    390900   2523.4619     -11181.476      4408.9312     -137162.23    
    391000   2522.0896      3676.6081      4332.2517     -137161.74    
    391100   2507.06        795.77086      4296.818      -137161.89    
    391200   2455.874       1468.445       4274.1417     -137163.13    
    391300   2232.2796      219.63322      4256.2418     -137163.36    
    391400   2189.6868      4343.6338      4232.3593     -137167.68    
    391500   2418.8937      10375.503      4232.0581     -137166.58    
    391600   2534.3707     -355.02381      4290.0804     -137164.93    
    391700   2354.1121     -714.62508      4357.9755     -137158.34    
    391800   2352.0647      118.39553      4402.9516     -137155.41    
    391900   2652.6183     -6272.7484      4405.1207     -137155.52    
    392000   2595.9761      9321.8107      4372.3324     -137153.98    
    392100   2433.8021      420.41618      4375.3037     -137158.63    
    392200   2451.5244      1134.1833      4358.0728     -137160.26    
    392300   2546.274      -27.667222      4328.7383     -137160.6     
    392400   2474.179       8229.9096      4299.8958     -137156.65    
    392500   2625.1083      2647.8685      4296.2212     -137163       
    392600   2413.9377     -2028.6209      4306.2889     -137165.46    
    392700   2340.1115      2334.6601      4311.4736     -137163.23    
    392800   2561.714       3310.1417      4331.8095     -137162.8     
    392900   2421.612      -1612.6487      4370.0391     -137157.79    
    393000   2555.345      -11886.674      4380.4873     -137160.76    
    393100   2621.9912      6116.5154      4357.0215     -137159.94    
    393200   2409.6241      8705.9625      4366.4233     -137158.28    
    393300   2303.6277     -5936.4153      4411.9145     -137164.11    
    393400   2282.1768     -2451.7798      4431.146      -137159.89    
    393500   2387.6641     -1669.3494      4423.2076     -137156.36    
    393600   2692.763      -4305.0383      4375.8282     -137161.83    
    393700   2589.4261      8591.4916      4308.4282     -137163.64    
    393800   2361.4123      7278.0303      4292.5126     -137165.16    
    393900   2417.2785     -28.044305      4311.3546     -137166.81    
    394000   2424.9871      3283.6607      4339.6441     -137163.15    
    394100   2517.5776     -9015.7319      4376.2662     -137161.14    
    394200   2574.3179     -1317.7067      4364.0677     -137161.28    
    394300   2441.2813      3764.8122      4330.0908     -137163.14    
    394400   2295.9959     -7862.8965      4282.7101     -137167.42    
    394500   2356.5833      7360.0398      4198.6279     -137163.02    
    394600   2486.0296      15579.883      4148.2976     -137160.3     
    394700   2612.4198      12609.277      4175.1298     -137164.79    
    394800   2402.3612     -5390.2713      4280.1722     -137162.06    
    394900   2420.5031     -2693.4458      4372.8698     -137152.71    
    395000   2776.9214     -13246.33       4425.4329     -137158.3     
    395100   2515.9781     -7039.7193      4422.502      -137158.07    
    395200   2443.6124      3724.5298      4362.9644     -137159.76    
    395300   2534.453       372.6743       4296.1307     -137164.06    
    395400   2337.8671     -1595.5762      4256.0779     -137165.73    
    395500   2291.0759      1824.9438      4218.9811     -137168.2     
    395600   2540.9012      4327.5841      4188.6508     -137164.56    
    395700   2607.6695      1883.518       4180.6519     -137163.44    
    395800   2565.7759      458.46727      4206.1241     -137165.76    
    395900   2316.5969     -3787.4516      4264.5597     -137163.38    
    396000   2368.7823      163.65788      4297.5855     -137162.1     
    396100   2583.6374      1046.4689      4316.6023     -137157.93    
    396200   2474.0434      554.60694      4363.5197     -137155.19    
    396300   2532.514      -4159.2101      4412.1057     -137158.42    
    396400   2444.8985     -7851.1085      4417.928      -137161.25    
    396500   2249.6245     -12777.344      4373.7231     -137162.96    
    396600   2427.1132      287.14505      4272.9599     -137162.08    
    396700   2698.5056      14893.171      4202.9907     -137162.57    
    396800   2624.698       4904.8971      4227.295      -137166       
    396900   2315.825      -854.83143      4284.06       -137162.87    
    397000   2529.7095     -337.92983      4325.3396     -137165.66    
    397100   2547.0126     -8235.4296      4358.9971     -137158.7     
    397200   2662.4652     -294.54384      4384.2129     -137157.82    
    397300   2594.8554     -2855.1695      4412.8856     -137159.05    
    397400   2365.8464     -1563.7945      4426.8015     -137155.8     
    397500   2548.5822     -4898.6831      4406.913      -137161.71    
    397600   2276.1236      7625.5982      4341.7649     -137157       
    397700   2492.4134      3842.3021      4285.7141     -137160.33    
    397800   2603.1177      15686.182      4267.71       -137157.96    
    397900   2534.501       2688.3653      4329.3709     -137161.51    
    398000   2339.4255     -2852.3193      4415.0482     -137162.49    
    398100   2367.8294     -6671.1686      4489.6989     -137161.22    
    398200   2376.244      -11753.804      4524.4261     -137155.81    
    398300   2567.9088     -3876.513       4468.4461     -137157.49    
    398400   2533.3936      5870.0033      4364.507      -137155.85    
    398500   2429.8884      7596.7501      4257.5353     -137159.92    
    398600   2269.2077      15494.603      4181.0046     -137162.8     
    398700   2441.4165      10077.647      4175.7818     -137167.2     
    398800   2393.1882      8729.1247      4243.1636     -137163.5     
    398900   2553.2868     -7307.811       4368.5646     -137161.35    
    399000   2476.541      -8629.7032      4472.7426     -137153.46    
    399100   2480.2995     -8715.0286      4498.0775     -137153.11    
    399200   2571.3192     -1736.8367      4437.6502     -137158.69    
    399300   2511.3223      2664.1536      4372.1465     -137163.22    
    399400   2431.1506      826.06092      4333.7291     -137169.37    
    399500   2399.4135     -12796.185      4295.0417     -137167.16    
    399600   2423.6156      10423.102      4234.6288     -137162.4     
    399700   2480.0776      3956.3645      4249.0905     -137159.92    
    399800   2612.6845     -302.57391      4290.9966     -137161.96    
    399900   2570.205      -1917.8067      4329.912      -137166.02    
    400000   2330.5376     -863.753        4363.851      -137167.52    
    400100   2563.9235     -12724.185      4385.6127     -137170.02    
    400200   2379.8893     -9090.706       4379.5001     -137158.61    
    400300   2607.8506      6329.7592      4315.5369     -137160.22    
    400400   2693.5276      5646.2035      4281.427      -137163.77    
    400500   2450.266       1016.0185      4289.1152     -137165.16    
    400600   2294.5577      216.09163      4300.5712     -137161.54    
    400700   2578.689      -4627.901       4316.3547     -137164.74    
    400800   2563.9186     -8226.1453      4321.7399     -137160.42    
    400900   2660.1036     -320.84881      4305.6777     -137159.28    
    401000   2659.4606      857.94023      4315.1646     -137159.78    
    401100   2356.3398     -4511.3535      4355.2149     -137161.57    
    401200   2253.3719     -4281.7475      4372.5945     -137159.54    
    401300   2532.8848     -2022.76        4350.0776     -137160.25    
    401400   2526.2769      13431.317      4324.3819     -137156.1     
    401500   2556.2399      8848.8989      4349.9305     -137158.4     
    401600   2431.1532     -1937.3255      4433.2637     -137161.96    
    401700   2116.4504     -15962.567      4526.7406     -137160.76    
    401800   2362.8691     -12804.571      4509.4381     -137159.84    
    401900   2542.6147      1537.9006      4373.4938     -137161.88    
    402000   2683.1173      6272.6866      4232.3366     -137167.05    
    402100   2505.1909      17458.206      4156.3365     -137168.8     
    402200   2325.7214      2287.0501      4182.9618     -137169.08    
    402300   2346.8927      39.313326      4250.3292     -137165.42    
    402400   2443.081       687.55758      4318.1881     -137161.54    
    402500   2587.6706     -11224.449      4365.8114     -137164.23    
    402600   2628.2913     -7750.8928      4378.5655     -137164.08    
    402700   2441.2479      627.19503      4364.2462     -137156.8     
    402800   2641.7974      9152.3342      4339.5651     -137157.26    
    402900   2555.6642      3749.4144      4354.3063     -137156.64    
    403000   2539.511      -6090.5421      4352.6179     -137164.92    
    403100   2483.4342     -5218.4058      4303.4325     -137167.41    
    403200   2548.748      -5810.1931      4236.0997     -137168.84    
    403300   2748.271       3881.0289      4179.7817     -137171.01    
    403400   2612.3494      5396.4545      4196.8085     -137163.17    
    403500   2635.3942      4530.7652      4255.3647     -137162.05    
    403600   2595.6182     -7569.9888      4351.8435     -137165.92    
    403700   2259.3906     -12646.109      4402.6397     -137160.01    
    403800   2664.2002      3938.4448      4366.1693     -137164.47    
    403900   2659.4708     -1959.7486      4339.5461     -137161.03    
    404000   2562.8592     -266.10897      4323.1741     -137160.85    
    404100   2736.3472     -13424.641      4320.2421     -137167.01    
    404200   2384.5394      5645.7066      4279.6052     -137160.83    
    404300   2358.7368     -1419.0744      4263.6571     -137160.53    
    404400   2634.9943      1863.9972      4257.4449     -137162.34    
    404500   2912.6798      2998.3621      4280.7859     -137159.4     
    404600   2543.069       1740.9523      4346.4013     -137154.39    
    404700   2531.1746     -2414.673       4415.1359     -137156.37    
    404800   2551.8274     -8178.049       4454.545      -137158.54    
    404900   2444.5263     -5131.8846      4439.6158     -137159.32    
    405000   2223.4473     -3087.0513      4365.5139     -137159.81    
    405100   2314.2022      11771.593      4263.0531     -137163.71    
    405200   2634.8215      5773.2342      4237.2696     -137165.76    
    405300   2677.0112      7546.9223      4265.707      -137163.65    
    405400   2446.7219     -1276.976       4322.0045     -137163.9     
    405500   2294.3225     -11750.529      4358.7945     -137164.98    
    405600   2453.5452     -7583.3353      4319.1055     -137164.76    
    405700   2465.2907      10241.363      4256.2992     -137161.66    
    405800   2515.621       4205.1567      4243.4012     -137165.99    
    405900   2280.0566      8859.8858      4261.9435     -137164.06    
    406000   2395.9731      1890.7531      4307.0758     -137165.61    
    406100   2605.011       2001.4667      4361.9132     -137161.86    
    406200   2519.3645     -7056.6696      4415.2077     -137156.97    
    406300   2626.024      -5778.0521      4448.6532     -137159.58    
    406400   2432.1659     -5903.9308      4439.7365     -137156.86    
    406500   2388.8456      1425.1067      4368.4754     -137160.55    
    406600   2291.7838     -7358.4191      4310.6029     -137166.01    
    406700   2413.3564      6386.4316      4242.3341     -137165.79    
    406800   2606.424       17550.915      4220.7319     -137164.56    
    406900   2564.8655     -370.10434      4278.6557     -137163.27    
    407000   2445.7685     -3921.4467      4321.1409     -137161.55    
    407100   2517.3759     -5035.6289      4350.9756     -137161.08    
    407200   2721.3824     -4902.4293      4376.3634     -137157.18    
    407300   2669.4864     -761.44206      4373.8577     -137156.94    
    407400   2510.21        2415.9211      4347.1345     -137160.55    
    407500   2494.7912     -4342.1732      4323.8815     -137161.87    
    407600   2524.1323      3966.1722      4290.2426     -137163.09    
    407700   2557.1473     -1284.505       4258.5279     -137167.15    
    407800   2183.6203      7819.3524      4238.3664     -137166.78    
    407900   2289.1642     -3179.0999      4256.5282     -137167.6     
    408000   2376.9454      10071.492      4273.3367     -137164.1     
    408100   2574.2543     -655.37791      4326.1594     -137165.9     
    408200   2502.1698     -9067.6977      4376.3719     -137161.4     
    408300   2546.8636      3708.2224      4382.9862     -137158.36    
    408400   2755.6966     -3097.147       4388.7348     -137161.26    
    408500   2398.6582     -10461.699      4380.8889     -137159.97    
    408600   2444.6872     -8478.7638      4330.1606     -137164.33    
    408700   2542.9513     -845.27754      4252.3298     -137163.96    
    408800   2878.2018      14543.036      4218.9448     -137163.43    
    408900   2685.1494      3736.6221      4292.1828     -137159.62    
    409000   2504.3122     -7846.3987      4414.069      -137158.34    
    409100   2492.4053     -12582.805      4498.8238     -137157.11    
    409200   2636.3782     -9215.6871      4510.1937     -137155.16    
    409300   2814.9747     -8283.4976      4490.3403     -137155.29    
    409400   2492.0815      276.78835      4439.4602     -137153.25    
    409500   2612.0516     -3729.399       4383.5359     -137160.77    
    409600   2603.3516      1.2708448      4348.4029     -137162.57    
    409700   2359.8693      4458.3809      4324.7083     -137160.88    
    409800   2288.7844      1173.8653      4316.1892     -137160.39    
    409900   2737.763      -648.78686      4322.186      -137165.78    
    410000   2795.7453      1875.5889      4341.5359     -137161.24    
    410100   2567.4549      3384.6807      4382.8857     -137159.87    
    410200   2259.3538     -16909.573      4432.6319     -137159.48    
    410300   2443.2813     -1187.9335      4394.2183     -137162.46    
    410400   2546.6899     -626.62009      4341.6977     -137161.57    
    410500   2620.1455      4084.613       4306.6563     -137162.36    
    410600   2420.2068     -1437.9781      4295.004      -137163.06    
    410700   2381.4953     -6554.002       4276.8256     -137167.48    
    410800   2453.1664     -6185.8147      4236.3562     -137164.54    
    410900   2706.0265      9728.2424      4185.6486     -137167.93    
    411000   2596.756       5200.933       4201.9369     -137166.94    
    411100   2401.5501      3347.6202      4255.9618     -137164.36    
    411200   2382.154       5968.3482      4324.5077     -137163.58    
    411300   2568.4893     -10274.971      4408.8069     -137160.55    
    411400   2592.4978     -4769.9626      4439.1977     -137155.39    
    411500   2484.0295     -4103.0491      4425.7348     -137156.59    
    411600   2589.5679      5436.9193      4388.3831     -137162.13    
    411700   2369.881       3620.7643      4359.8469     -137159.69    
    411800   2402.0148     -2736.1375      4347.0814     -137161.9     
    411900   2500.3067      5631.5727      4336.2546     -137157.82    
    412000   2588.3655      2099.3645      4332.5257     -137156.13    
    412100   2615.634       2911.7162      4342.8203     -137160.78    
    412200   2253.4645     -10200.318      4366.3578     -137158.61    
    412300   2417.0456      2404.478       4325.0283     -137162.91    
    412400   2460.7737      1212.5975      4310.3141     -137160.37    
    412500   2579.9568      1903.1741      4316.2726     -137160.85    
    412600   2526.5925     -3273.1938      4312.5326     -137160.98    
    412700   2523.4848      2015.7235      4280.2936     -137164.2     
    412800   2487.2231      263.96074      4248.4114     -137167.08    
    412900   2385.2283      1233.2451      4230.917      -137170.93    
    413000   2233.0497     -6628.8026      4224.8136     -137172.77    
    413100   2437.975       550.06355      4211.5675     -137170.18    
    413200   2383.0126      4482.9444      4212.9442     -137163.68    
    413300   2603.1984      7343.9213      4242.262      -137164.69    
    413400   2555.1544     -7912.8717      4333.61       -137160.54    
    413500   2592.136      -6392.8833      4414.7826     -137160.37    
    413600   2530.5741     -2038.6299      4459.2348     -137161.5     
    413700   2289.9323     -12322.946      4456.8196     -137158.87    
    413800   2560.1294      6720.5093      4361.2814     -137161.89    
    413900   2547.6897      6456.4809      4273.8076     -137157.08    
    414000   2612.2847      12160.269      4218.6777     -137162.42    
    414100   2456.6778      1787.4596      4234.2417     -137169.16    
    414200   2319.1591      935.27086      4277.7722     -137165.76    
    414300   2518.7674     -2239.1752      4328.4557     -137164.76    
    414400   2434.3703      4431.9654      4394.7717     -137157.11    
    414500   2562.0597      2374.2009      4476.8536     -137156.11    
    414600   2401.5133     -12310.261      4555.8382     -137150.78    
    414700   2415.7396     -6584.51        4532.9826     -137150.36    
    414800   2699.7964      6711.6803      4399.4939     -137155.4     
    414900   2609.4956      15670.63       4278.3276     -137160.94    
    415000   2466.6596      2530.1942      4255.92       -137164.91    
    415100   2455.5726      97.616943      4264.4282     -137168.3     
    415200   2291.9506      2003.2018      4278.0238     -137164.48    
    415300   2517.9538     -2676.821       4305.6692     -137161.69    
    415400   2492.39        3348.1883      4332.8394     -137158.45    
    415500   2430.6486     -4458.0818      4374.0176     -137159.65    
    415600   2556.6829     -4300.1054      4380.9149     -137164.03    
    415700   2458.0447     -12126.762      4337.7296     -137163.65    
    415800   2441.4104      1193.5841      4231.5058     -137167.04    
    415900   2583.8932      9397.7456      4143.958      -137171.51    
    416000   2525.7359      11209.875      4153.5621     -137169.89    
    416100   2413.5474     -5241.3524      4239.0444     -137162.55    
    416200   2812.5621     -4558.8426      4319.2581     -137166.53    
    416300   2532.2778     -3285.3339      4385.2903     -137161.64    
    416400   2387.3864     -11218.655      4406.6859     -137162.39    
    416500   2251.779       247.7226       4347.8286     -137161.92    
    416600   2410.704      -2185.7034      4265.7231     -137165.54    
    416700   2533.6252      7938.8097      4195.8879     -137163.28    
    416800   2610.3388      7509.1564      4188.7358     -137164.87    
    416900   2418.0501     -8709.5946      4242.4061     -137163.41    
    417000   2243.459       2558.9467      4272.4313     -137163.15    
    417100   2420.6099     -1071.4603      4295.671      -137165.91    
    417200   2528.3801     -12.93563       4315.9248     -137158.6     
    417300   2606.6674     -528.49813      4327.8648     -137158.63    
    417400   2533.8304      800.63145      4346.4254     -137161       
    417500   2411.5089      1050.2955      4371.7508     -137162.25    
    417600   2537.4865     -9901.2938      4378.9843     -137164.44    
    417700   2706.0836      6768.35        4338.3658     -137160.88    
    417800   2721.208       1134.7393      4333.5856     -137164.13    
    417900   2214.8032     -1180.366       4339.7436     -137158.59    
    418000   2533.918      -2876.6659      4308.2915     -137165.05    
    418100   2561.0327      6965.0661      4275.6127     -137162.19    
    418200   2695.8375      5928.3203      4298.0008     -137165.78    
    418300   2341.25       -11189.091      4348.6626     -137164.98    
    418400   2356.2265     -9836.174       4325.4562     -137167.04    
    418500   2462.1371      889.94049      4264.6321     -137163.26    
    418600   2594.2511      11293.882      4242.0044     -137162.21    
    418700   2576.0195      4368.9002      4280.2432     -137164.44    
    418800   2398.2709     -14807.868      4348.229      -137163.02    
    418900   2483.1238     -4218.9046      4345.4992     -137163.57    
    419000   2797.3928      705.91276      4337.3471     -137163.27    
    419100   2647.9148      3529.1104      4347.7621     -137156.12    
    419200   2684.2495      1502.1278      4346.5951     -137161.79    
    419300   2567.7437      4349.4798      4345.8462     -137162.61    
    419400   2335.1912     -6722.4604      4378.055      -137160.07    
    419500   2473.0359     -4718.6902      4381.3162     -137160.98    
    419600   2402.8332      7934.047       4367.4551     -137151.28    
    419700   2535.1825      4974.3864      4370.4783     -137151       
    419800   2577.0206     -7545.6327      4345.713      -137156.52    
    419900   2690.9582      1510.3524      4289.784      -137162.68    
    420000   2622.1965      1772.1614      4265.0342     -137165.62    
    420100   2336.1427      3166.811       4263.5665     -137162.09    
    420200   2448.6908      10930.253      4285.9083     -137161.55    
    420300   2666.2289      3198.4042      4357.2907     -137159.22    
    420400   2608.7305     -12896.143      4434.143      -137158.06    
    420500   2519.2663     -11015.373      4451.6654     -137156.4     
    420600   2526.5191     -4815.6066      4372.0433     -137159.68    
    420700   2379.1774      11618.284      4252.9393     -137159.86    
    420800   2459.6061      9167.0558      4210.2994     -137166.44    
    420900   2176.2297      993.2332       4260.7869     -137161.16    
    421000   2506.0175      3296.1073      4314.5618     -137161.3     
    421100   2640.0013     -1840.8479      4374.7603     -137160.05    
    421200   2503.1715     -10443.944      4424.1904     -137156.84    
    421300   2408.6377      1862.0577      4401.9537     -137159.16    
    421400   2338.4653      1713.5136      4372.6244     -137164.56    
    421500   2248.333      -3974.0034      4353.3497     -137162.96    
    421600   2676.3007      2214.6255      4317.1013     -137163.89    
    421700   2344.4599      11721.226      4316.4069     -137154.21    
    421800   2463.2435     -5874.2106      4350.9496     -137159.73    
    421900   2487.3193     -666.03186      4365.0384     -137163.86    
    422000   2401.4154      20.592867      4381.4466     -137160.13    
    422100   2677.8015      7026.4929      4403.4003     -137159.18    
    422200   2578.4054     -8700.4599      4456.769      -137155.33    
    422300   2534.0482     -17762.143      4435.3086     -137159.69    
    422400   2343.675       5583.2289      4321.9076     -137161.59    
    422500   2235.7453      513.21097      4219.8072     -137168.05    
    422600   2432.077       4650.9262      4168.4166     -137169.95    
    422700   2494.5218      4873.1831      4176.8408     -137166.84    
    422800   2404.2703      9926.2159      4231.7853     -137160.18    
    422900   2523.4878      107.44343      4324.5914     -137159.77    
    423000   2611.5435     -5847.1653      4398.9649     -137163.31    
    423100   2202.5771     -12872.936      4426.7642     -137160.81    
    423200   2487.1935     -5298.651       4383.7908     -137168.45    
    423300   2566.5653     -3409.1161      4333.1228     -137163.13    
    423400   2639.6562      1600.914       4282.747      -137162.53    
    423500   2497.4348      2569.9897      4267.8855     -137161.42    
    423600   2503.9351     -5322.3943      4293.6365     -137163.9     
    423700   2335.3305      7317.5931      4313.4985     -137159.21    
    423800   2901.4273     -5144.8383      4343.838      -137164.18    
    423900   2571.9906      640.26577      4375.2256     -137155.26    
    424000   2387.4249      5290.5311      4394.1839     -137157.3     
    424100   2428.4683      375.83414      4401.8644     -137159.27    
    424200   2503.6077     -1751.3085      4395.6174     -137159.73    
    424300   2597.0755      462.94079      4376.3844     -137162.83    
    424400   2306.1608     -9080.1097      4363.5521     -137164.16    
    424500   2422.8601     -2915.041       4309.3277     -137168.24    
    424600   2550.2794      9760.9286      4266.3837     -137163.98    
    424700   2634.2714      4437.0458      4299.5373     -137163.5     
    424800   2410.0884     -11318.633      4365.4145     -137158.24    
    424900   2438.8997      10874.094      4367.2929     -137157.31    
    425000   2810.8313     -902.45773      4399.0756     -137158.86    
    425100   2591.2147     -4437.9718      4439.6729     -137149.93    
    425200   2454.481      -13350.175      4440.954      -137155.5     
    425300   2593.1387     -12178.938      4363.9829     -137163.86    
    425400   2601.8086      3122.682       4260.367      -137164.97    
    425500   2416.7907      4158.7297      4201.337      -137164.31    
    425600   2287.8428      795.42751      4176.546      -137166.29    
    425700   2249.5         12215.531      4162.1884     -137170.08    
    425800   2236.7845     -3832.4476      4190.9763     -137170.51    
    425900   2483.9709      1014.9029      4227.9761     -137167.66    
    426000   2441.0558      7718.1844      4304.4369     -137160.83    
    426100   2539.5105      4692.4368      4426.2494     -137159.68    
    426200   2446.493      -16811.508      4535.2737     -137155.01    
    426300   2673.0105     -13919.425      4535.8384     -137156.79    
    426400   2687.1172      6255.4082      4469.3225     -137152.85    
    426500   2652.0661     -7101.8007      4406.5506     -137161.18    
    426600   2452.0788     -995.81741      4337.4415     -137162.18    
    426700   2432.5412      1679.2279      4274.1265     -137164.78    
    426800   2477.0601      7017.7337      4234.0709     -137165.26    
    426900   2772           2817.7524      4243.0666     -137167.48    
    427000   2429.7974      6909.9317      4293.4369     -137158.47    
    427100   2432.392      -12098.108      4367.6931     -137165.53    
    427200   2368.2749     -8554.6319      4358.8935     -137168.32    
    427300   2517.2069     -505.50079      4302.489      -137167.32    
    427400   2742.8209     -1793.1193      4267.3226     -137166.43    
    427500   2637.6175      4457.8687      4266.5573     -137163.1     
    427600   2451.2682      1542.2649      4307.5498     -137162.11    
    427700   2214.2688     -6317.7676      4354.7201     -137160.17    
    427800   2435.6359     -5358.494       4370.2768     -137162.54    
    427900   2664.1129      7774.0403      4369.9296     -137158.11    
    428000   2697.5027      1417.4287      4397.1377     -137160.36    
    428100   2478.1077     -10447.019      4433.3751     -137158.3     
    428200   2362.8926     -9032.2339      4421.9216     -137156.34    
    428300   2624.4161      313.82145      4340.1312     -137156.61    
    428400   2874.4378      14356.435      4238.9046     -137162.92    
    428500   2553.7509      6618.2397      4227.564      -137164.14    
    428600   2367.5821      3231.6554      4295.6969     -137161.62    
    428700   2539.4568     -4105.7681      4383.3206     -137161.77    
    428800   2439.3387     -12756.882      4447.1097     -137154.37    
    428900   2701.984      -1113.0575      4429.8624     -137155.97    
    429000   2551.6802      1193.1992      4362.057      -137152.73    
    429100   2431.943       3056.6791      4301.0359     -137161.67    
    429200   2475.1297     -3328.9309      4255.2368     -137165.25    
    429300   2671.3859      4472.607       4221.8766     -137168.4     
    429400   2638.8908      8884.7999      4244.3296     -137167.77    
    429500   2496.1539      206.86829      4335.5903     -137164.66    
    429600   2514.4161     -8692.9723      4404.1446     -137161.09    
    429700   2728.2072     -2360.8942      4406.8285     -137159.62    
    429800   2673.5284     -10910.917      4389.5165     -137159.83    
    429900   2361.4198      1181.9974      4338.4604     -137160.01    
    430000   2491.0468      1797.4693      4300.3517     -137165.31    
    430100   2433.1343      1346.2102      4301.4421     -137162.12    
    430200   2540.2026      1553.4917      4319.3643     -137162.89    
    430300   2586.8714      2086.222       4334.6617     -137162.43    
    430400   2400.7477     -5986.7164      4337.6649     -137158.82    
    430500   2464.7206      2211.5791      4306.4964     -137161.22    
    430600   2559.6592      2997.7458      4298.9197     -137163.07    
    430700   2480.5947     -2160.1099      4319.5985     -137159.04    
    430800   2589.2563     -122.56583      4329.454      -137163.84    
    430900   2401.2417     -5039.5316      4348.4206     -137163.28    
    431000   2413.9969     -481.42936      4351.7208     -137161.52    
    431100   2594.3778      5655.8299      4362.5298     -137157.59    
    431200   2687.4057     -4994.5228      4391.0259     -137158.81    
    431300   2609.1702     -3428.3326      4367.3632     -137161.73    
    431400   2486.9119     -6146.9056      4332.0926     -137161.65    
    431500   2504.9042      511.87461      4280.5784     -137162.55    
    431600   2448.1677      11529.066      4236.9018     -137163.17    
    431700   2289.1731      6.1715715      4257.3314     -137164.49    
    431800   2189.2939     -3505.6126      4309.2452     -137165.91    
    431900   2474.7923     -2287.0377      4329.1646     -137164.91    
    432000   2589.8487      3849.1071      4324.5943     -137163.17    
    432100   2550.9852      241.35936      4330.2652     -137163.82    
    432200   2487.3214     -10591.825      4336.6836     -137164.01    
    432300   2595.7405     -5052.7738      4303.8247     -137162.01    
    432400   2661.8368      9625.8864      4269.2813     -137157.49    
    432500   2691.1043      4357.9716      4291.7        -137164.3     
    432600   2403.0271      1065.0842      4341.1823     -137162.6     
    432700   2407.1469     -6847.7636      4390.5304     -137161.18    
    432800   2686.9097      2432.8379      4399.521      -137161.82    
    432900   2662.556      -10769.011      4415.0295     -137158.81    
    433000   2456.0094     -4926.7089      4405.4279     -137155.5     
    433100   2479.081       2463.4768      4360.3584     -137162.92    
    433200   2301.344      -3010.7457      4316.5972     -137166.93    
    433300   2279.9447     -12250.533      4267.8212     -137171.14    
    433400   2306.6681      3256.9022      4202.3294     -137170.02    
    433500   2463.0508      15877.174      4189.8147     -137164       
    433600   2454.7331     -4428.5467      4241.2402     -137158.83    
    433700   2694.0385     -1739.1514      4286.717      -137162.01    
    433800   2480.7747      7738.2216      4338.1389     -137158.53    
    433900   2245.1726     -6583.0808      4388.9263     -137159.78    
    434000   2312.5971     -7846.9278      4394.056      -137159.78    
    434100   2466.8695      3109.2241      4345.6727     -137158.88    
    434200   2575.7639      7032.3136      4297.939      -137161.9     
    434300   2531.7098     -6808.0204      4283.5994     -137164.43    
    434400   2322.6987      7034.3166      4273.3048     -137162.18    
    434500   2363.5548      1011.2143      4294.7337     -137159.46    
    434600   2755.113       2470.5186      4324.8904     -137160.36    
    434700   2497.279       651.0748       4387.031      -137158.13    
    434800   2415.1597     -9439.6469      4435.635      -137160.68    
    434900   2310.2472     -1792.1823      4417.8093     -137157.15    
    435000   2545.5532      1145.3459      4364.4054     -137155.71    
    435100   2657.29        7922.6832      4320.0768     -137152.98    
    435200   2520.9255      4945.828       4307.7058     -137156.57    
    435300   2521.3078      6134.6192      4302.1205     -137162.21    
    435400   2497.176      -7115.7161      4314.9294     -137163.21    
    435500   2579.2985     -4337.2535      4309.2957     -137164.26    
    435600   2533.0722      5250.1044      4309.5189     -137162.31    
    435700   2369.161      -2994.1552      4323.9351     -137156.98    
    435800   2552.8071      6848.8193      4308.3072     -137158.99    
    435900   2703.0945     -6944.9684      4316.1769     -137161.92    
    436000   2540.2485      4042.3141      4326.6315     -137159.57    
    436100   2467.2397     -146.61967      4372.3335     -137163.86    
    436200   2392.0507     -10994.016      4432.1045     -137164.56    
    436300   2403.1449     -4652.4774      4433.1214     -137158.22    
    436400   2729.1306     -4414.0341      4409.8747     -137160.62    
    436500   2463.4096     -792.14966      4383.1591     -137157.68    
    436600   2228.5334      6484.4779      4350.933      -137155.68    
    436700   2322.397       4777.8565      4334.6227     -137156.35    
    436800   2688.0938      5286.2415      4324.8023     -137157.54    
    436900   2590.054      -1261.1685      4319.1913     -137155.4     
    437000   2424.1459      8557.6491      4303.2905     -137161.18    
    437100   2684.0715     -6939.5503      4326.4826     -137169.95    
    437200   2434.5566     -6368.5053      4357.5515     -137163.59    
    437300   2513.203      -9179.2536      4358.3503     -137158.78    
    437400   2636.7242      8265.8325      4310.4548     -137156.82    
    437500   2700.1463      4275.6546      4275.0053     -137163.05    
    437600   2454.0159     -4701.6062      4280.9479     -137162.16    
    437700   2413.1155      7026.2         4272.7703     -137162.35    
    437800   2285.0834      7123.6031      4270.9708     -137158.67    
    437900   2677.0624      6216.2341      4302.2393     -137161.31    
    438000   2830.9347     -6734.2174      4366.1399     -137160.63    
    438100   2518.7711     -7715.868       4404.4257     -137157.98    
    438200   2513.6175     -7181.1064      4400.1228     -137158.76    
    438300   2411.4186      4923.5045      4347.8567     -137157.25    
    438400   2476.0113      4128.0609      4308.6985     -137159.68    
    438500   2337.6592      7951.7461      4311.4281     -137163.03    
    438600   2316.6009     -7824.4386      4351.6659     -137164.79    
    438700   2469.3826     -12065.574      4339.106      -137161.12    
    438800   2617.6931      10254.068      4267.19       -137160.77    
    438900   2569.131       7363.1555      4238.9858     -137163.89    
    439000   2524.1918      2308.7362      4261.5799     -137168.18    
    439100   2438.1158     -4739.9379      4314.1331     -137164.73    
    439200   2539.5889     -6610.8167      4347.6091     -137161.2     
    439300   2585.8103      7188.0409      4355.8179     -137159.02    
    439400   2540.6651     -6400.2592      4391.7145     -137158.41    
    439500   2553.7391     -7548.0017      4392.0292     -137163.7     
    439600   2454.7709     -113.39582      4351.6758     -137164.93    
    439700   2431.8418      4935.8233      4304.8479     -137162.07    
    439800   2719.1502      2897.3512      4283.2779     -137158.88    
    439900   2662.7167     -5100.249       4275.4278     -137158.43    
    440000   2671.5437      11746.819      4277.233      -137164.36    
    440100   2487.2523      1708.8991      4347.1562     -137162.41    
    440200   2413.0397     -14525.422      4434.3474     -137159.21    
    440300   2533.3145     -10939.003      4442.0927     -137156.71    
    440400   2645.2215      3952.7906      4387.2521     -137152.31    
    440500   2694.2047      2503.7525      4340.0821     -137158.19    
    440600   2589.2394     -2160.8413      4322.3453     -137161       
    440700   2246.5715      12646.909      4312.0444     -137158.94    
    440800   2408.1516     -2267.5267      4324.5138     -137163.69    
    440900   2567.0864      1305.1353      4324.9299     -137160.69    
    441000   2600.0327     -963.87182      4339.7168     -137158.65    
    441100   2620.6566     -3839.1139      4353.7893     -137162.37    
    441200   2400.856       4752.4571      4358.8178     -137161.36    
    441300   2364.1894     -6847.7941      4375.7085     -137159.04    
    441400   2794.9348     -7660.5147      4366.5387     -137166.7     
    441500   2451.1135      4103.5188      4335.5423     -137159.46    
    441600   2355.6179     -2714.1523      4313.6393     -137161.24    
    441700   2412.8653     -1391.8674      4266.7728     -137172.71    
    441800   2340.4048      6020.3745      4226.034      -137170.35    
    441900   2399.4806      4252.255       4235.3485     -137166.58    
    442000   2406.4767      3008.1474      4270.1193     -137162.24    
    442100   2537.851       1567.5115      4321.2846     -137161.55    
    442200   2549.1209     -10149.681      4387.7894     -137161.01    
    442300   2373.1777     -4074.3565      4417.7936     -137160.14    
    442400   2206.3428     -10271.744      4404.077      -137162.36    
    442500   2356.2444      9609.3568      4335.1989     -137160.26    
    442600   2740.2216     -6020.2819      4300.2162     -137165.79    
    442700   2648.0278      8578.9369      4262.4594     -137167.05    
    442800   2405.8986      3761.5313      4267.651      -137166.12    
    442900   2346.3592     -3654.3967      4322.7338     -137163.36    
    443000   2493.9057     -2412.655       4358.4459     -137160.27    
    443100   2567.4822     -4060.9452      4368.1586     -137160.36    
    443200   2705.9838      511.41866      4350.4405     -137167.33    
    443300   2467.0191     -5440.9675      4323.7119     -137166.19    
    443400   2384.4153     -1743.0142      4260.5663     -137164.52    
    443500   2583.2079      12298.668      4200.5028     -137160.35    
    443600   2679.5351      9059.6442      4227.7999     -137161.61    
    443700   2350.7455     -5809.3745      4346.2285     -137157.47    
    443800   2459.8521     -8729.7154      4435.7317     -137159.98    
    443900   2414.7043     -17725.961      4414.1968     -137155.4     
    444000   2772.1432      17570.136      4300.0046     -137156.98    
    444100   2727.9411      8391.4663      4266.7778     -137160.56    
    444200   2542.7799     -1388.3676      4295.6502     -137163       
    444300   2442.2408     -1786.4565      4327.4814     -137163.69    
    444400   2509.2525     -3696.1063      4350.7873     -137162.84    
    444500   2733.9785     -5022.3272      4363.0715     -137161.32    
    444600   2660.5878      2228.4524      4348.8063     -137159.92    
    444700   2486.1425     -3861.9518      4332.7736     -137161.87    
    444800   2437.1367     -2559.3439      4303.0107     -137161.22    
    444900   2492.2593      7739.6316      4266.4643     -137161.13    
    445000   2571.4653      9812.5839      4268.225      -137162.28    
    445100   2459.9495     -6933.7597      4326.5738     -137163.7     
    445200   2274.9635     -9692.9922      4376.464      -137163.93    
    445300   2329.5675     -795.86485      4377.8845     -137159.04    
    445400   2535.7771     -1601.6794      4356.4472     -137158.36    
    445500   2478.6807      1127.1887      4328.923      -137156.72    
    445600   2604.8795      1729.4542      4309.5339     -137163.73    
    445700   2361.243      -1066.6859      4314.4765     -137163.57    
    445800   2455.8464     -114.11394      4330.0176     -137163.29    
    445900   2783.6188     -7490.7922      4365.6956     -137163.14    
    446000   2513.9485     -2065.4609      4393.1896     -137156.68    
    446100   2456.187       2400.427       4386.5569     -137158.75    
    446200   2341.6285     -3005.0442      4367.0577     -137159.04    
    446300   2287.817       3597.7837      4320.8973     -137157.88    
    446400   2678.5488      8149.2977      4279.6054     -137160.35    
    446500   2857.8271      5837.0721      4303.1319     -137163.41    
    446600   2314.4355      105.77666      4366.5386     -137156.85    
    446700   2365.3652     -2671.6915      4395.8397     -137158.43    
    446800   2537.6878      103.11707      4382.1117     -137161.03    
    446900   2625.1627      6688.2885      4367.5717     -137162.78    
    447000   2260.924      -7057.7011      4375.0683     -137159.62    
    447100   2472.1038     -6345.135       4334.7307     -137164.88    
    447200   2688.3474      10311.991      4285.8299     -137162.99    
    447300   2578.9269     -2876.0503      4291.4752     -137161.11    
    447400   2539.6167     -1169.0268      4307.0053     -137163.86    
    447500   2353.0369     -11160.154      4306.7147     -137163.83    
    447600   2398.3389      9983.4398      4276.8528     -137161.58    
    447700   2737.0482      5055.4853      4299.5261     -137161.52    
    447800   2559.2496      34.340067      4378.3596     -137158.39    
    447900   2480.0142     -12654.895      4446.1777     -137161.9     
    448000   2484.322      -12799.311      4416.7255     -137164.39    
    448100   2548.2558     -1213.7046      4319.4362     -137163.2     
    448200   2906.7945      14087.937      4220.0184     -137164.35    
    448300   2743.6785      14464.258      4193.6874     -137168.54    
    448400   2307.5002      4429.8822      4274.55       -137162.51    
    448500   2455.7101     -10454.165      4394.9195     -137162.99    
    448600   2608.4681     -9172.3285      4468.7312     -137159.41    
    448700   2563.6062     -3820.6318      4451.7199     -137159.2     
    448800   2524.3953     -8015.5638      4382.2248     -137161.87    
    448900   2561.6917     -2106.1078      4276.1601     -137166.2     
    449000   2276.3454      18450.736      4184.6711     -137169.42    
    449100   2390.5634      360.46678      4193.2999     -137171.95    
    449200   2461.5057     -2478.2505      4231.1327     -137167.21    
    449300   2483.9849      4153.6287      4278.1252     -137163.3     
    449400   2499.9453     -2845.428       4337.2652     -137160.72    
    449500   2453.6107     -6107.1383      4359.144      -137160.5     
    449600   2381.2316     -6464.8383      4322.4662     -137164.33    
    449700   2215.7463      5725.0088      4263.6527     -137164.97    
    449800   2563.4343      2856.5286      4248.3297     -137168.28    
    449900   2473.3635      2319.5539      4280.5603     -137160.43    
    450000   2597.1417     -7258.0135      4325.2376     -137162.89    
    450100   2458.6834      230.59973      4329.7287     -137160.54    
    450200   2476.2966      4155.2589      4329.3167     -137161.74    
    450300   2411.6191     -7976.1798      4344.4316     -137162.44    
    450400   2150.5762      9644.0825      4323.2518     -137158.58    
    450500   2415.2207      3199.9589      4297.0683     -137161.05    
    450600   2616.3781      10201.587      4284.3112     -137163.16    
    450700   2553.3311     -2447.4306      4318.2573     -137164.26    
    450800   2306.9048      7764.7898      4358.9507     -137165.46    
    450900   2156.993      -12809.369      4420.4858     -137163.41    
    451000   2497.2637     -6026.6038      4404.9883     -137163.88    
    451100   2515.4573      2313.4716      4353.5711     -137161.44    
    451200   2527.6872      1068.8656      4324.156      -137161.45    
    451300   2460.7834      3563.4513      4316.0269     -137161.88    
    451400   2478.7592     -1969.0129      4325.2266     -137168.54    
    451500   2223.7793      3431.901       4337.1172     -137164.35    
    451600   2517.0392     -7383.0625      4334.9779     -137162.52    
    451700   2575.8403      3054.906       4271.376      -137161.65    
    451800   2564.6217      6725.6607      4225.4017     -137162.65    
    451900   2304.9314      7456.4464      4226.1906     -137160.66    
    452000   2353.7172     -11966.654      4225.6388     -137166.88    
    452100   2598.2779     -4951.0346      4190.6271     -137170.75    
    452200   2898.3119      7571.5376      4175.9166     -137167.65    
    452300   2534.1235      13491.383      4224.2277     -137161.72    
    452400   2346.5972     -6233.8718      4360.4315     -137160.69    
    452500   2461.9355     -19494.078      4476.2252     -137158.06    
    452600   2544.2937     -7205.9552      4472.6756     -137155.94    
    452700   2529.7447      7825.1193      4408.4224     -137157.11    
    452800   2594.5276      5769.008       4360.9133     -137161.77    
    452900   2618.5891     -7167.8404      4341.5997     -137165.15    
    453000   2506.8517      7389.5267      4317.481      -137162.85    
    453100   2614.8693      6567.1675      4325.2133     -137160.42    
    453200   2631.635       368.46568      4369.8114     -137155.33    
    453300   2641.5695     -2422.6165      4418.7411     -137156.37    
    453400   2386.5849     -12274.699      4427.9507     -137158.01    
    453500   2506.7389     -5254.7351      4367.6325     -137163.49    
    453600   2601.5576     -8987.9395      4277.0733     -137165.15    
    453700   2564.2987      20683.079      4189.9029     -137164.75    
    453800   2258.6976     -872.97494      4213.2894     -137165.07    
    453900   2207.0855     -3675.1655      4243.032      -137165.01    
    454000   2619.3177      950.53047      4255.6665     -137167.78    
    454100   2535.1545      1958.1002      4294.2241     -137163.08    
    454200   2387.4201     -5949.2915      4355.2965     -137157.75    
    454300   2718.3249     -8556.825       4379.4667     -137161.72    
    454400   2682.8083      2834.6481      4384.3581     -137157.84    
    454500   2536.4511     -5582.0515      4395.0139     -137162.58    
    454600   2276.9295     -8884.3428      4364.901      -137160.71    
    454700   2596.7922      6219.0361      4275.8517     -137166.63    
    454800   2644.8594      2590.7367      4216.8437     -137165.71    
    454900   2312.6512      12529.812      4182.2715     -137166.5     
    455000   2385.3083      6233.789       4205.5482     -137171.32    
    455100   2519.2034     -3083.388       4287.9181     -137170.87    
    455200   2375.2139     -1263.6544      4359.663      -137161.27    
    455300   2457.9519     -8410.9137      4406.19       -137159.13    
    455400   2459.396       2153.5624      4401.867      -137157.08    
    455500   2556.6716     -5859.3467      4398.0465     -137160.45    
    455600   2356.5599     -1303.0328      4358.8834     -137160.72    
    455700   2074.3492      6790.1393      4290.6371     -137161.7     
    455800   2382.6153     -588.37226      4234.7102     -137170.19    
    455900   2806.0509      10113.649      4200.9697     -137170.21    
    456000   2500.6778      3644.3647      4251.0571     -137161.5     
    456100   2350.0409      2732.6894      4344.6446     -137158.45    
    456200   2583.1282     -7171.3107      4426.808      -137158.88    
    456300   2720.7815     -1736.5374      4445.951      -137155       
    456400   2685.176      -3472.0908      4445.3247     -137158.36    
    456500   2460.4273     -7483.423       4424.6128     -137155.85    
    456600   2408.3126     -900.71338      4324.6494     -137158.22    
    456700   2609.4888      3530.806       4213.4852     -137165.23    
    456800   2269.242       22737.398      4180.1623     -137159.57    
    456900   2277.1486     -2190.9399      4248.29       -137166.2     
    457000   2384.0608      3855.1531      4293.4716     -137166.48    
    457100   2499.0626     -1786.1641      4333.3174     -137161.14    
    457200   2445.8481      361.83517      4366.5098     -137157.25    
    457300   2501.1961     -4710.1832      4393.2011     -137156.72    
    457400   2652.3929     -4306.9595      4376.6533     -137160.94    
    457500   2291.7159      1453.1349      4320.2928     -137161.65    
    457600   2434.5845      2249.7146      4273.3256     -137166.72    
    457700   2438.8272      5855.9308      4256.4042     -137162.09    
    457800   2560.5562      11190.691      4271.513      -137160.13    
    457900   2507.7495      4328.8127      4322.3117     -137158.45    
    458000   2469.3092     -6504.1715      4372.2086     -137159.7     
    458100   2453.9558     -4259.127       4372.1055     -137159.64    
    458200   2384.6262     -3707.2025      4331.8984     -137158.62    
    458300   2462.6588      5403.1101      4272.1316     -137162.72    
    458400   2319.4617      3563.9029      4233.394      -137161.27    
    458500   2495.3318      6758.9465      4229.3023     -137165.89    
    458600   2561.1846      1441.3078      4271.081      -137163.11    
    458700   2704.0914      7938.4123      4355.9906     -137162.3     
    458800   2487.978      -14590.803      4465.3892     -137160.33    
    458900   2122.2827     -13840.15       4462.8795     -137155.36    
    459000   2564.6057      647.18154      4349.8022     -137160.23    
    459100   2833.7004      12234.738      4251.7992     -137161.4     
    459200   2489.9882      11426.091      4213.3773     -137160.07    
    459300   2395.5026      10129.889      4222.7809     -137163.83    
    459400   2349.2341      484.55149      4283.2877     -137162.79    
    459500   2543.6559      2376.9006      4348.2838     -137162.09    
    459600   2614.9337     -6739.4891      4405.1151     -137158.26    
    459700   2568.3847     -4893.0698      4414.7012     -137155.14    
    459800   2513.7453     -237.511        4383.0037     -137156.22    
    459900   2473.9086     -2930.1462      4336.1056     -137159.86    
    460000   2382.3134      8892.7232      4267.8685     -137161.98    
    460100   2479.2344      10425.669      4250.1268     -137165.81    
    460200   2522.6537      7250.5471      4293.0293     -137161.33    
    460300   2674.0705     -9342.5316      4365.5512     -137158.27    
    460400   2631.6136     -5019.0373      4407.0978     -137160.29    
    460500   2311.1253     -3128.1695      4406.0986     -137155.7     
    460600   2497.1476     -7785.6422      4336.0794     -137161.02    
    460700   2461.0884      11900.583      4227.3546     -137161.11    
    460800   2220.8638      17177.414      4192.8934     -137158.24    
    460900   2512.0808     -451.39206      4250.7472     -137164       
    461000   2810.2542     -17163.733      4309.7108     -137167.93    
    461100   2471.4032      1194.4906      4305.8235     -137160.01    
    461200   2342.5135     -6311.5185      4274.4665     -137163.43    
    461300   2308.8617      9156.5079      4219.6017     -137165.08    
    461400   2586.4115      6665.459       4217.408      -137163.26    
    461500   2818.4251      6926.582       4281.3435     -137165.51    
    461600   2380.9325     -13217.353      4394.2851     -137159.11    
    461700   2321.1043     -4833.9901      4427.1199     -137159.1     
    461800   2406.2187     -5231.1536      4394.7167     -137158.46    
    461900   2855.1734      4794.7969      4346.2245     -137161.32    
    462000   2681.5837      6378.0494      4355.1024     -137160.93    
    462100   2464.4696      2913.0433      4420.1955     -137159.91    
    462200   2536.8607     -7488.2985      4488.0252     -137160.78    
    462300   2668.662      -6717.4961      4500.466      -137160.26    
    462400   2552.3314     -1664.9823      4463.4582     -137155.66    
    462500   2443.9178     -6835.9989      4403.7025     -137160.58    
    462600   2399.4075     -1432.3589      4315.0733     -137164.2     
    462700   2444.1486      3226.4047      4222.3499     -137164.89    
    462800   2596.9199      6570.8196      4165.6095     -137165.72    
    462900   2520.1031      12812.339      4178.3892     -137161.72    
    463000   2514.5838     -2906.2288      4265.6223     -137162.23    
    463100   2409.6039     -6597.1067      4349.4225     -137158.88    
    463200   2644.3459     -11566.273      4386.3875     -137161.31    
    463300   2587.5479      1858.6185      4365.4738     -137160.04    
    463400   2370.2678     -3985.7386      4340.8489     -137161.65    
    463500   2432.8821     -576.39154      4295.8476     -137167.61    
    463600   2486.2714     -3013.0569      4248.9312     -137167.5     
    463700   2856.5491      15544.548      4214.9552     -137166.61    
    463800   2542.1926      4297.2955      4273.9065     -137161.2     
    463900   2451.2564     -9429.8946      4358.9633     -137162.04    
    464000   2370.887      -6759.3138      4396.2268     -137158.82    
    464100   2516.9881     -3117.0658      4392.4131     -137161.55    
    464200   2488.6157     -6797.9052      4383.9404     -137160.17    
    464300   2636.9809     -5681.5055      4362.3202     -137163.42    
    464400   2418.0491      480.89667      4334.0391     -137159.39    
    464500   2426.4577      9045.6396      4312.8679     -137163.01    
    464600   2302.0377      864.95344      4324.9966     -137164.65    
    464700   2480.5866      3332.351       4329.5048     -137168.9     
    464800   2536.0408      3626.1074      4345.2878     -137161.76    
    464900   2655.0913     -4745.2569      4384.8203     -137160.99    
    465000   2512.7481     -268.23381      4399.705      -137159.79    
    465100   2399.6628      470.44167      4405.8307     -137158.47    
    465200   2520.956      -2400.9244      4402.0397     -137156.84    
    465300   2751.5338      1735.8117      4372.6742     -137154.9     
    465400   2824.8152     -8392.4736      4353.0138     -137163.51    
    465500   2517.1165      4594.125       4326.8229     -137161.8     
    465600   2388.6523      1086.3975      4331.8914     -137159.01    
    465700   2739.5937     -5620.7834      4357.4318     -137166.09    
    465800   2626.6869      274.14461      4358.2443     -137162.27    
    465900   2337.4818      7092.4397      4340.386      -137162.02    
    466000   2322.8617      3268.2912      4326.8407     -137163.81    
    466100   2653.6774     -8063.3834      4310.6472     -137166.54    
    466200   2593.4485      15216.65       4285.2493     -137158.68    
    466300   2619.1314      8180.8186      4335.2736     -137163.51    
    466400   2489.4497     -13519.384      4427.3692     -137162.77    
    466500   2390.1783     -7771.0168      4452.5992     -137158.62    
    466600   2596.6833     -3259.3777      4416.0881     -137156.84    
    466700   2694.8294      12651.179      4358.546      -137157.03    
    466800   2414.6316     -4037.5709      4374.2098     -137154.62    
    466900   2557.4854     -3284.6238      4371.0011     -137160.76    
    467000   2421.483      -1756.2359      4325.0894     -137161.31    
    467100   2598.8025      5566.8595      4272.1524     -137166.89    
    467200   2329.037       11038.975      4258.8012     -137160.78    
    467300   2462.3427      3827.2571      4279.3977     -137164.99    
    467400   2386.6373      1602.311       4328.5878     -137160.53    
    467500   2610.6657     -4476.1097      4400.8597     -137158.85    
    467600   2364.411      -5643.9081      4455.9192     -137149.55    
    467700   2645.5695     -11351.522      4439.104      -137157.22    
    467800   2364.1995      1762.8209      4343.8418     -137156.66    
    467900   2361.9897      2869.0861      4243.1838     -137162.93    
    468000   2426.5092      11658.198      4176.5545     -137164.32    
    468100   2533.7708      9456.8332      4183.5121     -137160.85    
    468200   2674.9415      9275.2258      4261.2002     -137158.69    
    468300   2490.5953     -8745.0076      4386.607      -137157.22    
    468400   2423.0702     -11289.516      4446.9422     -137157.63    
    468500   2477.5665     -3610.9475      4406.3306     -137159.04    
    468600   2531.5532      2524.9976      4343.5233     -137159.67    
    468700   2505.7945      11758.214      4294.9366     -137157.06    
    468800   2478.3083      4641.047       4269.8243     -137157.96    
    468900   2365.0548     -2263.7713      4252.0043     -137162.35    
    469000   2411.2868      4659.5024      4233.9583     -137164.25    
    469100   2622.3107      3680.4853      4252.7883     -137162.56    
    469200   2750.6492     -6478.8971      4303.9711     -137161.01    
    469300   2626.2335     -6037.0419      4341.4016     -137160.81    
    469400   2559.6229     -5149.6977      4365.0405     -137161.22    
    469500   2307.6924     -9557.0876      4361.3184     -137155.64    
    469600   2495.5288      8344.128       4296.7246     -137157.16    
    469700   2996.3031      8909.1086      4260.6118     -137162.52    
    469800   2625.3701     -5239.6586      4296.472      -137161.59    
    469900   2484.5497     -2870.5731      4333.5638     -137162.08    
    470000   2373.2929      2661.4085      4361.4319     -137161.28    
    470100   2267.74       -3762.9554      4387.6362     -137155.17    
    470200   2748.2519     -4446.1521      4371.9186     -137160.45    
    470300   2797.3662     -7435.0248      4337.8543     -137164.14    
    470400   2378.5061      7336.3618      4309.7598     -137159.59    
    470500   2354.2254      1058.1219      4306.7351     -137161.07    
    470600   2356.1155      382.98538      4300.9216     -137158.8     
    470700   2718.0574      1594.7899      4292.3179     -137163.41    
    470800   2641.9422      7815.8717      4310.4594     -137160.28    
    470900   2339.2611     -4504.5853      4370.329      -137162.48    
    471000   2321.0258     -15779.611      4428.3148     -137162.41    
    471100   2531.2495      314.0481       4413.594      -137159.84    
    471200   2484.9233      2080.5001      4350.599      -137155.87    
    471300   2757.9674     -500.52551      4258.2634     -137167.38    
    471400   2387.0941      7829.736       4182.445      -137165.58    
    471500   2255.1683      23419.9        4153.4212     -137162.59    
    471600   2436.1223      1309.8662      4222.3849     -137163.35    
    471700   2532.4896     -324.8782       4320.4729     -137161.22    
    471800   2621.0198     -3217.7053      4424.2082     -137158.86    
    471900   2750.3938     -6557.9035      4505.7682     -137152.8     
    472000   2763.2317     -8098.7647      4548.3041     -137154.67    
    472100   2522.8689     -7217.4704      4522.341      -137156.63    
    472200   2478.588       544.73505      4450.8242     -137156.81    
    472300   2524.6889     -4252.3815      4374.9082     -137159.05    
    472400   2316.6131      5803.4101      4278.6515     -137160.45    
    472500   2359.2265      9881.1617      4208.6832     -137167.77    
    472600   2492.2204      8989.2797      4219.2425     -137168.38    
    472700   2389.6571      84.658755      4309.8652     -137161.34    
    472800   2551.9492     -10827.143      4392.1867     -137161.92    
    472900   2352.1164     -6702.4343      4407.4967     -137153.49    
    473000   2705.6893     -3068.0734      4360.6819     -137159.27    
    473100   2765.3333      3465.2908      4313.6475     -137160.16    
    473200   2449.1412     -1297.103       4287.9942     -137162.36    
    473300   2410.107      -1257.9302      4259.7909     -137165.29    
    473400   2394.5007      9166.1851      4234.8067     -137162.22    
    473500   2642.4333      4228.4858      4246.893      -137162.25    
    473600   2543.9332      4936.1522      4300.2735     -137158.97    
    473700   2300.9737     -1499.5513      4394.8125     -137154.71    
    473800   2426.6063     -12333.997      4456.6347     -137159.81    
    473900   2572.7189     -7382.2244      4438.7095     -137158.36    
    474000   2561.3738      249.3245       4358.5565     -137155.78    
    474100   2657.3918      4377.9625      4271.8737     -137166.29    
    474200   2454.8909      1061.1266      4250.713      -137166.71    
    474300   2343.7633      7761.4816      4263.2942     -137164.32    
    474400   2395.0847      1608.8402      4321.2671     -137159.4     
    474500   2579.9076     -8605.0366      4369.1279     -137159.97    
    474600   2580.8876     -2033.5445      4371.2007     -137160.72    
    474700   2428.481      -1871.2667      4355.2255     -137159.02    
    474800   2502.2317      5529.4755      4333.4663     -137162.53    
    474900   2420.2426      3601.4972      4326.944      -137161.81    
    475000   2613.2475      2362.7729      4327.3305     -137168.81    
    475100   2310.4055     -646.00263      4345.1553     -137163.95    
    475200   2466.9483     -3664.0504      4356.6545     -137163.6     
    475300   2435.8126      4743.1569      4332.5433     -137157.29    
    475400   2630.5128     -5801.5283      4303.4049     -137162.45    
    475500   2395.234      -951.78518      4261.5733     -137162.32    
    475600   2402.126       5970.4546      4224.5727     -137168.26    
    475700   2326.8575     -1359.9414      4218.5909     -137164.69    
    475800   2439.9712      17419.796      4230.9468     -137158.41    
    475900   2517.768      -435.68357      4318.0255     -137161.32    
    476000   2479.3509     -18264.166      4423.8393     -137160.51    
    476100   2687.0205     -6511.2525      4441.825      -137162.56    
    476200   2514.0003     -9345.3016      4414.1902     -137156.76    
    476300   2537.0263     -851.97141      4352.9913     -137160.48    
    476400   2305.313       6865.0624      4297.3227     -137160.09    
    476500   2366.6986      2655.2522      4269.4958     -137163.89    
    476600   2529.6736      8482.4954      4270.331      -137160.9     
    476700   2644.2019     -10760.459      4305.8074     -137159.19    
    476800   2525.2601      6082.7871      4303.4586     -137160.15    
    476900   2523.6106     -1469.9957      4309.1916     -137163.31    
    477000   2511.935      -374.57639      4308.4895     -137165.91    
    477100   2347.9243      1685.1698      4312.0682     -137164.24    
    477200   2381.5044      2418.9876      4309.1832     -137162.96    
    477300   2601.5408     -6504.4598      4297.5987     -137162.95    
    477400   2531.1806      12394.415      4264.4022     -137160.39    
    477500   2477.978       4092.259       4270.099      -137166.52    
    477600   2341.2491      5817.0328      4292.1153     -137166.08    
    477700   2485.9648     -3486.3253      4347.0771     -137166.03    
    477800   2335.2915     -4920.2096      4392.5828     -137159.22    
    477900   2360.2483     -2907.4976      4390.0049     -137157.07    
    478000   2524.7751      6562.1839      4369.8139     -137158.98    
    478100   2562.8913      3336.8541      4394.4057     -137157.92    
    478200   2576.2715      1437.1193      4435.5381     -137148.96    
    478300   2757.2746      611.80259      4460.4213     -137152.79    
    478400   2432.841      -6289.1543      4456.3708     -137152.82    
    478500   2556.7453      2089.0356      4378.6208     -137160.01    
    478600   2274.5933      16804.445      4281.6664     -137155.87    
    478700   2520.5112      11281.865      4240.6911     -137163.87    
    478800   2224.6127      2487.3487      4253.0989     -137162.35    
    478900   2281.5136     -8757.3952      4273.3197     -137164.98    
    479000   2490.3168      2864.3676      4240.5138     -137162.07    
    479100   2668.5051      6921.7022      4208.7788     -137164.43    
    479200   2574.3772      10023.75       4229.4436     -137165.13    
    479300   2325.4478     -11049.134      4286.6373     -137164.15    
    479400   2377.8718      10497.864      4313.1928     -137161.85    
    479500   2772.293      -4940.2575      4373.3263     -137163.09    
    479600   2531.7576     -12468.027      4429.7107     -137156.64    
    479700   2508.9428     -2547.4515      4414.4995     -137160.14    
    479800   2407.5451      9167.2152      4380.2831     -137160.7     
    479900   2362.5168      11378.738      4389.4113     -137159.21    
    480000   2581.1493      1461.5623      4446.6152     -137160.37    
    480100   2428.866      -1259.9019      4498.1175     -137153.68    
    480200   2552.1789     -10881.354      4531.1182     -137152.29    
    480300   2674.487       2237.8581      4496.3194     -137151.72    
    480400   2642.7878     -15859.741      4432.3277     -137159.98    
    480500   2340.3087      11185.953      4295.5639     -137159.61    
    480600   2639.7573      14977.201      4202.6394     -137167.7     
    480700   2495.2094      3883.9871      4210.8987     -137165.9     
    480800   2398.4469     -8653.6376      4262.7827     -137165.87    
    480900   2221.8812     -368.5421       4266.0996     -137159.01    
    481000   2742.5006      262.25867      4251.996      -137164.59    
    481100   2530.1123      959.93597      4274.7139     -137160.79    
    481200   2461.8526     -15001.042      4309.9054     -137162.43    
    481300   2492.2828     -5060.3596      4275.387      -137165.41    
    481400   2448.8816      5527.6899      4220.7683     -137163.87    
    481500   2622.6488      17844.035      4208.9986     -137164.26    
    481600   2693.3332      973.01957      4299.798      -137164.61    
    481700   2380.4639     -14438.254      4409.5156     -137161.33    
    481800   2212.2195     -7020.8359      4445.1653     -137158.42    
    481900   2709.0245     -7909.5619      4407.7937     -137162.32    
    482000   2848.7412     -288.03879      4353.3273     -137165.59    
    482100   2606.0664     -5446.2916      4324.9065     -137166.49    
    482200   2320.0237      3338.8262      4297.7377     -137161.28    
    482300   2595.0232      2164.4701      4275.5478     -137165.17    
    482400   2706.1792      4378.7408      4263.9064     -137163.7     
    482500   2385.2184      10573.165      4282.1976     -137159.42    
    482600   2359.9686     -13122.73       4343.9953     -137164.43    
    482700   2265.3659     -1927.5897      4337.0512     -137157.48    
    482800   2724.9809      10923.11       4297.0111     -137162.89    
    482900   2585.5437     -4377.6415      4316.8176     -137162.01    
    483000   2475.1196      924.10981      4345.9731     -137162.79    
    483100   2277.6032     -7735.6366      4381.1951     -137157.28    
    483200   2671.564       1300.9879      4370.5535     -137156.98    
    483300   2658.7595     -9028.0224      4352.0463     -137158.01    
    483400   2535.0175      1297.5866      4305.3306     -137161.15    
    483500   2343.0868      3489.7397      4272.0542     -137159.15    
    483600   2483.153       8119.1695      4256.315      -137161.71    
    483700   2659.5929      8451.1721      4265.7097     -137163.56    
    483800   2555.26        2419.2799      4295.5843     -137162.29    
    483900   2238.1381     -1000.4965      4323.6518     -137160.1     
    484000   2410.0257      927.50239      4321.6605     -137164.73    
    484100   2455.554       2750.9266      4325.9395     -137161.35    
    484200   2726.6642      7395.9135      4336.5925     -137160.47    
    484300   2583.5654     -3257.0595      4364.4947     -137156.59    
    484400   2503.6838     -12829.658      4375.9483     -137163.46    
    484500   2527.4534     -8031.02        4339.0412     -137165.24    
    484600   2623.0663      15560.692      4293.8501     -137167       
    484700   2437.0045     -3361.3527      4318.3104     -137163.66    
    484800   2439.5033     -918.89356      4326.7704     -137166.2     
    484900   2371.1841     -4629.5989      4312.4787     -137165.78    
    485000   2589.0701      1735.9638      4282.6923     -137165.11    
    485100   2618.6558      7117.1649      4265.4123     -137161.56    
    485200   2441.4381      4507.9773      4289.109      -137162.01    
    485300   2319.5392     -1113.5915      4331.8588     -137163.13    
    485400   2376.3942      1290.7371      4352.5714     -137162.73    
    485500   2538.9999     -1667.5092      4373.5077     -137161.62    
    485600   2444.3682     -3494.5822      4367.3516     -137159.23    
    485700   2440.2909      4493.169       4335.9237     -137161.59    
    485800   2329.6134      452.83977      4322.9937     -137159.29    
    485900   2514.5576      6402.7881      4292.9553     -137159.38    
    486000   2700.5274      2704.9376      4291.5147     -137159.73    
    486100   2440.4692     -11139.943      4333.4234     -137159.78    
    486200   2419.9654     -1036.6756      4327.2754     -137163.05    
    486300   2457.5825      2682.9965      4281.6327     -137162.43    
    486400   2460.6029      10476.571      4230.7235     -137162.41    
    486500   2360.5091      18084.297      4230.0387     -137160.32    
    486600   2400.8207     -1966.8975      4311.2598     -137161.57    
    486700   2430.406      -4482.8514      4391.0707     -137157.44    
    486800   2654.4688     -6235.7503      4437.5281     -137156.56    
    486900   2570.1676      2138.77        4445.9809     -137154.07    
    487000   2577.4537     -5784.6716      4466.4491     -137160.48    
    487100   2455.2037     -13664.062      4468.504      -137164.73    
    487200   2414.9255     -1674.3306      4427.6757     -137161.3     
    487300   2620.1937     -1234.2293      4384.9004     -137162.37    
    487400   2468.5715      6027.7897      4345.9389     -137154.9     
    487500   2631.0685     -7785.0532      4313.6712     -137157.9     
    487600   2469.4489      3694.6243      4248.0189     -137165.46    
    487700   2319.7563      13519.099      4190.3205     -137165.46    
    487800   2436.1886      9050.5995      4202.4011     -137164.99    
    487900   2500.3907      4891.2201      4273.7166     -137160.87    
    488000   2560.7435     -3833.878       4392.5969     -137159.09    
    488100   2503.8798     -10678.148      4495.8855     -137153.84    
    488200   2576.5603     -2020.576       4485.8965     -137157.28    
    488300   2406.5206     -9747.6897      4431.54       -137161.22    
    488400   2368.0922     -982.74989      4321.6467     -137162.55    
    488500   2666.8539      10094.101      4211.7959     -137166.37    
    488600   2796.3245      10207.59       4206.4803     -137164.85    
    488700   2535.2263      5891.0264      4291.3175     -137160.93    
    488800   2376.2663     -13987.975      4396.1488     -137163.12    
    488900   2264.1662     -9468.2075      4409.6216     -137162.24    
    489000   2474.0473      1225.6581      4338.1612     -137159.95    
    489100   2662.3222      8229.6556      4268.6516     -137161.54    
    489200   2477.8136      12536.665      4274.2319     -137161.7     
    489300   2340.8754     -1300.8883      4339.589      -137163.1     
    489400   2311.7853     -3794.4652      4386.1313     -137162.33    
    489500   2606.8488     -1998.9716      4399.9814     -137160.03    
    489600   2708.5414      868.74821      4402.1521     -137159.93    
    489700   2591.1882     -8521.6614      4404.0917     -137160.95    
    489800   2376.0395      2857.3059      4360.5659     -137157.86    
    489900   2441.0399      7930.3174      4306.0254     -137158.02    
    490000   2500.7517      18128.324      4272.9041     -137156.47    
    490100   2586.7881      3474.5646      4300.2514     -137162.64    
    490200   2399.55       -5687.7736      4337.8571     -137164.9     
    490300   2484.9521     -6093.8006      4345.6058     -137166.75    
    490400   2380.9542      371.9874       4318.5461     -137159.38    
    490500   2819.3704      1985.6017      4286.7197     -137162.42    
    490600   2819.5373      8126.5943      4272.6183     -137166.63    
    490700   2626.4401     -10372.296      4300.1384     -137167.03    
    490800   2459.8017     -231.69545      4309.6089     -137165.66    
    490900   2599.055       5066.4162      4320.6268     -137166.74    
    491000   2723.7495     -730.54182      4350.4491     -137163.5     
    491100   2824.3309     -1899.1679      4392.2227     -137160.5     
    491200   2523.0532     -4270.1324      4425.2154     -137162.23    
    491300   2432.0315     -5003.2291      4422.5505     -137163.63    
    491400   2483.9769     -3956.1253      4390.0312     -137161.08    
    491500   2744.0932      5883.271       4349.8417     -137161.92    
    491600   2714.7389     -4044.657       4346.0276     -137163.93    
    491700   2416.6339     -590.61982      4348.2057     -137162.11    
    491800   2270.3697     -3241.3259      4346.6073     -137157.49    
    491900   2620.3325      1631.6829      4298.886      -137163.13    
    492000   2601.1419      2487.0644      4258.7509     -137164.02    
    492100   2414.7612     -1604.635       4254.7571     -137167.46    
    492200   2507.788      -1460.6666      4256.0986     -137172.39    
    492300   2349.4548      2588.7477      4255.9831     -137165.33    
    492400   2494.0506      5923.2753      4273.5906     -137164.86    
    492500   2377.9504     -1049.2176      4329.9145     -137157.95    
    492600   2651.827       1965.6619      4380.1479     -137159.39    
    492700   2525.7181     -6337.0763      4432.3801     -137157.82    
    492800   2235.1642     -14693.183      4444.8877     -137160.65    
    492900   2439.4011     -4823.5294      4366.1375     -137165.17    
    493000   2566.0646      6772.1999      4272.5888     -137164.51    
    493100   2654.6831      10186.812      4214.842      -137166.31    
    493200   2533.3431      3046.9442      4221.7631     -137166.44    
    493300   2318.0363     -5040.2211      4275.8339     -137167.11    
    493400   2254.0855     -6001.5375      4319.3984     -137165.68    
    493500   2580.0075      1532.6363      4359.7003     -137165.28    
    493600   2466.0465     -804.8828       4423.688      -137158.11    
    493700   2554.5395     -17017.948      4455.1982     -137156.39    
    493800   2784.4153     -5423.5618      4385.2267     -137160.7     
    493900   2309.0031      14725.355      4273.2087     -137158.13    
    494000   2442.1549      10621.953      4220.6507     -137164.47    
    494100   2410.8994      13120.532      4241.0252     -137162.13    
    494200   2667.4981     -3035.2746      4342.4248     -137163.51    
    494300   2519.3829     -11673.619      4456.4002     -137153.44    
    494400   2864.5415     -2560.2348      4503.9278     -137153.79    
    494500   2577.1613     -12375.754      4512.1588     -137152.79    
    494600   2458.515      -2781.3874      4436.4208     -137159.06    
    494700   2435.3126      5487.8859      4330.2711     -137160.43    
    494800   2601.7981      12550.846      4256.1643     -137166.73    
    494900   2287.0708      4388.5051      4267.5999     -137161.38    
    495000   2333.5054     -4426.5959      4312.1693     -137158.6     
    495100   2743.4945      5844.2601      4330.2467     -137161.79    
    495200   2407.4523      49.601756      4380.9865     -137156.04    
    495300   2488.8916     -5753.8949      4420.7616     -137160.77    
    495400   2544.8899     -7317.3713      4422.3749     -137160.92    
    495500   2533.6255      4473.1643      4396.621      -137154.49    
    495600   2699.2047      916.726        4382.831      -137153.9     
    495700   2588.8469     -1164.5369      4378.6669     -137158.86    
    495800   2422.883      -6697.7281      4372.6472     -137161.1     
    495900   2452.8307     -743.64507      4336.2077     -137163.97    
    496000   2236.2376      8265.0474      4280.351      -137157.42    
    496100   2700.0168      10840.799      4241.3546     -137161.24    
    496200   2665.3014      4145.8121      4266.7624     -137161.48    
    496300   2461.261      -672.11324      4320.7183     -137162.31    
    496400   2245.3145     -6132.2748      4349.1114     -137164.98    
    496500   2153.0662     -19904.926      4323.9607     -137169.96    
    496600   2223.9449      11756.217      4229.2315     -137171.23    
    496700   2534.2952      25025.968      4217.7837     -137169.19    
    496800   2514.1038     -4266.3875      4324.985      -137163.61    
    496900   2383.2877     -1906.354       4398.7343     -137155.56    
    497000   2444.5461     -148.51656      4411.2624     -137153.74    
    497100   2664.2558      2051.878       4392.7777     -137158.8     
    497200   2262.3517     -8010.4857      4364.1958     -137157.12    
    497300   2392.4458      2789.4515      4290.6595     -137160.95    
    497400   2723.6477      8066.4847      4232.8464     -137166.13    
    497500   2412.3496      11337.759      4242.5338     -137162.89    
    497600   2252.1603     -15429.749      4319.927      -137165.62    
    497700   2415.0562     -2271.9985      4321.3283     -137164.13    
    497800   2633.1329      7484.8174      4293.7731     -137164.66    
    497900   2522.0116     -669.90183      4323.7275     -137161.88    
    498000   2416.8792     -12475.006      4364.8874     -137161.79    
    498100   2636.7929     -8049.6312      4348.1513     -137164.77    
    498200   2716.5719      7010.6105      4310.693      -137158.54    
    498300   2643.8039      1844.98        4310.7731     -137159.29    
    498400   2506.3247     -7487.6217      4329.5679     -137163.78    
    498500   2583.627      -2297.4923      4326.7739     -137166.44    
    498600   2544.3374     -6137.4956      4317.6988     -137163.24    
    498700   2595.0255      7972.0763      4287.1962     -137159.38    
    498800   2765.7507      2341.3521      4307.5566     -137163.77    
    498900   2180.1738     -812.32274      4368.0808     -137157.65    
    499000   2452.0643     -8692.582       4413.2784     -137163.15    
    499100   2581.3808     -6309.2664      4409.9059     -137159.25    
    499200   2565.5658      3021.2793      4374.3997     -137155.28    
    499300   2439.5153      6977.7716      4362.0597     -137155.45    
    499400   2537.9402     -6135.9073      4386.263      -137161.79    
    499500   2274.3814      4746.5219      4384          -137158       
    499600   2450.2967     -4357.889       4378.6442     -137162.72    
    499700   2516.5798      5471.6807      4356.8322     -137157.54    
    499800   2590.3298      8705.223       4367.8256     -137155.81    
    499900   2542.7706     -1138.6653      4428.6561     -137159.59    
    500000   2295.991      -7169.8165      4481.089      -137156.52    
    500100   2498.9103     -4001.3542      4471.8843     -137156       
    500200   2620.4659      1934.433       4398.7265     -137152.51    
    500300   2861.2052      1835.0904      4312.2882     -137162.9     
    500400   2552.5182      9597.3172      4283.9332     -137161.36    
    500500   2490.7522     -1146.4984      4339.7667     -137163.98    
    500600   2280.2159     -10257.009      4384.6264     -137158.51    
    500700   2615.2353      4573.9325      4346.8852     -137158.85    
    500800   2783.3786      8999.6365      4308.9572     -137161.68    
    500900   2539.3739      732.45794      4353.0768     -137160.96    
    501000   2324.8952     -10073.293      4418.6179     -137157.98    
    501100   2267.9484     -5330.4846      4415.1981     -137154.76    
    501200   2715.7984      12735.963      4353.8103     -137159.25    
    501300   2450.1105      1191.8837      4319.2862     -137154.02    
    501400   2476.2808      1817.523       4279.9658     -137165.67    
    501500   2509.3424     -7631.7931      4256.2956     -137166.34    
    501600   2518.9538      1909.0023      4233.8591     -137162.13    
    501700   2650.3816      5487.241       4245.918      -137160.4     
    501800   2511.9717      4375.5043      4308.2109     -137160.31    
    501900   2170.4627     -3980.7559      4378.9866     -137158.59    
    502000   2414.5872     -8741.489       4402.1017     -137162.33    
    502100   2382.8871      2152.0963      4361.5357     -137157.14    
    502200   2742.2808      2802.8164      4309.8048     -137164.62    
    502300   2532.3722     -692.891        4298.3958     -137164.21    
    502400   2191.0632      1057.0786      4291.4149     -137159.7     
    502500   2576.829       5338.4949      4287.7753     -137162.53    
    502600   2526.0069      3183.6252      4319.3431     -137155.03    
    502700   2482.6898      3699.0576      4366.0133     -137158.46    
    502800   2485.3516     -11901.736      4414.6228     -137164.73    
    502900   2306.0846     -10173.291      4403.1488     -137157.45    
    503000   2557.8648      8982.7803      4328.7956     -137158.42    
    503100   2595.0989      13040.655      4282.8831     -137161.59    
    503200   2481.5708      4053.5558      4292.7892     -137164.79    
    503300   2342.0558      472.90426      4316.7462     -137164.35    
    503400   2229.2055      1371.81        4334.9869     -137158.39    
    503500   2514.0107      3045.1827      4355.316      -137157.9     
    503600   2483.3617     -5203.8272      4362.5192     -137157.11    
    503700   2693.5285      3655.1413      4337.103      -137165.66    
    503800   2338.7802      646.71148      4323.7859     -137163.07    
    503900   2486.9673     -6663.5431      4305.9805     -137165.36    
    504000   2639.1081      1206.1429      4272.3495     -137164.93    
    504100   2383.376       11551.376      4262.5399     -137158.13    
    504200   2603.9031     -7572.0916      4299.4142     -137165.1     
    504300   2444.4767     -7717.5369      4318.7341     -137161.64    
    504400   2482.078       1273.5208      4319.0672     -137164.6     
    504500   2335.8453     -6463.3469      4339.0493     -137163.86    
    504600   2563.4643      517.88973      4335.4508     -137166.73    
    504700   2695.6885     -8823.8179      4316.3256     -137166.27    
    504800   2587.4359      12225.33       4276.0763     -137160.21    
    504900   2616.8554      2461.0018      4290.9122     -137158.81    
    505000   2403.6017     -6302.1661      4322.9237     -137160.23    
    505100   2347.0194     -5063.4506      4327.09       -137161.9     
    505200   2580.6331      4000.31        4283.415      -137163.79    
    505300   2795.3222      11579.53       4260.0683     -137165.06    
    505400   2707.4156      4621.7161      4314.4576     -137160.58    
    505500   2379.3591     -11420.16       4403.6836     -137158.76    
    505600   2453.2868     -10013.878      4445.8355     -137159.98    
    505700   2532.7104     -4646.0249      4414.3586     -137154.72    
    505800   2728.9131      1240.3557      4341.9504     -137159.41    
    505900   2662.2476      1365.115       4303.4232     -137163.41    
    506000   2456.4234      3406.1721      4287.4247     -137163.15    
    506100   2541.1368      1337.0695      4291.5182     -137166.38    
    506200   2534.0372      2033.9275      4308.5443     -137164.15    
    506300   2575.558       2995.0215      4338.3544     -137158.51    
    506400   2835.9505     -8690.7573      4377.8625     -137159.59    
    506500   2521.291       3443.2062      4382.1563     -137158.88    
    506600   2364.9301      5809.8723      4392.3495     -137158.54    
    506700   2489.8374     -2841.1899      4408.7058     -137160.89    
    506800   2518.8708     -4719.4867      4403.9142     -137159.78    
    506900   2557.799      -3394.2337      4375.2881     -137159.58    
    507000   2525.6851      3361.7952      4313.8214     -137161.51    
    507100   2272.0549      19501.272      4274.0146     -137160.97    
    507200   2340.7532     -8343.8937      4314.3025     -137164.71    
    507300   2553.7689     -4904.6499      4338.4938     -137162.8     
    507400   2654.8398     -7984.5371      4353.9924     -137159.65    
    507500   2590.9454      2051.6998      4320.0232     -137159.82    
    507600   2414.426       5134.4619      4269.7178     -137158.66    
    507700   2328.1321      4851.5274      4233.5575     -137162.48    
    507800   2334.8501      4233.1305      4226.3768     -137168.05    
    507900   2245.3289     -2181.9209      4243.0134     -137169.63    
    508000   2352.2317      3612.5124      4270.8181     -137167.95    
    508100   2556.6072     -9295.4967      4320.7847     -137165.29    
    508200   2615.8756      720.36207      4313.6889     -137162.15    
    508300   2661.1166      2765.6523      4303.8334     -137162.81    
    508400   2314.577       4193.962       4311.8811     -137160.98    
    508500   2399.6943     -1548.2916      4318.3746     -137167.73    
    508600   2457.9051      4684.2897      4317.5058     -137167.77    
    508700   2509.7337     -3692.8371      4349.0488     -137165.31    
    508800   2554.5994      765.70861      4394.9778     -137161.25    
    508900   2518.8481     -16678.019      4438.7092     -137157.07    
    509000   2416.7114      3749.8831      4398.3214     -137154.73    
    509100   2600.423      -7724.1108      4365.8175     -137164.2     
    509200   2388.3811     -9216.835       4322.3022     -137168.16    
    509300   2403.6373      3561.0661      4247.6453     -137166.41    
    509400   2595.0424      13630.345      4199.7388     -137163.81    
    509500   2531.4545      8335.8726      4230.5048     -137160.49    
    509600   2539.2674     -5509.8297      4299.2287     -137162.03    
    509700   2426.9269     -292.76471      4339.5709     -137163.12    
    509800   2303.7302     -5770.4494      4354.2935     -137168.71    
    509900   2377.9205     -8117.4205      4318.5163     -137167.48    
    510000   2727.5365      4846.5181      4244.0936     -137170.33    
    510100   2396.3976      4170.95        4219.7423     -137161.85    
    510200   2510.3554     -861.23978      4221.8625     -137167.16    
    510300   2508.9548      6693.091       4239.107      -137166.72    
    510400   2488.8109      8114.0856      4301.1952     -137157.8     
    510500   2540.8312     -2961.3308      4417.3514     -137154.52    
    510600   2522.6079     -14318.841      4497.4456     -137154.64    
    510700   2440.2108     -15159.972      4466.7434     -137154.32    
    510800   2753.1658      12581.024      4366.4873     -137161.3     
    510900   2397.675       2678.7174      4328.6422     -137158.52    
    511000   2393.8691      8123.6367      4303.915      -137162.77    
    511100   2395.1273     -3137.9749      4311.4786     -137161.6     
    511200   2733.9994     -2235.4265      4313.2532     -137162.26    
    511300   2541.9682      3368.8134      4298.6598     -137155.48    
    511400   2336.5771     -468.82377      4276.5445     -137161.57    
    511500   2439.8876      845.68692      4253.1572     -137165.59    
    511600   2410.7493      14234.256      4246.9772     -137161.97    
    511700   2551.8854      5993.4335      4314.0624     -137159.79    
    511800   2608.7812     -7892.5367      4417.0237     -137157.86    
    511900   2466.704      -21238.426      4441.5947     -137155.07    
    512000   2528.3864     -2617.7414      4338.3836     -137163.49    
    512100   2292.5448     -1883.5065      4240.0167     -137165.56    
    512200   2423.2636      13925.211      4160.1004     -137166.5     
    512300   2705.9774      5408.7472      4154.9576     -137170.39    
    512400   2419.4483      8469.2925      4210.2788     -137164.2     
    512500   2420.023       3844.3382      4298.1764     -137164.52    
    512600   2321.5006     -4604           4368.3955     -137156.32    
    512700   2632.315       3387.118       4379.6274     -137158.28    
    512800   2670.4288     -9029.7847      4393.6496     -137160.28    
    512900   2380.0962     -4949.794       4373.2735     -137161       
    513000   2406.4297      6157.8657      4313.5729     -137166.36    
    513100   2480.932       4178.0611      4292.033      -137165.58    
    513200   2444.5054     -1850.4562      4325.9089     -137160.03    
    513300   2482.07        477.97868      4365.8841     -137157.22    
    513400   2718.0045     -6708.1529      4386.6958     -137162.95    
    513500   2486.6066     -544.56228      4377.2578     -137158.25    
    513600   2424.811       1860.8541      4356.3598     -137156.08    
    513700   2660.8469     -8008.3322      4322.4785     -137161.42    
    513800   2402.1233      6121.3995      4265.3253     -137160.75    
    513900   2302.9546     -82.539367      4255.1816     -137163.27    
    514000   2410.2186      3333.3397      4258.5011     -137164.38    
    514100   2374.0253      5267.954       4278.2353     -137159.92    
    514200   2552.7957     -9932.888       4317.3812     -137162.48    
    514300   2540.5608     -9936.0833      4319.293      -137162.55    
    514400   2381.5391      4713.4084      4285.7081     -137161.54    
    514500   2254.7528      6670.2901      4279.3471     -137160.96    
    514600   2576.9799     -2295.0804      4313.2745     -137165.73    
    514700   2690.5829     -3460.8009      4342.8472     -137162       
    514800   2683.6021     -5347.6511      4361.4445     -137161.38    
    514900   2443.7448     -13350.926      4339.1515     -137164.56    
    515000   2312.7935      5033.2043      4258.4879     -137163.41    
    515100   2717.3487      10026.925      4227.6225     -137169.95    
    515200   2349.9316      1859.4276      4272.6823     -137158.82    
    515300   2531.1333      54.50928       4339.8167     -137158.4     
    515400   2734.6144     -8405.1869      4422.6105     -137156.73    
    515500   2638.4785      761.6406       4454.1601     -137156.62    
    515600   2540.77       -10827.689      4441.6268     -137159.91    
    515700   2420.03       -5294.3161      4376.3952     -137160.54    
    515800   2328.8384      14417.424      4300.4414     -137159.22    
    515900   2819.8288     -1358.3265      4305.2691     -137165.22    
    516000   2809.0906      5466.6586      4339.5985     -137161.04    
    516100   2595.3086     -15035.378      4413.0227     -137163       
    516200   2194.4693      5886.5194      4445.4285     -137155.32    
    516300   2372.8271     -7544.0294      4451.7074     -137157.52    
    516400   2488.6042      3502.4044      4377.9293     -137157.08    
    516500   2697.429       7588.8593      4286.8065     -137161.54    
    516600   2392.8242      3804.1261      4251.056      -137162.38    
    516700   2403.6496      1837.1798      4252.8625     -137166.68    
    516800   2525.957      -1017.3896      4280.2245     -137166.38    
    516900   2546.2535      572.3206       4295.1614     -137163.17    
    517000   2520.4127      6371.4915      4306.9944     -137163.36    
    517100   2512.9382      2900.3578      4368.498      -137163.21    
    517200   2635.5226     -10505.19       4468.0537     -137160.15    
    517300   2621.1274     -11399.649      4540.6107     -137154.77    
    517400   2416.2886     -13402.455      4533.7439     -137152.06    
    517500   2536.7536     -3061.6366      4435.0666     -137156.27    
    517600   2513.7144      10095.953      4319.6438     -137155.01    
    517700   2633.6061     -322.2126       4242.0299     -137166.45    
    517800   2374.8182      4662.3598      4180.8855     -137166.55    
    517900   2512.8673      7032.1276      4169.4439     -137169.79    
    518000   2586.8156      4586.9791      4219.7842     -137169.06    
    518100   2495.0086      2955.9134      4330.7948     -137160.9     
    518200   2724.2192     -13015.183      4471.3151     -137158.21    
    518300   2561.7854     -3700.3467      4530.8962     -137156.46    
    518400   2285.1586     -12389.725      4519.6306     -137153.87    
    518500   2494.9131     -9463.8773      4434.8772     -137157.95    
    518600   2628.3025      714.12925      4313.7232     -137160.45    
    518700   2567.9474     -3415.9508      4212.5518     -137167.96    
    518800   2394.7528      14430.192      4146.7985     -137169.62    
    518900   2582.1637      10220.512      4158.4071     -137169.43    
    519000   2434.2378      9295.1577      4228.5121     -137161.52    
    519100   2528.3231     -4978.0677      4321.2987     -137162.33    
    519200   2386.5836     -1050.7091      4356.2891     -137158.81    
    519300   2493.2336      5699.8581      4351.5517     -137162.95    
    519400   2492.5368     -3505.2848      4355.7096     -137163.7     
    519500   2523.3366      1070.0141      4348.3377     -137160.51    
    519600   2650.3622      4097.4106      4349.4194     -137158.68    
    519700   2426.734       1518.7384      4358.9728     -137157.15    
    519800   2419.5474     -7715.2661      4348.3324     -137162.97    
    519900   2555.3543     -6030.0207      4322.9103     -137164.04    
    520000   2902.6512      5799.5751      4303.3572     -137162.28    
    520100   2636.4862      12716.296      4336.9999     -137160.31    
    520200   2466.6016     -12379.682      4434.4025     -137161.66    
    520300   2392.9126     -2724.9713      4456.6302     -137160.12    
    520400   2399.083       2648.6521      4423.7139     -137157.87    
    520500   2712.7883     -10494.878      4378.7074     -137160.09    
    520600   2574.6062      11831.276      4298.0617     -137156.36    
    520700   2278.8707      5485.1212      4267.573      -137157.59    
    520800   2438.7781      8220.8485      4264.7863     -137162.18    
    520900   2563.5962      6473.8549      4286.0959     -137164.06    
    521000   2512.7994     -370.29367      4329.7618     -137165.94    
    521100   2097.8277     -4770.466       4373.9414     -137160.09    
    521200   2423.8166     -5395.9556      4366.9373     -137161.48    
    521300   2450.1626     -1559.7429      4301.1107     -137158.58    
    521400   2611.3623      11230.195      4220.6522     -137165.39    
    521500   2535.9429      1888.5997      4207.3603     -137168.13    
    521600   2316.2737      3585.4194      4220.7319     -137166.71    
    521700   2285.5192      3099.4327      4267.9221     -137164.58    
    521800   2494.8618     -2449.3127      4343.182      -137161.03    
    521900   2542.4067     -5611.8268      4390.6834     -137159.58    
    522000   2547.439       614.84489      4398.7621     -137162.42    
    522100   2350.3877     -13244.438      4394.6186     -137163.61    
    522200   2490.425       2517.0663      4331.8858     -137163.53    
    522300   2623.2946      9511.1339      4275.168      -137159.42    
    522400   2604.9053      14513.1        4268.7703     -137162.63    
    522500   2362.7923      2708.9531      4324.0497     -137161.45    
    522600   2424.0279     -11720.536      4402.9359     -137160.75    
    522700   2517.7623      3252.4342      4425.8378     -137155.74    
    522800   2623.8606     -13463.205      4408.7634     -137158.47    
    522900   2406.621       11058.301      4314.2946     -137156.15    
    523000   2478.8649      10213.479      4266.6767     -137162.46    
    523100   2568.0143      3627.2693      4300.8599     -137166.66    
    523200   2560.3468     -3883.5435      4359.0935     -137163.83    
    523300   2852.8344     -668.09688      4381.057      -137161.93    
    523400   2537.3335      77.195556      4392.2297     -137157.05    
    523500   2454.1939      957.65394      4398.6366     -137162.64    
    523600   2409.8058     -5912.1039      4385.2404     -137162.81    
    523700   2375.2846      728.42003      4319.3671     -137162.62    
    523800   2525.6436      10421.469      4264.3529     -137163.24    
    523900   2703.0967      9300.5694      4274.7014     -137158.48    
    524000   2662.9388     -821.65507      4359.261      -137157.55    
    524100   2439.7577     -21115.548      4435.8267     -137158.36    
    524200   2474.5478      708.44088      4389.6429     -137161.95    
    524300   2557.201       6005.4922      4345.979      -137163.12    
    524400   2496.0675     -256.37547      4342.7899     -137159.54    
    524500   2694.4203      5375.4318      4347.1837     -137158.87    
    524600   2600.3136     -8265.6272      4380.3232     -137160.96    
    524700   2416.4907     -3375.4136      4363.4098     -137164.21    
    524800   2531.3332     -3511.7182      4311.2952     -137164.89    
    524900   2714.7448      8820.2351      4267.9016     -137164.84    
    525000   2531.2735     -2060.268       4280.9236     -137163.82    
    525100   2211.6097     -3331.0467      4298.2858     -137163.59    
    525200   2416.6826     -6436.5023      4269.607      -137166.58    
    525300   2612.8623      12080.292      4206.9974     -137167.47    
    525400   2603.0658      8192.1611      4198.9125     -137168       
    525500   2308.1066      6181.4348      4246.3942     -137165.53    
    525600   2175.8804     -5413.4206      4344.4209     -137167.09    
    525700   2341.1487     -10737.359      4409.3548     -137163.77    
    525800   2470.1525     -607.77681      4401.9704     -137159.38    
    525900   2484.263      -8342.1857      4386.2624     -137156.9     
    526000   2409.4835      2653.8639      4341.9633     -137155.18    
    526100   2502.3305      115.05522      4305.3395     -137159.3     
    526200   2334.8439      7450.3694      4305.0385     -137160.19    
    526300   2432.6812     -4501.8456      4340.7328     -137166.11    
    526400   2602.6817     -14.35684       4350.9872     -137165.48    
    526500   2601.3853      8196.3785      4377.2589     -137156.81    
    526600   2663.0166     -5796.0468      4445.2917     -137159.96    
    526700   2419.8954     -7829.1943      4474.4778     -137156.79    
    526800   2419.6157      306.3552       4424.4486     -137159.22    
    526900   2426.087       4058.2908      4355.4395     -137161.34    
    527000   2466.1427      7973.0393      4306.5387     -137165.82    
    527100   2341.4276     -6281.6236      4311.5668     -137163.84    
    527200   2587.7957      3651.6035      4297.7707     -137163.86    
    527300   2547.7579      3618.5543      4299.2575     -137161.04    
    527400   2500.6842      4386.9132      4340.0786     -137163.65    
    527500   2252.0218     -13934.292      4388.0168     -137165.76    
    527600   2104.7845     -918.0234       4350.8109     -137160.65    
    527700   2520.2018      8790.7676      4273.4476     -137165.47    
    527800   2450.8741      7190.2853      4225.8946     -137163.29    
    527900   2609.2778      5812.1359      4220.6032     -137166.8     
    528000   2586.1718     -612.26282      4259.3465     -137167.2     
    528100   2418.443      -1083.5551      4311.9969     -137163.97    
    528200   2444.3586      4016.9255      4330.441      -137160.25    
    528300   2671.6822     -9986.6887      4349.9908     -137159.38    
    528400   2598.5466      1610.3216      4335.7496     -137157.53    
    528500   2290.9684      4434.5208      4317.7291     -137156.12    
    528600   2401.4591     -2037.6845      4318.9123     -137166.57    
    528700   2358.7991     -11235.189      4326.6047     -137164.85    
    528800   2289.3025     -1899.6615      4315.873      -137158.36    
    528900   2554.6179      8168.5151      4300.4695     -137159.37    
    529000   2455.1721      4226.1662      4324.943      -137154.47    
    529100   2394.805       8339.58        4377.8045     -137155.02    
    529200   2396.2985     -3805.4054      4463.8917     -137160.25    
    529300   2328.5958     -18525.437      4514.7243     -137159.62    
    529400   2606.6071     -2283.5309      4462.8542     -137158.81    
    529500   2793.4992     -6365.7619      4372.5979     -137161.7     
    529600   2596.8956      11253.135      4265.9941     -137162.96    
    529700   2835.875       544.58047      4256.8376     -137173.01    
    529800   2407.8524     -8298.208       4308.0123     -137162.93    
    529900   2536.4914      620.78347      4330.5861     -137163.64    
    530000   2612.8056     -3554.7168      4367.1911     -137157.25    
    530100   2649.1992      3259.776       4392.4845     -137156.01    
    530200   2548.1379     -5014.9354      4410.3761     -137161.26    
    530300   2440.5136     -6090.5596      4390.5754     -137158.96    
    530400   2513.1931      8259.2186      4328.388      -137159.57    
    530500   2544.463       82.284743      4321.0057     -137158.79    
    530600   2489.7954      5305.3328      4336.9198     -137158.13    
    530700   2502.692      -6333.2099      4371.9077     -137163.14    
    530800   2337.1123     -4396.3482      4368.4024     -137161.73    
    530900   2747.0444     -290.7472       4346.5951     -137165.15    
    531000   2606.3317     -1202.1023      4338.6756     -137158.98    
    531100   2477.9575     -723.6081       4315.5085     -137159.68    
    531200   2512.5551      12181.894      4275.6396     -137162.18    
    531300   2473.3513      931.23023      4271.9955     -137164.5     
    531400   2506.2059     -1795.6291      4286.545      -137167.89    
    531500   2390.8584     -6136.0312      4316.087      -137163.82    
    531600   2345.7961      5652.0267      4318.8405     -137160.17    
    531700   2362.1035      10980.831      4312.8476     -137157.72    
    531800   2426.4517     -993.71432      4327.9324     -137157.27    
    531900   2671.647      -5186.227       4343.6032     -137165.76    
    532000   2429.6571     -6371.5108      4352.0563     -137165.26    
    532100   2284.8107     -3345.4359      4329.8872     -137169.04    
    532200   2337.2241      1302.7783      4281.1143     -137166.15    
    532300   2547.8088      6846.4054      4238.8826     -137165.7     
    532400   2456.5939      12111.289      4249.1593     -137162.85    
    532500   2517.6467      373.37649      4333.713      -137163.98    
    532600   2684.3583     -12825.681      4441.1949     -137163.93    
    532700   2592.2669     -4759.3573      4453.9193     -137155.67    
    532800   2674.367      -2490.6662      4404.4437     -137152.5     
    532900   2556.8144      16446.161      4329.8327     -137156.22    
    533000   2528.7143     -5121.0763      4302.5895     -137163.92    
    533100   2489.2024      4164.38        4283.1758     -137166.53    
    533200   2437.3078     -3802.5393      4288.5588     -137166.63    
    533300   2597.1604     -8097.169       4286.4442     -137166.1     
    533400   2468.7655      3768.0756      4261.6787     -137155.55    
    533500   2874.0952     -2881.9878      4246.4744     -137164.08    
    533600   2406.4414      4490.3113      4240.5097     -137163.26    
    533700   2369.5407     -8332.1173      4255.6738     -137163.38    
    533800   2612.9616     -1574.9078      4226.4137     -137167.2     
    533900   2572.164       15922.41       4202.8885     -137166.54    
    534000   2427.7674     -11115.847      4247.7918     -137168.61    
    534100   2333.7833     -1600.4425      4268.8812     -137167.33    
    534200   2585.9185      378.60908      4292.9995     -137163.74    
    534300   2526.5405     -1599.2179      4334.4448     -137159.7     
    534400   2430.284      -3714.9271      4366.6598     -137159.21    
    534500   2426.4905      454.08361      4364.0988     -137161.19    
    534600   2237.614       6668.1016      4334.3026     -137159.63    
    534700   2408.8154     -1168.1097      4317.95       -137164.89    
    534800   2584.7882     -2524.7549      4276.8836     -137163.15    
    534900   2797.357       11155.385      4215.5428     -137164.02    
    535000   2738.3801     -2344.2811      4218.3706     -137169.08    
    535100   2550.3393      2563.2507      4258.4235     -137167.97    
    535200   2349.5079     -3292.6503      4330.6215     -137159.97    
    535300   2472.764      -3903.8477      4380.6081     -137158.94    
    535400   2553.0604      1211.3358      4407.9198     -137157.55    
    535500   2679.8032     -4716.2366      4432.9531     -137154.56    
    535600   2777.8158     -1583.3875      4423.2866     -137155.73    
    535700   2528.1511     -2235.7395      4395.1068     -137159.01    
    535800   2421.9231     -5631.1782      4344.6293     -137161.54    
    535900   2605.5833      3709.1951      4236.3484     -137168.42    
    536000   2557.3295      11523.468      4153.198      -137169.28    
    536100   2313.3733      4879.8273      4146.2684     -137168.34    
    536200   2332.4299      1949.157       4183.5545     -137166.84    
    536300   2524.8816      8728.4039      4246.6235     -137163.17    
    536400   2439.7712     -12809.722      4354.3153     -137157.86    
    536500   2732.6014     -1089.8229      4413.2869     -137161.08    
    536600   2565.1363     -11234.901      4457.4658     -137158.08    
    536700   2356.8288     -14181.791      4443.6749     -137161.8     
    536800   2440.8207     -7085.265       4348.5159     -137165.67    
    536900   2677.4782      8105.2318      4239.2262     -137169.42    
    537000   2512.7797      12180.021      4194.4235     -137166.29    
    537100   2423.3936      6834.191       4219.8257     -137163.97    
    537200   2465.9796      2038.0357      4284.4263     -137160.86    
    537300   2545.0972     -799.70849      4359.1457     -137157.65    
    537400   2543.6858     -1693.5734      4423.3622     -137151.66    
    537500   2550.4355     -7009.7241      4459.0017     -137148.64    
    537600   2369.9349      1152.069       4431.3686     -137156.02    
    537700   2391.9256     -622.87112      4386.0707     -137160.44    
    537800   2498.4326     -8408.6263      4337.2561     -137162.73    
    537900   2570.7592      5583.4852      4250.7529     -137161.57    
    538000   2707.0452      12862.716      4191.4884     -137166.66    
    538100   2442.3249     -3978.8488      4220.6644     -137168.91    
    538200   2319.4272      1083.8763      4264.7315     -137165.62    
    538300   2422.4104      1505.3657      4314.8593     -137161.93    
    538400   2496.2838     -6840.3607      4364.2321     -137160.16    
    538500   2454.5158     -1541.0577      4367.5542     -137159.12    
    538600   2435.2934      2596.1076      4338.0341     -137159.45    
    538700   2565.4661      2357.2552      4307.2369     -137165.43    
    538800   2225.2923      1062.3738      4294.9323     -137161.69    
    538900   2382.7142      4641.8174      4285.6746     -137160.15    
    539000   2516.0597     -2813.6731      4279.5382     -137158.04    
    539100   2647.4536      6323.0941      4242.4679     -137164.04    
    539200   2589.8555      5154.9949      4224.1309     -137166.69    
    539300   2538.8215      666.95018      4240.4352     -137166.44    
    539400   2454.5586     -3325.6678      4292.377      -137162.99    
    539500   2493.1107     -12122.514      4352.8614     -137159.78    
    539600   2479.7627      6372.0492      4358.973      -137156.91    
    539700   2502.2961     -4244.3811      4351.8745     -137159.87    
    539800   2428.516       7803.648       4345.0709     -137160.09    
    539900   2370.9673     -7982.6928      4357.8429     -137162.3     
    540000   2314.0101     -7333.8289      4329.5666     -137159.87    
    540100   2619.5822      15763.147      4269.0511     -137159.45    
    540200   2653.8524     -9063.8551      4273.6477     -137160.11    
    540300   2491.6121     -339.45408      4277.5424     -137160       
    540400   2229.3761      2205.5268      4277.8998     -137160.63    
    540500   2280.0919      3111.304       4288.0747     -137164.31    
    540600   2732.9752      3439.3154      4311.5228     -137163.79    
    540700   2495.6893      1569.0169      4334.8348     -137157.46    
    540800   2293.6107     -1164.4017      4355.4329     -137156.58    
    540900   2526.5707      424.95976      4343.2678     -137164.22    
    541000   2388.9991      5161.8484      4317.3184     -137160.33    
    541100   2491.0491      971.0438       4302.2037     -137159.48    
    541200   2770.9039      11762.192      4291.8018     -137161.44    
    541300   2465.9001     -5866.9465      4343.6567     -137158.86    
    541400   2353.9741     -6210.7215      4375.2756     -137160.76    
    541500   2375.9562      4566.9579      4359.0378     -137160.19    
    541600   2460.996       3696.6068      4340.1635     -137161.01    
    541700   2567.3771     -2280.9415      4319.8268     -137163.99    
    541800   2488.0366      9038.0271      4291.6293     -137161.77    
    541900   2505.3416     -4727.5554      4305.2064     -137160.67    
    542000   2735.1344      5096.3647      4321.6764     -137157.49    
    542100   2591.335       9262.7227      4359.7326     -137152.62    
    542200   2597.7244     -8792.0065      4404.5898     -137160.49    
    542300   2582.0006     -8578.3072      4411.9056     -137162.47    
    542400   2476.7335      2369.48        4397.3741     -137159.79    
    542500   2472.6826     -7536.8961      4389.3942     -137158.72    
    542600   2626.9098      891.32883      4353.65       -137162.95    
    542700   2592.5334     -6717.3126      4315.8106     -137165.52    
    542800   2366.4947     -428.1287       4278.8861     -137163.56    
    542900   2420.5612      4874.2862      4230.7238     -137167.78    
    543000   2431.3016     -3037.612       4191.3432     -137166.11    
    543100   2682.6633      14660.85       4178.1828     -137164.11    
    543200   2668.8819     -62.90661       4254.1744     -137164.84    
    543300   2238.0707     -7407.1403      4329.887      -137157.84    
    543400   2555.6914     -4340.7707      4365.7132     -137161.1     
    543500   2904.0485      3717.0664      4384.8065     -137162.48    
    543600   2440.0862     -294.0309       4415.9934     -137155.49    
    543700   2390.8373     -5675.3125      4426.7777     -137158.46    
    543800   2390.1698     -1450.808       4370.7278     -137160.55    
    543900   2510.1494     -1906.3272      4282.7005     -137161.96    
    544000   2767.6151      10941.529      4209.8127     -137162.08    
    544100   2710.6205      18403.839      4215.0448     -137162.54    
    544200   2260.2173     -145.68328      4328.5694     -137159.38    
    544300   2431.2042     -4456.9328      4443.4913     -137162.17    
    544400   2365.6064     -12867.028      4506.8209     -137154.51    
    544500   2412.7449      5628.682       4462.3336     -137150.81    
    544600   2656.4617      724.12666      4396.7642     -137156.48    
    544700   2923.5676     -8586.9565      4346.0081     -137167.54    
    544800   2409.3943      9602.8567      4312.4482     -137157.92    
    544900   2575.4703      5027.0864      4309.3092     -137163.75    
    545000   2495.4486      4772.1118      4345.7528     -137163.97    
    545100   2249.353      -13717.769      4390.5776     -137163.38    
    545200   2267.4754      957.15913      4348.1113     -137162.22    
    545300   2531.0078      10434.201      4307.9376     -137159.36    
    545400   2575.0081     -3552.4836      4320.1057     -137159       
    545500   2593.1849      5962.959       4308.923      -137163.66    
    545600   2425.3859     -4562.8614      4329.7346     -137164.8     
    545700   2383.4046     -5553.5998      4325.607      -137164.31    
    545800   2600.864       7801.7962      4289.7106     -137158.96    
    545900   2569.1995      5099.8757      4285.5441     -137158       
    546000   2394.4981      3640.1287      4301.3955     -137160.05    
    546100   2433.3575     -4451.595       4320.2637     -137162.2     
    546200   2602.1566      6049.2507      4320.0919     -137163.91    
    546300   2447.0727     -6446.2219      4328.9654     -137158.21    
    546400   2404.7031     -854.29453      4311.1734     -137160.85    
    546500   2367.9463     -1197.0194      4292.4283     -137163.37    
    546600   2593.6863      2661.6224      4313.8116     -137166.39    
    546700   2783.4927     -9207.921       4359.9388     -137165.93    
    546800   2509.419       3310.0388      4350.3491     -137157.64    
    546900   2517.0681     -2973.8861      4334.7557     -137160.22    
    547000   2442.2288     -200.36216      4307.0899     -137165.32    
    547100   2433.0758     -3056.004       4293.4853     -137165.32    
    547200   2610.1097      9043.9003      4283.135      -137162.79    
    547300   2520.6849      8246.3677      4342.9065     -137156.5     
    547400   2443.0368     -9520.271       4434.5792     -137154.82    
    547500   2604.6464     -12262.955      4444.6279     -137158.65    
    547600   2468.6182      3824.4251      4408.7641     -137156.64    
    547700   2653.594      -4912.3127      4383.5687     -137163.9     
    547800   2446.9508      762.13475      4351.0849     -137164.18    
    547900   2170.1964      9456.2374      4324.6826     -137164.54    
    548000   2320.2774      1922.558       4318.3004     -137164.61    
    548100   2350.302       1208.02        4308.5089     -137161.36    
    548200   2471.6596      3497.607       4295.4106     -137159.36    
    548300   2551.7244      6965.2221      4294.5052     -137157.94    
    548400   2483.4999      5406.0071      4309.2839     -137159.73    
    548500   2463.8292     -1758.9587      4329.3693     -137164.86    
    548600   2301.6827     -6123.5002      4319.7583     -137161.13    
    548700   2462.9613      7688.0889      4263.653      -137163.27    
    548800   2702.9957      1148.0546      4246.2036     -137166.88    
    548900   2470.0862      4530.6932      4269.9915     -137161.98    
    549000   2417.4899     -1020.9322      4329.1541     -137161.91    
    549100   2557.6627     -18907.384      4371.586      -137159.56    
    549200   2745.5247      2093.1413      4326.5571     -137159.63    
    549300   2640.7344     -3684.2155      4292.9817     -137163.35    
    549400   2576.081      -6304.0041      4247.9232     -137166.69    
    549500   2513.2124      8748.4719      4182.1982     -137167.61    
    549600   2423.5198      11314.655      4177.0415     -137165.16    
    549700   2517.5787      4166.0168      4267.4247     -137163.23    
    549800   2568.8487     -12664.993      4414.1116     -137155.24    
    549900   2709.2598     -4942.8414      4493.4422     -137158.14    
    550000   2401.1726     -13061.001      4517.8578     -137155.34    
    550100   2312.1018     -11487.535      4436.9527     -137161.41    
    550200   2495.8854     -898.96704      4276.5846     -137167.03    
    550300   2842.8844      24871.462      4135.6932     -137164.33    
    550400   2588.3876      15349.901      4154.825      -137163.78    
    550500   2410.6127     -5309.173       4275.4239     -137163.93    
    550600   2465.2027     -8798.1057      4362.1365     -137162.16    
    550700   2538.5378      215.69322      4378.4415     -137157.35    
    550800   2508.372       126.14634      4370.8733     -137153.44    
    550900   2510.7258      1016.5816      4356.1037     -137157.3     
    551000   2480.1634      8094.6079      4341.264      -137159.35    
    551100   2325.4046      1152.0383      4342.3762     -137157.14    
    551200   2511.8769      4983.7046      4344.6095     -137159.3     
    551300   2642.6296      2183.0171      4368.3536     -137157.59    
    551400   2651.294      -2187.9894      4409.2872     -137155.23    
    551500   2600.1475     -8970.062       4430.1724     -137160.51    
    551600   2522.392      -12965.552      4392.4591     -137165.09    
    551700   2560.5148      4330.3162      4296.9589     -137166.03    
    551800   2465.2205      11904.909      4237.9133     -137161.49    
    551900   2656.9051     -426.28691      4242.3364     -137165.29    
    552000   2570.3567     -2991.4794      4260.2403     -137165.68    
    552100   2365.5923      3220.7956      4268.7759     -137166.77    
    552200   2387.5361      3160.5689      4275.6204     -137166.53    
    552300   2501.3213      4416.1027      4290.0575     -137161.46    
    552400   2715.8898      607.16304      4342.5017     -137165.85    
    552500   2429.0193     -11343.659      4406.9622     -137161.69    
    552600   2330.4113     -711.78675      4411.5558     -137157.7     
    552700   2513.4519      1160.603       4384.3728     -137160.24    
    552800   2503.6766      4803.2794      4343.5915     -137158.11    
    552900   2630.4965      4997.3354      4319.4661     -137157.76    
    553000   2480.4782     -2677.3683      4310.9667     -137159.48    
    553100   2318.9825      4225.9459      4292.1342     -137160.09    
    553200   2564.7721      7191.9508      4290.0317     -137164.55    
    553300   2484.9309      9979.3901      4328.4321     -137161.13    
    553400   2516.5705     -10758.227      4409.8075     -137164.08    
    553500   2254.8618      3823.6713      4446.8861     -137156.85    
    553600   2675.9612     -2245.3298      4454.984      -137161.27    
    553700   2650.9015     -6736.0475      4439.6579     -137158.8     
    553800   2503.2166     -52.811039      4399.8387     -137161.55    
    553900   2291.635       965.5791       4355.712      -137161.86    
    554000   2404.7335     -4186.3961      4311.8119     -137162.73    
    554100   2412.6055      15498.582      4241.5467     -137161.65    
    554200   2680.7834      8525.0995      4243.8145     -137168.74    
    554300   2196.9326     -3667.7802      4311.2902     -137163.1     
    554400   2353.7815     -2166.3702      4349.2778     -137167.09    
    554500   2675.4054     -8180.2666      4367.9411     -137166.59    
    554600   2531.7194     -4822.6721      4365.6409     -137161.76    
    554700   2608.6745     -6573.907       4336.0312     -137164.17    
    554800   2413.8919      527.05823      4300.0256     -137160.63    
    554900   2437.4222     -1743.3295      4286.6427     -137163.33    
    555000   2343.2325      9038.8875      4286.8154     -137164.35    
    555100   2325.5171     -10624.242      4328.9316     -137166.61    
    555200   2366.4301      2032.6339      4345.5569     -137160.27    
    555300   2532.1935     -1006.3409      4355.8392     -137158       
    555400   2595.3884      686.55395      4351.5677     -137157.95    
    555500   2542.0991     -4251.4291      4346.6147     -137160.99    
    555600   2399.9481     -11647.837      4333.7493     -137162       
    555700   2463.2979      11777.682      4261.0929     -137162.64    
    555800   2712.6667      16707.583      4232.7034     -137161.78    
    555900   2605.8914      1638.7966      4302.1026     -137160.69    
    556000   2336.7423      98.95167       4381.6708     -137159.53    
    556100   2440.5203     -4475.5323      4442.0438     -137161.86    
    556200   2517.3255     -10248.252      4456.9233     -137156.21    
    556300   2741.7557      4579.2962      4400.4558     -137155.2     
    556400   2677.4662     -3081.6404      4369.2682     -137158.69    
    556500   2632.0003     -1595.036       4338.5873     -137163.81    
    556600   2489.5802     -2934.5352      4312.5617     -137163.08    
    556700   2524.4103     -1588.5229      4285.0565     -137165.74    
    556800   2373.2799      7338.3204      4274.1405     -137164.54    
    556900   2322.0126     -3488.7472      4297.6916     -137167.78    
    557000   2367.7879      5931.1388      4310.2859     -137166.57    
    557100   2438.0584     -436.83761      4343.9805     -137159.67    
    557200   2477.4605     -4553.1984      4372.4554     -137156.34    
    557300   2604.3607      1681.8071      4360.425      -137161.96    
    557400   2318.4941      11246.184      4364.1664     -137158.21    
    557500   2430.3322     -15132.751      4393.5126     -137166.09    
    557600   2075.895      -4888.7859      4353.8104     -137161.15    
    557700   2456.3112      3789.3166      4272.1216     -137162.86    
    557800   2695.5852      2994.3461      4222.1618     -137164.57    
    557900   2623.4988      6773.3268      4216.0145     -137166.37    
    558000   2363.8413      3680.8931      4244.9174     -137165.57    
    558100   2412.6517     -11411.383      4291.2369     -137165.44    
    558200   2550.108       3893.7611      4302.5444     -137164.98    
    558300   2476.1531     -7998.7636      4332.4714     -137160.96    
    558400   2522.3972     -6443.5128      4331.8986     -137161.19    
    558500   2619.586      -4466.5864      4302.7301     -137164.95    
    558600   2303.3162      766.88004      4272.6047     -137165.91    
    558700   2320.4075     -10862.586      4260.0126     -137167.23    
    558800   2551.5773      3303.0718      4224.6334     -137166.73    
    558900   2433.3559      5849.5678      4219.1446     -137161.23    
    559000   2534.4842      2276.1246      4241.665      -137163.99    
    559100   2614.4278     -60.486636      4271.7465     -137168.76    
    559200   2185.0547     -3439.3185      4311.8005     -137166.41    
    559300   2297.7674     -7896.0938      4326.2279     -137166.94    
    559400   2482.801      -4251.509       4308.8909     -137164.21    
    559500   2503.6164      10937.228      4283.0228     -137161.12    
    559600   2612.7508      7202.2762      4300.8801     -137162.85    
    559700   2432.3886      576.64764      4353.6034     -137160.77    
    559800   2371.1182     -6772.2348      4408.4628     -137163.3     
    559900   2200.6108     -7557.2259      4407.9095     -137159.71    
    560000   2586.0658      1543.204       4352.0359     -137161.47    
    560100   2579.9713      3909.6921      4307.5562     -137159.89    
    560200   2512.2224     -1172.9475      4277.8825     -137162.41    
    560300   2300.9483      7004.5841      4254.702      -137162.69    
    560400   2198.3212      4281.9776      4267.0615     -137159.7     
    560500   2407.5705      12305.787      4289.9209     -137154.72    
    560600   2513.0425      2621.8039      4314.7015     -137157.76    
    560700   2584.5474     -7309.2746      4335.5698     -137163.68    
    560800   2453.8386     -3535.2875      4335.8509     -137163.13    
    560900   2511.844       108.26497      4322.9002     -137162.24    
    561000   2604.6624      6284.4433      4305.9441     -137159.19    
    561100   2676.4283     -5969.4488      4315.377      -137161.01    
    561200   2440.7237     -6947.8248      4307.6948     -137163.16    
    561300   2235.5277      4766.3489      4264.0683     -137162.28    
    561400   2483.4166      1908.8878      4245.2407     -137167.02    
    561500   2648.7813      1648.1228      4250.7912     -137164.65    
    561600   2868.9626      6438.918       4275.4573     -137161.97    
    561700   2648.3952      4008.5141      4355.2336     -137158.36    
    561800   2446.3499     -18007.897      4459.8116     -137163.5     
    561900   2383.4408     -14049.686      4473.9444     -137160.83    
    562000   2644.8097     -4899.0108      4406.2196     -137161.06    
    562100   2796.336      -26.468916      4305.4948     -137163.8     
    562200   2655.7335      4358.7954      4220.9475     -137168.31    
    562300   2469.0756      3168.7722      4193.6139     -137166.23    
    562400   2425.0056      11136.733      4201.0604     -137164.16    
    562500   2496.5288     -2565.9734      4257.9371     -137161.59    
    562600   2723.1624     -5650.1657      4331.8386     -137160.09    
    562700   2546.3062      5541.9888      4377.6017     -137156.52    
    562800   2448.2992     -11181.251      4395.773      -137155.92    
    562900   2754.7035     -5789.3855      4338.6097     -137165.78    
    563000   2508.3127      10882.594      4275.1018     -137163.56    
    563100   2501.7312     -7468.853       4284.4784     -137166.27    
    563200   2338.6581      8785.4023      4297.9266     -137160.6     
    563300   2627.6388     -2283.109       4373.9743     -137156.18    
    563400   2653.7023     -13558.647      4478.0225     -137157.06    
    563500   2494.6442     -13533.107      4521.8365     -137156.41    
    563600   2418.8659     -2030.1728      4500.3928     -137156.31    
    563700   2660.4037     -5329.1393      4458.4025     -137161.18    
    563800   2891.5785      2323.784       4400.9777     -137163.44    
    563900   2462.5993      317.83864      4366.4404     -137158.19    
    564000   2382.9394      5801.7178      4321.0075     -137161.75    
    564100   2558.4678     -4145.7702      4272.2339     -137165.98    
    564200   2533.7299      11502.349      4221.9535     -137161.7     
    564300   2770.8847      12555.765      4238.8965     -137157.95    
    564400   2623.6761     -132.98379      4349.1315     -137157.78    
    564500   2329.8537     -4846.0936      4472.6202     -137155.02    
    564600   2426.2573     -18351.629      4534.7244     -137155.57    
    564700   2572.0301      768.6254       4487.6712     -137153.47    
    564800   2630.2527     -992.89982      4405.944      -137156.36    
    564900   2551.9508      6846.5775      4309.7106     -137162.05    
    565000   2644.6326      11115.057      4233.5051     -137168.17    
    565100   2539.9692      14525.786      4238.0047     -137168.13    
    565200   2382.4217     -5102.9709      4323.7349     -137165.21    
    565300   2451.3758     -5383.5782      4384.1094     -137161.41    
    565400   2663.8826     -624.46907      4397.7603     -137158.9     
    565500   2557.3958     -6175.3699      4394.793      -137157.15    
    565600   2351.6183     -6275.8118      4366.5291     -137156.29    
    565700   2440.9798      4918.0003      4298.9624     -137164.53    
    565800   2276.1967      5533.4757      4253.3758     -137167.85    
    565900   2107.7326      2001.6468      4245.6635     -137168.9     
    566000   2333.0649     -936.10513      4238.0617     -137168.53    
    566100   2531.4502      11679.875      4220.8087     -137165.98    
    566200   2473.0573      2387.3674      4256.902      -137163.04    
    566300   2455.4352      957.08438      4321.3587     -137159.68    
    566400   2409.4195      4324.4472      4405.0659     -137152.32    
    566500   2650.2864     -9141.5635      4461.8999     -137155.58    
    566600   2573.173      -3627.2673      4442.1085     -137163.36    
    566700   2214.7347     -4242.129       4387.1276     -137157.36    
    566800   2334.8029      5646.2945      4312.0534     -137158.75    
    566900   2511.0222     -3.5638143      4261.3457     -137159.01    
    567000   2721.8314      7524.7064      4233.8773     -137158.94    
    567100   2614.5197      3381.4152      4251.7219     -137160.64    
    567200   2483.0939     -8721.1893      4278.0235     -137165.82    
    567300   2389.8768     -6380.1379      4280.9854     -137161.25    
    567400   2673.1422      2451.9918      4259.187      -137164.04    
    567500   2488.7994      5541.8275      4256.2578     -137161.58    
    567600   2235.8125      3754.5654      4291.9053     -137163.09    
    567700   2228.8441     -407.09204      4341.3748     -137161.23    
    567800   2357.4863     -5390.2214      4368.1171     -137159.22    
    567900   2524.4199      4541.0787      4350.4415     -137161.05    
    568000   2604.9948     -3615.0659      4352.6531     -137161.45    
    568100   2552.5507     -14240.654      4341.7797     -137161.08    
    568200   2378.0003      8401.7717      4281.0087     -137159.16    
    568300   2455.3876      3076.9364      4254.1551     -137166.67    
    568400   2452.7021      385.45945      4260.5711     -137167.47    
    568500   2647.4976      7474.836       4287.8494     -137164.22    
    568600   2496.1119     -1565.2538      4341.0533     -137156.73    
    568700   2438.255      -4529.8003      4367.2642     -137156.87    
    568800   2510.4344     -3486.6131      4358.1192     -137161.54    
    568900   2542.2159     -8276.5775      4339.8396     -137167.46    
    569000   2180.0216     -8712.7588      4308.9738     -137163.51    
    569100   2421.3642      12575.81       4253.3235     -137163.12    
    569200   2528.1788      2611.7526      4254.0884     -137160.2     
    569300   2582.3864     -1087.0201      4277.7981     -137160.54    
    569400   2472.5775      2177.4056      4290.9676     -137161.18    
    569500   2360.517      -6111.6734      4309.2281     -137165.32    
    569600   2358.3381      4503.1353      4300.7778     -137166.05    
    569700   2629.2062      8340.3043      4317.2057     -137162.94    
    569800   2580.1234     -4873.2227      4373.2707     -137159.29    
    569900   2336.2484     -3337.0542      4413.2618     -137154.7     
    570000   2540.7121     -8661.8655      4406.7645     -137159.48    
    570100   2443.5224     -4480.2896      4356.4463     -137157.23    
    570200   2506.2132      195.57233      4275.7601     -137160.58    
    570300   2640.4727      7539.5221      4208.6223     -137165.25    
    570400   2599.7853      10926.763      4216.8059     -137168.73    
    570500   2306.1048     -3276.0498      4294.2139     -137164.29    
    570600   2555.1788     -5776.2868      4337.9341     -137164.73    
    570700   2615.9677     -10172.251      4359.1977     -137161.12    
    570800   2512.9699      909.92699      4344.1987     -137159.7     
    570900   2234.4472      10981.875      4324.2917     -137155.31    
    571000   2522.0924     -4940.1295      4332.4639     -137165.35    
    571100   2570.976      -4293.2578      4310.9793     -137167.03    
    571200   2500.4886      1503.2315      4276.1746     -137163.06    
    571300   2569.9025      9606.6281      4253.0986     -137162.07    
    571400   2541.5046      2923.6192      4290.6238     -137164.72    
    571500   2350.5786     -8441.4567      4375.7474     -137162.11    
    571600   2534.5552     -67.205588      4416.3248     -137160.28    
    571700   2656.2543     -3883.2685      4467.5866     -137157.47    
    571800   2559.7565     -3891.4663      4503.7167     -137157.3     
    571900   2515.381      -13142.051      4508.7357     -137159.91    
    572000   2366.8953     -6348.471       4445.2769     -137155.78    
    572100   2594.5472      6980.0961      4330.9218     -137160.97    
    572200   2596.9751      7477.3718      4255.6869     -137163.81    
    572300   2399.9986      10477.616      4233.5825     -137164.27    
    572400   2384.4276      547.76499      4272.7383     -137163.57    
    572500   2562.8683     -394.63077      4301.4025     -137160.39    
    572600   2627.1638      1888.2603      4334.1799     -137157.13    
    572700   2602.2218     -10518.432      4374.3529     -137159.65    
    572800   2508.0203     -7016.5346      4370.8702     -137160.62    
    572900   2508.6959      3025.6684      4339.3561     -137163.91    
    573000   2411.9944      108.00327      4314.7376     -137168.47    
    573100   2129.8886     -1313.156       4273.5455     -137166.11    
    573200   2479.7081      9092.4456      4237.0023     -137168.61    
    573300   2475.9762      1873.3939      4257.737      -137165.19    
    573400   2577.9008     -2372.1476      4314.8668     -137164.09    
    573500   2683.7379     -4113.3415      4387.7531     -137162.24    
    573600   2674.2279     -10301.207      4446.6157     -137158.7     
    573700   2756.3567     -2991.4681      4439.1207     -137155.74    
    573800   2622.6706     -1683.8573      4392.788      -137158.32    
    573900   2359.4874     -3802.1234      4335.6008     -137157.96    
    574000   2491.1233      18831.92       4267.2988     -137161.95    
    574100   2558.8117     -902.30464      4270.761      -137168.12    
    574200   2374.7145     -13035.431      4308.3594     -137169.96    
    574300   2324.4822     -9418.1349      4308.8599     -137165.59    
    574400   2545.9465      6698.7432      4271.6933     -137161.8     
    574500   2467.3353      5942.8392      4265.9435     -137160.26    
    574600   2412.2815      6121.1076      4298.4304     -137162.36    
    574700   2274.0344     -1859.1679      4339.2533     -137161.31    
    574800   2474.8675     -4653.2695      4363.2689     -137160.49    
    574900   2619.8372     -2728.6351      4376.5388     -137157.21    
    575000   2714.5532     -15942.065      4359.3833     -137161.9     
    575100   2559.4223      15719.005      4268.1473     -137163.94    
    575200   2362.6481      4358.9232      4244.2864     -137162.14    
    575300   2442.3944      692.53023      4263.1458     -137163.22    
    575400   2478.8544      1430.9019      4310.8819     -137161.3     
    575500   2586.1344     -2352.6322      4401.3295     -137162.24    
    575600   2315.1586     -4576.3291      4495.1456     -137154.41    
    575700   2552.2409     -21207.244      4534.7587     -137156.3     
    575800   2450.8398      7027.0351      4457.859      -137149.53    
    575900   2562.5556      4813.8371      4376.1776     -137155.24    
    576000   2512.296       831.13         4305.3404     -137159.79    
    576100   2417.8086      191.40344      4251.1029     -137162.14    
    576200   2595.6445     -761.30736      4221.2815     -137168.01    
    576300   2591.2992      4133.6309      4216.879      -137167.57    
    576400   2556.7615     -1753.6175      4258.3272     -137166.75    
    576500   2437.8974     -5426.1074      4327.3176     -137163.77    
    576600   2437.1597     -2183.7782      4370.8267     -137160.6     
    576700   2495.4542      70.048027      4405.498      -137154.29    
    576800   2583.0707     -3745.6216      4427.2785     -137156.69    
    576900   2441.364      -5799.4198      4427.9638     -137157.34    
    577000   2221.2171      801.02908      4395.3264     -137158.88    
    577100   2136.4681      3282.0104      4357.4027     -137160.69    
    577200   2747.9065     -6507.804       4313.6085     -137166.55    
    577300   2737.9408      15200.621      4246.6741     -137165.64    
    577400   2576.8974     -2545.515       4236.7707     -137168.85    
    577500   2400.5533      1937.9859      4243.5354     -137166.89    
    577600   2581.4349      9916.6315      4275.0751     -137168.27    
    577700   2441.2293     -7008.8812      4360.4973     -137158.68    
    577800   2611.3385     -1608.4282      4407.7768     -137152.81    
    577900   2669.3541      1722.7818      4411.4706     -137152.22    
    578000   2525.6031      7433.2518      4403.2899     -137154.18    
    578100   2378.4766     -7323.4375      4405.8347     -137157.01    
    578200   2580.8423      2591.4193      4343.0622     -137165.59    
    578300   2512.7511      10326.095      4253.6177     -137166.61    
    578400   2278.4471      16369.371      4214.4613     -137167.4     
    578500   2170.2625      2296.384       4264.4637     -137166.52    
    578600   2359.787      -5563.7651      4348.5243     -137161.21    
    578700   2609.1118     -422.86208      4401.1059     -137162.71    
    578800   2689.7758     -4688.4259      4438.8545     -137161.9     
    578900   2280.0718      150.59103      4444.4394     -137154.68    
    579000   2475.3467     -7962.399       4405.8978     -137163.31    
    579100   2444.8718      11158.915      4312.5509     -137164.31    
    579200   2522.1809      8145.9002      4284.1003     -137164.76    
    579300   2454.181       8972.3721      4308.9845     -137158.85    
    579400   2664.263       2168.6543      4362.6091     -137161.93    
    579500   2627.9981     -1577.4578      4432.7765     -137162.45    
    579600   2201.4241     -8695.8298      4500.1584     -137157.03    
    579700   2443.2074     -6961.7574      4518.7952     -137161.02    
    579800   2581.6421     -2800.4951      4461.5724     -137156.84    
    579900   2623.1849      6755.6289      4374.4238     -137156.62    
    580000   2388.7816      6648.2851      4343.6153     -137155.85    
    580100   2454.0523     -1785.9165      4346.0115     -137158.97    
    580200   2503.6892      2745.1744      4338.2042     -137160.52    
    580300   2378.7654     -7470.3917      4337.8815     -137160.11    
    580400   2487.9321     -3211.8405      4300.7989     -137163.95    
    580500   2601.9034      8835.3694      4256.5991     -137160.38    
    580600   2727.3612      976.59717      4273.7652     -137161.62    
    580700   2484.8312     -6434.3056      4326.0776     -137164.32    
    580800   2363.0355     -2150.0558      4356.5997     -137164.3     
    580900   2421.7346      168.16333      4354.9675     -137162.41    
    581000   2466.4266     -2507.2184      4312.0725     -137159.89    
    581100   2631.5029      5697.6896      4246.0474     -137162.67    
    581200   2484.6552      428.09961      4228.3995     -137167.29    
    581300   2374.0393     -6104.013       4228.3115     -137169.46    
    581400   2359.6084      10992.187      4231.1009     -137164.85    
    581500   2435.87        4191.9232      4289.9003     -137161.38    
    581600   2430.0126     -5225.3121      4384.8824     -137158.95    
    581700   2586.9002     -4010.8626      4451.8007     -137158.69    
    581800   2747.9137     -1040.4249      4474.215      -137153.62    
    581900   2662.9337     -3736.825       4450.494      -137153.96    
    582000   2605.9732     -4858.0103      4380.0128     -137162.04    
    582100   2579.9876      9402.8554      4296.4957     -137164.3     
    582200   2481.9697      6263.4401      4249.9909     -137164.61    
    582300   2467.2012      9652.8053      4251.6736     -137166.77    
    582400   2220.6008     -10454.356      4296.747      -137165.68    
    582500   2381.38       -2802.4618      4299.0205     -137166.57    
    582600   2564.6887      948.18234      4275.8765     -137162.81    
    582700   2626.7878      6168.5789      4258.0831     -137164.8     
    582800   2443.2772     -6153.9762      4270.6957     -137165.04    
    582900   2519.306       866.7455       4261.5995     -137168.99    
    583000   2338.8471      8157.1318      4270.0009     -137158.06    
    583100   2705.1283     -2217.7833      4316.3275     -137160.51    
    583200   2435.3044     -5299.7272      4361.4386     -137157.91    
    583300   2396.2834     -6524.1327      4383.5362     -137160.75    
    583400   2512.0456      217.6681       4368.7188     -137161.59    
    583500   2924.9569     -4575.9516      4349.54       -137161.99    
    583600   2865.9956      4142.4027      4356.4773     -137160.26    
    583700   2633.1499     -9891.6699      4398.6052     -137160.55    
    583800   2490.8208     -8203.0286      4390.866      -137161.85    
    583900   2487.506      -4073.5716      4319.5233     -137166.14    
    584000   2437.7941      11716.401      4225.907      -137164.65    
    584100   2689.6103      14320.776      4195.2733     -137165.24    
    584200   2610.8293      8473.6225      4251.0986     -137160.97    
    584300   2414.5944     -9463.7326      4359.2002     -137161.87    
    584400   2373.1559     -8571.7373      4420.2796     -137164.36    
    584500   2449.6209     -6534.1117      4431.4594     -137161.11    
    584600   2579.2346     -3939.0014      4391.7784     -137158.2     
    584700   2511.1246      8702.6006      4310.4016     -137157.83    
    584800   2631.7409      8183.3781      4262.3307     -137164.41    
    584900   2393.9546      2931.7399      4266.92       -137164.25    
    585000   2301.3837      2200.453       4294.7642     -137162.77    
    585100   2722.6745     -844.55939      4344.5186     -137170.46    
    585200   2361.0199     -7668.2217      4418.9342     -137158.8     
    585300   2537.1062     -6465.381       4440.3825     -137159.09    
    585400   2524.5394     -3992.5519      4415.7385     -137156.74    
    585500   2498.275       5158.1971      4342.3798     -137158.41    
    585600   2532.5943      9244.8643      4273.7401     -137162.75    
    585700   2486.3448      5378.8366      4260.8035     -137162.45    
    585800   2491.5145      736.09455      4294.0776     -137162.31    
    585900   2433.5795      2099.477       4343.2651     -137159       
    586000   2710.1842     -980.54976      4404.0289     -137158.91    
    586100   2849.6703     -7091.3593      4483.8687     -137155.76    
    586200   2484.0493     -10085.607      4521.7041     -137153.74    
    586300   2376.0156     -13886.032      4469.2883     -137155       
    586400   2498.7583      16057.329      4340.0874     -137160.16    
    586500   2393.0553      4029.3295      4279.7004     -137162.24    
    586600   2375.273       2572.7501      4266.65       -137163.89    
    586700   2548.9938      3026.6756      4287.0608     -137163.84    
    586800   2657.1804     -1025.9665      4341.2493     -137159.25    
    586900   2557.1325     -6780.7494      4388.5421     -137157.65    
    587000   2397.4452     -8258.0962      4392.2562     -137160.8     
    587100   2420.7276     -15897.23       4341.2391     -137166.97    
    587200   2557.1268      9857.1802      4261.7155     -137166.06    
    587300   2708.1846      9505.1199      4277.6542     -137168.93    
    587400   2433.3821     -4222.4865      4356.1526     -137164.07    
    587500   2358.9857     -10981.52       4389.0152     -137160.71    
    587600   2610.0736      6033.14        4353.8892     -137155.98    
    587700   2718.2557      3724.9805      4357.5        -137158.7     
    587800   2427.281      -1538.5375      4405.0718     -137156.84    
    587900   2441.7001     -6996.2234      4431.6081     -137160.87    
    588000   2472.7031     -7974.997       4392.3738     -137161.59    
    588100   2590.851       2411.4036      4320.1492     -137162.4     
    588200   2551.2739      3199.8817      4259.6963     -137161.61    
    588300   2471.8314      14740.176      4213.9125     -137166.17    
    588400   2383.0092     -3360.9564      4216.4661     -137169.38    
    588500   2318.3101      1430.8868      4226.133      -137164.08    
    588600   2453.6903      13651.623      4256.4313     -137160.56    
    588700   2423.3979     -3171.018       4335.2691     -137159       
    588800   2490.8984     -10186.322      4396.6175     -137158.02    
    588900   2716.0891     -664.14684      4414.5696     -137153.96    
    589000   2772.1696     -7877.6737      4432.3057     -137157.53    
    589100   2585.4828     -6056.1123      4424.7919     -137158.92    
    589200   2376.079       7451.2012      4391.8012     -137158.51    
    589300   2367.5054     -2466.6165      4376.7798     -137160.37    
    589400   2630.9517     -6617.8602      4336.4634     -137165.2     
    589500   2795.2032      7979.8326      4275.15       -137160.85    
    589600   2710.9566      9549.3626      4283.2517     -137162.77    
    589700   2419.8164     -8245.9111      4365.9007     -137162.17    
    589800   2398.6192     -13110.817      4402.6267     -137160.57    
    589900   2515.0993      9634.3507      4351.1482     -137159.67    
    590000   2663.6235     -3832.5396      4302.6507     -137161.52    
    590100   2482.2208      7546.5993      4260.9787     -137158.07    
    590200   2425.5283      9150.9162      4259.4901     -137163.77    
    590300   2415.9156     -10396.384      4298.7501     -137166.79    
    590400   2470.3538     -3817.7964      4316.3204     -137164.01    
    590500   2717.6798      2682.2055      4319.9133     -137161.95    
    590600   2636.8846      2543.23        4356.3029     -137159.75    
    590700   2571.6677     -5018.2311      4428.4992     -137161.06    
    590800   2486.6163     -19755.428      4460.9264     -137162.91    
    590900   2383.6337     -5390.0843      4385.9002     -137160.44    
    591000   2779.1447      10107.521      4263.0648     -137161.21    
    591100   2841.5422      8745.0974      4192.886      -137163.21    
    591200   2537.5277      12953.032      4208.3182     -137160.71    
    591300   2470.9634     -9205.4273      4297.9198     -137163.04    
    591400   2278.7383     -7841.5361      4359.6732     -137159.3     
    591500   2567.3614      786.29895      4378.2412     -137160.85    
    591600   2650.8885      489.81413      4401.6844     -137157.75    
    591700   2494.6929     -143.01646      4431.2595     -137157.75    
    591800   2407.5437     -5400.5357      4432.656      -137159.47    
    591900   2413.8082      7904.0046      4397.3011     -137159.73    
    592000   2611.6483     -9245.1839      4379.1799     -137164.69    
    592100   2585.0015      4380.2745      4343.3437     -137162.76    
    592200   2639.9368      10413.221      4365.8582     -137158.24    
    592300   2772.376      -15956.64       4448.8432     -137158.98    
    592400   2541.1989     -5652.131       4481.0197     -137156.54    
    592500   2255.9757     -6680.9451      4468.6192     -137156.8     
    592600   2443.8463     -3158.4343      4402.558      -137161.94    
    592700   2623.0862      6447.7425      4326.0662     -137163.65    
    592800   2666.4206      700.7456       4289.8978     -137166.26    
    592900   2520.0715     -11586.213      4279.2433     -137167.75    
    593000   2538.7908      3263.0406      4267.5293     -137167.44    
    593100   2494.4171     -7122.0652      4275.2253     -137163.45    
    593200   2598.194       4080.6147      4255.4042     -137163.97    
    593300   2440.5567      2484.3582      4243.2844     -137164.92    
    593400   2375.4171     -154.32815      4251.1276     -137169.31    
    593500   2350.7299     -1531.3731      4289.0028     -137164.36    
    593600   2375.4476     -655.39602      4341.76       -137156.68    
    593700   2531.3434      894.45426      4385.8979     -137158.43    
    593800   2554.7314     -12999.36       4437.3726     -137157.03    
    593900   2484.986      -1021.1225      4445.3859     -137155.97    
    594000   2517.5231     -8008.4786      4438.0645     -137159.48    
    594100   2489.5203      4983.816       4405.4113     -137162.76    
    594200   2397.7436     -9674.747       4376.356      -137164.94    
    594300   2298.4997      5355.1104      4285.9505     -137163.84    
    594400   2613.1206      10442.752      4220.9437     -137163.96    
    594500   2822.3236      2450.6636      4246.6789     -137166.49    
    594600   2425.2107      1133.9014      4352.0661     -137161.73    
    594700   2384.5568     -14761.901      4476.1878     -137161.94    
    594800   2357.7636     -12951.171      4497.9338     -137156.94    
    594900   2461.6697      1689.9391      4412.0251     -137156.48    
    595000   2633.765       3490.3461      4324.3187     -137160.93    
    595100   2532.9046      3731.1857      4258.3822     -137165.54    
    595200   2359.9814      1147.4255      4233.3765     -137164.85    
    595300   2475.7832      4674.4659      4243.675      -137165.92    
    595400   2526.7204      7006.9608      4319.2879     -137163.59    
    595500   2468.5884     -16390.294      4417.4477     -137160.26    
    595600   2585.165      -4172.1676      4413.5307     -137162.52    
    595700   2523.5072     -2462.2502      4359.1183     -137161.74    
    595800   2567.845      -3487.8583      4310.1286     -137163.13    
    595900   2506.1546      11439.085      4286.8957     -137161.06    
    596000   2429.9982     -7344.9973      4313.3877     -137158.75    
    596100   2766.8005      2332.8751      4327.9026     -137159.77    
    596200   2851.8656     -1315.1408      4359.2836     -137156.1     
    596300   2608.0903     -2704.3631      4370.647      -137160.88    
    596400   2405.9269      207.65187      4372.9703     -137163.24    
    596500   2313.8597     -3519.1858      4373.8496     -137162.63    
    596600   2457.2829     -495.3502       4345.5222     -137161.28    
    596700   2714.3653      4166.8198      4321.8194     -137162       
    596800   2584.9388     -3550.1851      4359.4422     -137161       
    596900   2351.8362     -4653.5163      4393.0635     -137161.63    
    597000   2459.1444     -7767.5137      4376.9997     -137165.15    
    597100   2597.476      -3602.1987      4316.6617     -137167.77    
    597200   2565.4975      9222.286       4280.5343     -137165.38    
    597300   2677.3885     -2995.8359      4328.001      -137163.23    
    597400   2735.4454     -277.70847      4389.0562     -137156.34    
    597500   2516.936      -3700.9982      4437.9714     -137153.43    
    597600   2532.7448     -12583.556      4432.5413     -137158.08    
    597700   2572.6936     -3193.9253      4351.7087     -137160.44    
    597800   2498.5828      8262.6279      4274.6537     -137160.75    
    597900   2354.2459      8649.5247      4258.4642     -137164.61    
    598000   2260.5595      5294.116       4291.6656     -137166.61    
    598100   2346.7049      4529.5222      4324.8269     -137161.76    
    598200   2578.0866     -6024.5922      4358.4189     -137163.88    
    598300   2517.4795     -3326.5162      4367.8415     -137162.18    
    598400   2507.6415     -2688.0784      4356.0764     -137162.04    
    598500   2450.9165     -1577.9333      4330.3366     -137158.76    
    598600   2618.5772      4542.4846      4295.7898     -137160.34    
    598700   2683.1404      3422.8539      4288.3408     -137163.36    
    598800   2252.4623      5142.5592      4313.9964     -137161.05    
    598900   2444.752       483.26447      4354.6135     -137166.02    
    599000   2414.6473     -13511.737      4389.0656     -137159.4     
    599100   2665.7865      1909.0861      4361.3508     -137161.29    
    599200   2545.2186     -1914.3252      4344.5465     -137159.65    
    599300   2475.4083      1809.9299      4345.1611     -137160.03    
    599400   2463.0614     -7426.0046      4348.4769     -137161.97    
    599500   2429.6339      620.42936      4310.7618     -137164.03    
    599600   2217.4852      683.0695       4290.5026     -137160.61    
    599700   2605.2328     -497.93522      4291.553      -137164.9     
    599800   2550.0769      8759.5832      4302.2067     -137160.09    
    599900   2603.3445     -671.45651      4363.9882     -137159.71    
    600000   2667.5485     -6106.6079      4420.1224     -137161.86    
    600100   2541.8201     -11296.476      4424.256      -137164.06    
    600200   2376.825      -2307.7504      4390.7364     -137161.78    
    600300   2762.2326      1612.945       4362.8396     -137164.18    
    600400   2718.2268      3283.6362      4364.6702     -137162.38    
    600500   2576.8184     -2491.3441      4393.7907     -137163.46    
    600600   2435.2689      74.117197      4421.082      -137162.1     
    600700   2388.7574     -4498.5365      4421.1631     -137159.19    
    600800   2543.6013     -721.12014      4377.1289     -137158.59    
    600900   2683.3254     -6306.7558      4337.4474     -137161.43    
    601000   2485.5464      9405.4568      4288.5216     -137158.98    
    601100   2526.0804      3623.6448      4274.8031     -137164.74    
    601200   2400.7158     -1046.5877      4301.3455     -137165.38    
    601300   2364.609       346.62111      4359.4977     -137158.87    
    601400   2665.529      -2643.8912      4421.2861     -137157.41    
    601500   2648.9844     -9829.71        4453.4973     -137157.31    
    601600   2527.646       198.25634      4433.995      -137159.95    
    601700   2409.735      -2977.9271      4401.9541     -137161.7     
    601800   2335.9862     -1234.8518      4333.7243     -137162.08    
    601900   2373.1172      10190.897      4242.5907     -137158.18    
    602000   2596.003       22257.797      4218.8687     -137156.81    
    602100   2631.7196     -3853.1281      4306.1051     -137162.99    
    602200   2449.1146      100.06938      4401.5559     -137163.23    
    602300   2305.4176     -13961.478      4475.8834     -137158.71    
    602400   2397.2407      928.2153       4457.9409     -137152.22    
    602500   2772.1171     -13602.428      4395.456      -137159.49    
    602600   2588.5227      13424.313      4313.9799     -137160.26    
    602700   2492.8518      541.95713      4290.8912     -137165.03    
    602800   2448.179      -873.07361      4280.5047     -137166.63    
    602900   2510.7321     -1515.5096      4283.5634     -137166.28    
    603000   2630.6945      10687.517      4303.6263     -137161.13    
    603100   2697.8799     -2715.748       4387.905      -137160.94    
    603200   2405.7116     -16721.243      4463.6289     -137161.47    
    603300   2341.9453     -4837.0749      4436.2768     -137165.1     
    603400   2532.8431      4959.7747      4355.2434     -137166.04    
    603500   2567.5138      3137.3642      4304.4079     -137162.83    
    603600   2577.7772     -1646.2703      4291.3352     -137162.63    
    603700   2501.0427     -5052.2884      4298.8635     -137164.44    
    603800   2118.9928      1894.8067      4292.3263     -137164.1     
    603900   2290.234      -5206.4219      4281.5903     -137166.41    
    604000   2450.7122      6747.0355      4243.9333     -137165.37    
    604100   2672.2636      3132.1668      4244.1547     -137168.8     
    604200   2337.7453      3312.9408      4261.1651     -137159.77    
    604300   2522.5094      719.56305      4271.6327     -137164.78    
    604400   2347.8959      11686.476      4310.5638     -137161.02    
    604500   2463.5405     -11293.932      4385.5212     -137161.03    
    604600   2469.0846      5309.1832      4406.2335     -137152.83    
    604700   2559.742      -574.43678      4412.5614     -137152.81    
    604800   2592.9913      2733.8764      4403.389      -137158.49    
    604900   2392.6364     -1944.6149      4391.5156     -137159.17    
    605000   2364.5789     -9514.698       4348.2016     -137158.09    
    605100   2599.5181      15835.643      4267.1719     -137162.66    
    605200   2355.9831      10815.25       4262.8917     -137159.77    
    605300   2375.9664     -9803.3412      4302.5987     -137164.02    
    605400   2434.8627      748.10115      4301.9496     -137162.45    
    605500   2822.0361     -6630.6917      4308.945      -137163.82    
    605600   2561.171       4168.9624      4332.6867     -137158.62    
    605700   2431.4091     -3944.3979      4385.2142     -137162.59    
    605800   2285.8931     -291.54792      4400.7647     -137160.21    
    605900   2515.255      -320.38029      4387.8249     -137163.51    
    606000   2529.0467     -1634.9224      4350.9351     -137163.1     
    606100   2475.2271      8137.1784      4286.4162     -137162.79    
    606200   2418.8069      7060.5659      4256.175      -137163.53    
    606300   2303.6286     -1102.0911      4263.5748     -137166.69    
    606400   2444.9002     -5773.8565      4266.7699     -137166.87    
    606500   2532.0668      5828.0243      4246.6431     -137161.89    
    606600   2531.5089      3828.5909      4252.9655     -137161.48    
    606700   2426.8238      1748.0871      4272.7807     -137161.19    
    606800   2369.8697     -2675.9392      4285.0858     -137165.78    
    606900   2288.1798      2185.1114      4292.2229     -137167.46    
    607000   2305.6852      9084.3392      4299.0677     -137160.14    
    607100   2596.4062     -1349.4792      4315.6282     -137161.9     
    607200   2557.2604     -3271.8726      4332.5144     -137162.19    
    607300   2577.7981     -2882.009       4344.6384     -137162.34    
    607400   2589.3978     -4070.2581      4347.0567     -137161.08    
    607500   2480.955       1309.0154      4338.9809     -137157.07    
    607600   2520.3043      3677.9874      4333.6537     -137157.72    
    607700   2365.9315     -920.73418      4334.8075     -137158.4     
    607800   2351.2841     -531.19506      4317.0162     -137162.58    
    607900   2439.3994      5835.7918      4295.5056     -137162.09    
    608000   2684.7612      733.95001      4313.9393     -137158.86    
    608100   2710.1967     -212.62966      4353.7022     -137161.58    
    608200   2616.4415     -12646.018      4416.4891     -137164.29    
    608300   2381.2289     -2339.2825      4447.1249     -137158.63    
    608400   2613.7152     -11344.426      4432.832      -137161.64    
    608500   2627.2398      9058.012       4344.4549     -137161.17    
    608600   2347.024       968.6365       4281.9313     -137164.8     
    608700   2361.4193     -3729.5974      4224.8834     -137167.36    
    608800   2553.4481      17318.791      4160.0839     -137167.24    
    608900   2536.7162      4623.2817      4188.6635     -137164       
    609000   2457.8709     -2737.7675      4266.311      -137160.06    
    609100   2667.4957      1104.2006      4341.8086     -137158.92    
    609200   2714.1361     -5194.6548      4401.7637     -137157.73    
    609300   2555.8678     -14286.607      4435.4128     -137160.23    
    609400   2298.2501     -1433.972       4401.9327     -137157.65    
    609500   2556.4271      5992.1481      4344.6337     -137161.03    
    609600   2575.5937     -3520.252       4317.1984     -137160.83    
    609700   2550.3552      9011.9107      4299.5376     -137160.28    
    609800   2456.4709     -1967.0253      4314.9965     -137158.87    
    609900   2426.1848      4567.6812      4316.7325     -137159.21    
    610000   2475.913      -3686.275       4339.8831     -137159.72    
    610100   2601.9436     -5676.6084      4361.9179     -137160.32    
    610200   2565.2388     -4878.7958      4353.9744     -137161.87    
    610300   2420.8737      2391.3835      4304.6565     -137164.04    
    610400   2352.9044      2246.3457      4288.4673     -137162.37    
    610500   2636.0146     -66.794066      4282.6404     -137163.22    
    610600   2623.2197      12679.584      4261.3437     -137157.43    
    610700   2465.4856      2487.9393      4303.6746     -137159.06    
    610800   2498.3111     -10052.722      4371.9114     -137166.08    
    610900   2372.0473     -9858.3835      4401.9498     -137162.92    
    611000   2544.5159     -2444.4279      4387.7504     -137154.65    
    611100   2673.7702      5034.0454      4354.0561     -137156.51    
    611200   2605.0764     -1672.2301      4343.2897     -137161.84    
    611300   2594.0973     -7084.6433      4325.2686     -137166.91    
    611400   2627.773       2194.8456      4300.9603     -137170.14    
    611500   2419.4156     -2707.8115      4291.8249     -137167.78    
    611600   2351.1585     -6125.9716      4278.3778     -137168.86    
    611700   2534.4837      6583.1425      4253.1703     -137167.66    
    611800   2671.3213      7878.6205      4254.9525     -137165.9     
    611900   2458.8077      5243.6078      4299.3606     -137161.72    
    612000   2337.7214     -2223.8502      4372.8638     -137161.12    
    612100   2375.4122     -6683.9086      4424.6331     -137162.19    
    612200   2381.258      -5652.4198      4427.1482     -137153.43    
    612300   2733.3757      2777.7906      4383.8737     -137158.49    
    612400   2774.8116     -12912.342      4340.6078     -137167.77    
    612500   2298.3011      6491.8015      4277.3451     -137159.85    
    612600   2677.9585     -3177.2215      4233.88       -137166.83    
    612700   2556.608       19005.773      4203.8666     -137160.58    
    612800   2532.0316      2288.1613      4259.9895     -137166.92    
    612900   2249.8735     -13231.807      4347.4438     -137165.26    
    613000   2499.3301     -7386.2451      4357.3757     -137167.04    
    613100   2487.8186      1797.735       4330.1153     -137161.79    
    613200   2560.7475      1272.1236      4307.0926     -137161.99    
    613300   2555.0489      3354.8144      4267.8923     -137166.16    
    613400   2318.8266     -806.46718      4240.2313     -137167.28    
    613500   2336.6961      1787.7156      4220.2485     -137165.83    
    613600   2430.0987      4133.4777      4206.3687     -137165.47    
    613700   2545.7833      7178.0344      4233.5079     -137164.84    
    613800   2567.4361      2122.9688      4306.7926     -137163.22    
    613900   2470.4085     -12512.071      4395.3964     -137160.89    
    614000   2507.6146     -12798.147      4401.8888     -137159.87    
    614100   2702.1679      5038.88        4328.5114     -137161.98    
    614200   2405.6319      9767.5998      4295.2165     -137157.73    
    614300   2367.4732      4383.9989      4300.9903     -137162.7     
    614400   2311.4514     -2641.4767      4309.0671     -137162.14    
    614500   2620.5328      6048.9353      4298.8253     -137159.3     
    614600   2727.5857     -6189.2762      4311.1691     -137163.74    
    614700   2316.5391     -498.35081      4309.0648     -137159.3     
    614800   2249.6116      7394.0222      4280.9502     -137160.45    
    614900   2439.2819      1669.8348      4268.5208     -137163.76    
    615000   2750.9941      5407.2317      4273.9848     -137162.19    
    615100   2569.4166      5018.2945      4327.3376     -137158.09    
    615200   2602.3228     -8083.2719      4425.3984     -137162.49    
    615300   2488.0809     -15737.965      4477.2664     -137159.59    
    615400   2523.2494     -2866.3222      4416.9804     -137158.27    
    615500   2703.0333      10177.475      4300.5255     -137161.65    
    615600   2415.0805      10537.164      4234.4993     -137162.65    
    615700   2456.1971      4888.3113      4241.6376     -137166.68    
    615800   2502.9394     -1884.5924      4272.673      -137167.11    
    615900   2655.844      -2819.1347      4301.224      -137165.65    
    616000   2579.9107      4345.2623      4330.861      -137158.83    
    616100   2493.0522     -1520.8723      4362.8365     -137159.81    
    616200   2246.7798     -1304.8909      4386.6456     -137159.25    
    616300   2418.9348     -1676.1537      4396.5256     -137160.62    
    616400   2550.1516      3138.6992      4398.6145     -137155.81    
    616500   2608.0224     -864.64628      4412.9241     -137157.52    
    616600   2556.7893     -1090.5099      4431.8209     -137159.26    
    616700   2331.6473     -9567.29        4430.5381     -137156       
    616800   2685.2712     -1390.5388      4366.5517     -137159.7     
    616900   2818.0976      12654.413      4304.3226     -137157.47    
    617000   2536.7675      3028.6015      4303.0422     -137158       
    617100   2482.5634      4418.8504      4325.8177     -137161.56    
    617200   2487.2207     -8854.2276      4362.4605     -137163.98    
    617300   2605.6805     -9839.3343      4350.1126     -137165.92    
    617400   2618.9927      8684.8952      4312.85       -137160.05    
    617500   2809.8443      3328.4271      4329.2619     -137161.22    
    617600   2447.4126     -1826.2113      4388.4983     -137159.27    
    617700   2434.6624     -8121.9669      4465.2665     -137164.08    
    617800   2326.6988     -4827.6719      4498.1095     -137158.44    
    617900   2463.8502     -9805.3564      4477.8859     -137156.89    
    618000   2568.5966      136.74092      4394.3219     -137158.46    
    618100   2554.2843      8086.1476      4291.1216     -137161.69    
    618200   2497.9981      2567.5914      4243.7957     -137165.32    
    618300   2265.7857      10855.119      4229.8613     -137163.56    
    618400   2390.1426     -4635.651       4251.02       -137170.06    
    618500   2476.4022     -2074.9392      4277.1003     -137168.92    
    618600   2420.8863      5032.4554      4313.3252     -137160.05    
    618700   2592.7758      5041.3356      4360.8224     -137159.23    
    618800   2522.8222     -6691.6348      4439.4144     -137156.63    
    618900   2415.5463     -10587.527      4484.8111     -137152.92    
    619000   2669.6302     -5737.8578      4432.1292     -137155.93    
    619100   2677.803       14314.139      4333.9979     -137156.06    
    619200   2507.0381     -3102.002       4275.2516     -137161.85    
    619300   2522.7931      3825.7203      4238.6157     -137165.05    
    619400   2505.3584     -2366.5056      4267.6491     -137162.07    
    619500   2582.791       9692.3693      4304.8237     -137158.37    
    619600   2548.8388      2975.7997      4376.2791     -137157.13    
    619700   2445.6438     -17461.407      4438.0819     -137162.14    
    619800   2258.8424     -6828.6062      4383.6738     -137159.95    
    619900   2511.0078      12109.232      4257.2517     -137161.49    
    620000   2769.5835      15513.291      4200.295      -137165.28    
    620100   2353.4498     -7364.6603      4229.563      -137164.62    
    620200   2249.2544      1173.4192      4241.1672     -137161.58    
    620300   2545.9692      6872.5249      4269.0842     -137163.02    
    620400   2631.2948     -2906.3782      4319.6082     -137162.63    
    620500   2526.8455     -9251.1792      4346.6754     -137159.92    
    620600   2456.3999      1159.7684      4341.8687     -137159.85    
    620700   2384.4295      698.22622      4339.9965     -137161.28    
    620800   2309.8527     -996.39211      4318.6858     -137160.04    
    620900   2618.8248      621.67859      4283.3121     -137161.55    
    621000   2701.9337      5831.624       4272.8297     -137161.02    
    621100   2399.2188      4231.9087      4296.3531     -137159.66    
    621200   2482.6642      845.70546      4330.9646     -137164.42    
    621300   2541.9904     -3426.422       4357.3614     -137164.18    
    621400   2466.1877     -384.3264       4377.5512     -137158.64    
    621500   2706.5991     -2554.3954      4377.5292     -137161.28    
    621600   2499.0272      8722.2625      4352.4602     -137161.27    
    621700   2145.3379      7442.3541      4350.9365     -137160.65    
    621800   2360.7118     -45.183369      4362.4832     -137161.89    
    621900   2660.96       -11093.698      4376.2799     -137163.1     
    622000   2604.2205      4045.8742      4358.3327     -137160.01    
    622100   2528.7501     -3380.5928      4354.17       -137161.49    
    622200   2201.4825      2930.8292      4359.1009     -137160.79    
    622300   2380.2019     -2206.9397      4353.1203     -137165.6     
    622400   2647.4586      1569.6299      4317.4587     -137161.8     
    622500   2813.6102     -2556.0139      4292.1207     -137165.91    
    622600   2420.7799      9039.6087      4292.6052     -137160.91    
    622700   2506.1817     -3148.737       4329.0732     -137164.06    
    622800   2423.244       2457.9887      4350.5053     -137157.31    
    622900   2722.0333     -178.20937      4359.1118     -137156.48    
    623000   2600.0077      226.06128      4384.6822     -137156.36    
    623100   2454.9496     -1754.3518      4415.6587     -137159.43    
    623200   2457.7312     -2375.0139      4421.8274     -137159.17    
    623300   2528.776      -6468.9344      4387.6466     -137161.43    
    623400   2346.3781      6615.5212      4296.9601     -137158.28    
    623500   2483.6931      16950.051      4233.0171     -137161.82    
    623600   2370.8809      8703.9798      4257.0492     -137163.99    
    623700   2222.0137     -5920.5821      4318.8968     -137164.29    
    623800   2507.3267     -9211.1616      4347.4013     -137164.36    
    623900   2583.7432     -4841.3131      4323.9402     -137161.13    
    624000   2613.0245      18.885628      4291.5701     -137160.46    
    624100   2635.4789      9037.9603      4282.9473     -137164.18    
    624200   2422.1962     -1190.0552      4328.5012     -137166.39    
    624300   2275.4656     -7842.1663      4380.3042     -137160.09    
    624400   2269.3588     -3474.6605      4380.1632     -137154.69    
    624500   2584.4222      9523.3723      4344.5921     -137161.75    
    624600   2564.999      -2641.1388      4366.6366     -137162.26    
    624700   2366.7251     -2910.2022      4387.1951     -137161.31    
    624800   2140.4064     -5298.6884      4372.6448     -137159.32    
    624900   2509.8044     -4315.9331      4325.2733     -137159.65    
    625000   2620.5907      3568.0008      4270.0903     -137160.47    
    625100   2492.3629      4187.2007      4234.0812     -137162.67    
    625200   2546.1288      3860.2078      4233.9326     -137170.12    
    625300   2276.403      -5698.1777      4280.4008     -137162.69    
    625400   2383.9772      14995.707      4304.1019     -137158.21    
    625500   2660.6107     -8963.465       4366.1289     -137162.73    
    625600   2532.8255     -6963.8692      4426.5294     -137160.55    
    625700   2529.6545     -6533.3966      4461.408      -137162.79    
    625800   2329.8507     -18119.179      4441.5779     -137160.75    
    625900   2505.3517      4237.8646      4300.7774     -137163.94    
    626000   2722.9747      18059.676      4165.9681     -137165.24    
    626100   2487.4509      21681.435      4130.0117     -137167.56    
    626200   2323.4665      5798.0831      4207.4612     -137167.56    
    626300   2373.4579     -5837.3372      4345.4055     -137163.45    
    626400   2419.4396     -5872.3417      4455.9487     -137156.74    
    626500   2455.052       599.52871      4501.3234     -137154.54    
    626600   2602.0063     -16871.034      4504.9451     -137155.56    
    626700   2721.8412      2108.3037      4445.8372     -137155.16    
    626800   2451.0034     -5228.6252      4386.4527     -137158.34    
    626900   2486.5606      5431.1074      4321.6615     -137162.94    
    627000   2431.9334      6914.6745      4304.4419     -137162.59    
    627100   2531.8039     -4182.2177      4330.0747     -137165.05    
    627200   2586.3738     -7604.3065      4346.0483     -137161.08    
    627300   2640.5254      4919.2503      4346.2341     -137157.37    
    627400   2574.1338     -3726.2093      4372.3054     -137162.41    
    627500   2399.7871     -2101.4192      4378.5654     -137162.26    
    627600   2423.1122      272.81979      4375.329      -137162.38    
    627700   2631.7122     -7825.7824      4374.9951     -137164.03    
    627800   2715.2239     -3488.6884      4354.778      -137161.25    
    627900   2612.0543      2566.7391      4317.8829     -137162.39    
    628000   2291.8124     -436.41193      4307.4382     -137165.44    
    628100   2243.7465     -6291.5003      4302.2293     -137162.47    
    628200   2601.5806      2853.6778      4269.5032     -137164.69    
    628300   2591.8287      6613.4197      4259.4453     -137163.46    
    628400   2376.7881      3811.0471      4283.8873     -137161.03    
    628500   2230.5352     -6560.324       4304.0795     -137161.49    
    628600   2596.5183      3723.5384      4298.9228     -137169.24    
    628700   2579.0195     -3702.0931      4322.1918     -137161.07    
    628800   2727.4288      1027.4405      4350.9873     -137162.09    
    628900   2458.0391     -3398.1598      4381.4068     -137157.73    
    629000   2327.1172     -14853.681      4366.7801     -137164.77    
    629100   2434.3365      3038.0721      4276.4093     -137167.16    
    629200   2372.696       23466.761      4223.847      -137160.32    
    629300   2683.0792     -3646.1134      4277.0915     -137168.65    
    629400   2262.6909     -5309.5545      4345.261      -137162.83    
    629500   2122.8908     -13328.777      4356.4437     -137165.59    
    629600   2441.5828      7301.3681      4293.7454     -137164.7     
    629700   2579.8705      6963.5376      4260.6012     -137164.52    
    629800   2537.9685      3949.3192      4269.5231     -137165.4     
    629900   2463.1633      14.209783      4320.8088     -137166.83    
    630000   2496.1183     -1274.1439      4388.5975     -137167.65    
    630100   2470.2937     -2815.857       4436.9069     -137158.48    
    630200   2476.7646     -1071.3525      4449.656      -137153.3     
    630300   2439.025      -3638.7743      4413.0642     -137153.17    
    630400   2517.3826     -2648.1478      4344.2795     -137158.92    
    630500   2289.9988      3354.1037      4269.0686     -137162.38    
    630600   2602.9173     -7189.5628      4219.6725     -137171.57    
    630700   2574.5191      8631.9916      4181.8688     -137169.99    
    630800   2515.9978     -3975.3163      4194.8612     -137166.85    
    630900   2573.3627      15475.269      4230.9457     -137158.33    
    631000   2847.1814     -2391.3843      4335.433      -137162.8     
    631100   2454.5983     -1568.7548      4418.0152     -137157.21    
    631200   2432.7984     -10597.684      4448.847      -137157.69    
    631300   2523.4568     -2306.0626      4417.0154     -137158.39    
    631400   2588.1832     -1392.5468      4368.1085     -137154.91    
    631500   2900.5641      3291.4348      4326.4009     -137162.79    
    631600   2417.0431      6814.5662      4338.5456     -137160.21    
    631700   2445.4134     -1484.6879      4393.6072     -137162.03    
    631800   2494.5617     -13466.636      4438.5202     -137158.87    
    631900   2758.8442     -7142.9774      4413.6959     -137160.18    
    632000   2622.4719      1001.1394      4352.8076     -137158.05    
    632100   2384.2351     -4123.1611      4280.578      -137163.57    
    632200   2493.6403      2877.2725      4207.9883     -137166.4     
    632300   2554.2817      7891.3012      4164.6121     -137165.32    
    632400   2742.2876      8811.1174      4192.8578     -137168.95    
    632500   2398.8959      1073.6963      4293.5751     -137164.55    
    632600   2240.1292     -10623.06       4376.8279     -137162.85    
    632700   2622.934      -3695.4396      4391.2323     -137164.89    
    632800   2636.8964     -4630.8843      4390.2784     -137161.7     
    632900   2363.6097     -6938.2854      4357.0944     -137156.76    
    633000   2592.889      -1137.8628      4269.5069     -137164.69    
    633100   2431.8624      11761.069      4207.0942     -137166.85    
    633200   2324.8714      952.84454      4222.5035     -137169.97    
    633300   2479.5486     -2682.4255      4252.761      -137169.33    
    633400   2406.7434      8290.3577      4276.8957     -137161.27    
    633500   2488.1234     -581.70733      4335.1057     -137161.68    
    633600   2414.6237      3546.2439      4392.9802     -137157.66    
    633700   2608.9841     -14202.549      4441.7223     -137158.15    
    633800   2860.5223     -508.87001      4418.4108     -137156.91    
    633900   2862.0248     -1159.169       4369.4721     -137162.45    
    634000   2439.7928      5520.9439      4339.3446     -137159.69    
    634100   2401.1422      2322.9522      4338.9661     -137160.96    
    634200   2419.3605     -5084.7472      4336.8037     -137161.53    
    634300   2513.713       1768.1574      4308.2534     -137162.56    
    634400   2639.9752     -3781.0615      4280.4902     -137163.73    
    634500   2505.471       8434.6129      4273.583      -137161.31    
    634600   2411.6003      4395.5772      4335.0356     -137163.42    
    634700   2194.8699     -7346.8217      4423.7032     -137156.48    
    634800   2711.8965     -1724.5354      4455.3349     -137161.58    
    634900   2606.7422     -15454.75       4452.4016     -137158.29    
    635000   2544.3799      2898.9581      4368.7468     -137160.61    
    635100   2361.5109      7401.3276      4279.5828     -137162.99    
    635200   2246.3951      12197.603      4236.58       -137163.69    
    635300   2376.1944      9114.5088      4256.0968     -137165.07    
    635400   2594.7472      5108.8953      4316.4235     -137158.95    
    635500   2293.9148      3005.7195      4376.7763     -137150.2     
    635600   2575.7773     -4643.3277      4411.2472     -137161.42    
    635700   2386.1153     -4058.7118      4400.9733     -137160.81    
    635800   2449.9574     -1021.4643      4346.232      -137164.87    
    635900   2325.826       4489.2794      4286.4914     -137165.89    
    636000   2209.1319      4920.0045      4267.3149     -137162.1     
    636100   2625.9896      6874.2         4270.4684     -137164.52    
    636200   2554.5553      3036.7682      4298.2738     -137161.21    
    636300   2527.8426     -1006.5011      4327.7237     -137164.16    
    636400   2296.9762     -4704.0214      4342.851      -137162.57    
    636500   2336.4099     -5032.9667      4322.6049     -137165.12    
    636600   2730.6656      5995.3066      4287.2971     -137166.72    
    636700   2475.0405      10115.627      4295.6453     -137157.15    
    636800   2485.8256      4842.6371      4358.5214     -137157.09    
    636900   2478.095      -17229.901      4419.1318     -137156.81    
    637000   2476.4016      1548.6499      4385.0733     -137156.32    
    637100   2544.1098      8238.2164      4352.5386     -137157.35    
    637200   2464.6368     -1238.0046      4354.5064     -137159.17    
    637300   2312.7377     -792.21461      4347.3012     -137161.8     
    637400   2282.6988      2603.9881      4321.6203     -137159.71    
    637500   2532.4554      13621.262      4297.567      -137158.51    
    637600   2566.9148      3963.4559      4345.5229     -137157.2     
    637700   2504.4032     -5446.2211      4416.5336     -137158.02    
    637800   2461.3607      195.13312      4451.0185     -137157.87    
    637900   2613.5414     -6600.6534      4484.372      -137157.74    
    638000   2682.9253     -6747.9544      4481.6229     -137155.54    
    638100   2534.0661     -11374.467      4429.8629     -137160.06    
    638200   2443.5054      268.28144      4315.7277     -137164.63    
    638300   2465.2628      16552.152      4211.4105     -137165.56    
    638400   2559.699       12156.926      4216.4414     -137165.4     
    638500   2489.1127      7399.663       4308.5039     -137157.08    
    638600   2686.6579     -10027.316      4428.8415     -137155.75    
    638700   2558.843      -15760.939      4492.1301     -137153.42    
    638800   2445.0695     -4766.8089      4455.3663     -137157.36    
    638900   2381.6682     -11354.021      4388.8285     -137163.61    
    639000   2357.5419      4742.5343      4299.5754     -137162.28    
    639100   2449.756       13262.899      4237.3506     -137160.15    
    639200   2637.8929      12776.788      4240.6175     -137162.85    
    639300   2341.5823     -1559.5549      4291.505      -137161.07    
    639400   2335.7671     -11051.868      4313.7766     -137165.07    
    639500   2434.5035     -941.60013      4280.7791     -137161.08    
    639600   2685.6125      20525.039      4248.0378     -137161.03    
    639700   2503.4587      555.77905      4329.6602     -137160.83    
    639800   2479.9348     -17310.799      4429.3746     -137163.65    
    639900   2500.8695     -3917.1113      4432.889      -137161.42    
    640000   2904.4729     -3593.7266      4394.0433     -137162.88    
    640100   2626.9353      4340.404       4363.1447     -137158.64    
    640200   2570.0958     -11518.443      4361.4375     -137162.02    
    640300   2448.072       9268.6818      4318.4208     -137160.19    
    640400   2612.2798     -1258.804       4283.6815     -137166.13    
    640500   2356.0536      8501.741       4275.5643     -137159.2     
    640600   2599.2844      15344.983      4309.1921     -137162.76    
    640700   2374.7696     -1586.2147      4411.8101     -137156.3     
    640800   2436.4318     -12916.418      4473.2962     -137157.96    
    640900   2485.3026     -2057.0199      4442.6358     -137158.78    
    641000   2573.0627      2468.4442      4407.5851     -137156.58    
    641100   2808.713      -4431.269       4375.8965     -137159.93    
    641200   2480.6903     -479.10744      4320.2852     -137160.12    
    641300   2433.216       3950.919       4271.2454     -137161.84    
    641400   2563.2984      10086.74       4243.7165     -137165.51    
    641500   2499.066       4258.2665      4261.1197     -137164.26    
    641600   2371.9729      5507.6675      4288.1692     -137162.8     
    641700   2357.3693      5528.6326      4318.2086     -137164.28    
    641800   2470.0679     -3719.1403      4354.8897     -137162.62    
    641900   2699.8639     -4254.6253      4352.079      -137161.6     
    642000   2542.4883      3690.4871      4316.4947     -137159.55    
    642100   2493.5658      5978.8296      4283.8168     -137163.18    
    642200   2377.8586      2688.8085      4264.4522     -137166.22    
    642300   2314.5179      8300.6448      4282.1934     -137163.09    
    642400   2736.6549      2023.4578      4341.8565     -137161.49    
    642500   2513.0926     -15473.323      4397.6207     -137156.5     
    642600   2456.5117      4122.051       4383.3319     -137157.52    
    642700   2450.4648      1796.88        4372.9591     -137160.14    
    642800   2339.4176     -1614.7928      4370.2765     -137161.33    
    642900   2460.0379     -6083.2369      4343.7245     -137165.18    
    643000   2558.5473      1592.4077      4287.2186     -137162.82    
    643100   2598.2947      17136.404      4248.5405     -137161.14    
    643200   2362.5751     -1139.3564      4295.8926     -137162.88    
    643300   2277.4516     -6275.4206      4355.5802     -137164.28    
    643400   2201.5498     -4774.9352      4364.1733     -137157.26    
    643500   2577.187       1239.0085      4349.1375     -137163.26    
    643600   2669.2867      2963.2626      4352.993      -137165.89    
    643700   2428.8975     -5838.4121      4376.6288     -137163.49    
    643800   2352.6052     -6170.5472      4394.1009     -137161.44    
    643900   2608.0248     -5920.1391      4369.9969     -137158.41    
    644000   2722.4667      5108.725       4302.6428     -137160.36    
    644100   2429.2894      10328.182      4278.7122     -137158.94    
    644200   2445.3652      101.1064       4307.8933     -137163.76    
    644300   2532.3908     -692.00921      4348.9835     -137165.68    
    644400   2380.9554     -7687.7082      4399.6389     -137157.79    
    644500   2523.8661     -8348.1352      4408.2584     -137157.17    
    644600   2516.7403      7799.2698      4353.363      -137158.77    
    644700   2427.7127      10132.875      4304.6735     -137159.88    
    644800   2449.0339      424.35127      4287.3096     -137162.87    
    644900   2554.4036      2179.7476      4288.011      -137164.45    
    645000   2679.2217      6837.7175      4329.4508     -137158.97    
    645100   2777.5596     -5290.8465      4418.9301     -137159.31    
    645200   2498.7641     -10162.196      4507.0253     -137158.02    
    645300   2299.5428     -8529.3803      4550.0683     -137156.98    
    645400   2437.5601     -2366.5743      4512.1434     -137153.07    
    645500   2747.1238     -4807.2837      4435.0877     -137155.01    
    645600   2638.8045      3298.0259      4342.7815     -137160.37    
    645700   2482.1851     -88.237767      4262.0477     -137162.97    
    645800   2479.3716      7933.7927      4210.0549     -137165.66    
    645900   2490.0984      7268.6785      4191.839      -137169.83    
    646000   2354.4978      8882.3353      4205.735      -137169.05    
    646100   2408.1725      6172.7451      4270.229      -137168.52    
    646200   2571.3093     -11184.425      4392.3007     -137163.08    
    646300   2419.779      -960.83471      4478.2041     -137154.68    
    646400   2580.1196     -11563.436      4520.7243     -137155.33    
    646500   2637.1683     -3142.4665      4462.9933     -137160.14    
    646600   2305.1115     -4306.5047      4379.6083     -137159.72    
    646700   2583.897      -2967.852       4291.1243     -137167.05    
    646800   2641.7392      7040.0428      4226.5695     -137167.56    
    646900   2322.7066      9905.7358      4223.0658     -137164.25    
    647000   2242.338      -1598.7873      4275.1976     -137168.81    
    647100   2199.7231     -8869.8299      4333.351      -137159.47    
    647200   2415.3886      5609.9519      4344.1584     -137159.47    
    647300   2494.6506      9988.3743      4359.5557     -137158.02    
    647400   2368.5914     -3547.7171      4403.5509     -137156.4     
    647500   2487.2373     -5130.6859      4424.6219     -137156.43    
    647600   2712.9298     -263.01345      4412.1301     -137156.32    
    647700   2546.6465     -2723.0855      4404.6844     -137155.56    
    647800   2416.8785     -9393.7614      4371.9722     -137160.77    
    647900   2558.6637      8069.2031      4274.7086     -137166.27    
    648000   2477.0403      15992.168      4232.8302     -137164.27    
    648100   2658.2849      1898.7575      4289.0523     -137169.53    
    648200   2328.8737     -3795.9724      4368.5202     -137159.49    
    648300   2657.9588     -748.92217      4399.6925     -137159.28    
    648400   2530.0524     -7605.4003      4397.4802     -137155.13    
    648500   2577.0386     -5906.9527      4344.3305     -137161.4     
    648600   2277.4727      9066.9193      4271.9197     -137162.11    
    648700   2331.9772      6238.3229      4244.4016     -137164.88    
    648800   2369.3064      8686.1051      4259.639      -137161.96    
    648900   2530.7247     -2748.0567      4303.5098     -137162.4     
    649000   2547.9789     -1132.7938      4331.3211     -137161.87    
    649100   2246.9936      4318.0773      4347.9245     -137157.32    
    649200   2356.5749     -2177.9506      4345.2643     -137166.59    
    649300   2392.3839      7405.0752      4323.0567     -137167.29    
    649400   2544.5462     -1066.293       4321.4434     -137162.2     
    649500   2634.73       -2084.9231      4320.9995     -137160.83    
    649600   2435.8404     -1793.3415      4328.7734     -137157.32    
    649700   2366.6086      2500.3485      4322.0892     -137158.52    
    649800   2401.3635     -317.43308      4302.1262     -137166.16    
    649900   2270.6737      514.51634      4259.253      -137168.05    
    650000   2468.1464      10573.461      4231.9912     -137166.91    
    650100   2508.0633     -1591.251       4254.483      -137163.21    
    650200   2517.3378     -717.98265      4284.5465     -137163.06    
    650300   2466.3737     -1724.6541      4309.4678     -137161.91    
    650400   2545.7624     -2259.4367      4317.1285     -137163.63    
    650500   2499.3644      3869.7482      4327.7405     -137156.97    
    650600   2612.2446      1660.4465      4374.4429     -137156.08    
    650700   2601.0031     -8235.9948      4433.3518     -137158.97    
    650800   2529.7093     -4518.5472      4438.4158     -137164.56    
    650900   2426.5873     -969.96346      4402.9355     -137166.05    
    651000   2306.0812      793.27696      4346.9461     -137163.53    
    651100   2620.9845      13293.348      4296.3258     -137160.46    
    651200   2638.8872     -1371.491       4300.0918     -137161.13    
    651300   2495.4196     -147.93387      4305.6948     -137163.26    
    651400   2405.1738     -918.71791      4302.6571     -137165.16    
    651500   2547.4376      6329.6393      4299.2412     -137167.57    
    651600   2709.6268      114.01904      4321.4937     -137165.01    
    651700   2572.6298      2660.718       4350.4635     -137155.71    
    651800   2576.1266     -6929.029       4394.8466     -137159.52    
    651900   2315.5046     -8035.7202      4394.3251     -137160.45    
    652000   2422.5534     -3095.1176      4329.4876     -137162.5     
    652100   2576.7488      1696.3942      4239.3523     -137163.83    
    652200   2506.5194      15572.498      4170.05       -137163.55    
    652300   2225.4234      2703.3526      4187.6313     -137166.09    
    652400   2303.0504     -1424.419       4230.2788     -137166.18    
    652500   2468.0094     -621.20098      4248.7745     -137164.38    
    652600   2595.4574      3669.7778      4281.8087     -137165.87    
    652700   2516.6995     -360.67732      4358.9983     -137163.07    
    652800   2513.5643     -17424.631      4432.352      -137157.81    
    652900   2850.9689      829.49255      4406.4236     -137157.7     
    653000   2680.9428     -3950.5176      4364.0401     -137159.2     
    653100   2744.3569     -13914.41       4302.9959     -137167.83    
    653200   2441.3894      12052.837      4203.9894     -137164.71    
    653300   2448.9441      6713.7639      4168.719      -137167.44    
    653400   2519.0963      6612.2389      4203.3777     -137167.23    
    653500   2712.0365     -3062.5899      4284.9233     -137164.74    
    653600   2663.6628     -9017.8573      4369.5622     -137159.11    
    653700   2519.3694     -7144.939       4407.2548     -137160.19    
    653800   2297.1833     -14114.517      4386.7421     -137163.12    
    653900   2428.4938      113.06538      4299.9548     -137163.7     
    654000   2597.215       4046.2554      4231.4301     -137164.33    
    654100   2570.0938      17322.933      4217.4405     -137165.24    
    654200   2335.7737     -6375.639       4298.8624     -137168.04    
    654300   2212.7663     -6761.4615      4369.8582     -137163.77    
    654400   2308.6042     -10967.824      4378.9102     -137160.67    
    654500   2511.9353      6338.8943      4345.0516     -137158.79    
    654600   2696.9608     -2074.7525      4332.4043     -137160.75    
    654700   2582.0243      2784.7427      4309.3518     -137163.98    
    654800   2311.283      -1501.1667      4289.1147     -137162.22    
    654900   2428.0056      524.33081      4269.8263     -137161.88    
    655000   2555.5605      3743.8651      4263.3152     -137162.5     
    655100   2638.6396     -1238.3651      4292.6278     -137165.44    
    655200   2324.8703     -3174.5492      4331.412      -137161.58    
    655300   2279.9024     -10829.628      4324.3475     -137168       
    655400   2235.4968      6579.7531      4272.6414     -137161.62    
    655500   2528.3667      11294.827      4248.0585     -137163.34    
    655600   2431.5951      863.114        4286.5634     -137161.2     
    655700   2321.2844     -2463.9779      4343.3198     -137155.43    
    655800   2698.3449     -3147.3526      4378.5138     -137158.32    
    655900   2658.3048     -3994.7639      4396.6615     -137162.06    
    656000   2481.5357     -6675.3752      4391.496      -137162.07    
    656100   2473.6        -2039.221       4329.2213     -137162.97    
    656200   2433.4098      13830.732      4226.5166     -137162.65    
    656300   2540.1405      9276.8797      4183.4339     -137169.42    
    656400   2152.3511      791.44291      4204.2381     -137165.05    
    656500   2423.686      -6058.8437      4222.2664     -137166.22    
    656600   2553.4522      4409.4262      4232.2979     -137164.74    
    656700   2349.0669      8566.4433      4281.7313     -137159.63    
    656800   2599.8021     -1144.4905      4360.4932     -137163.23    
    656900   2574.971      -10926.153      4451.5831     -137155.33    
    657000   2721.1425     -20111.543      4495.2452     -137152.99    
    657100   2680.4748     -5806.0658      4410.0832     -137156.32    
    657200   2734.5276      4562.2903      4269.6496     -137164       
    657300   2568.4148      22490.247      4181.5988     -137166.35    
    657400   2404.0467     -2251.2189      4221.8664     -137165.73    
    657500   2482.6404     -5766.6992      4288.6365     -137164.42    
    657600   2557.5778      782.03952      4328.2107     -137159.96    
    657700   2775.0073      1986.7328      4409.2925     -137159.18    
    657800   2709.2393     -17567.037      4523.599      -137157.77    
    657900   2427.1608     -11687.282      4550.8715     -137161.25    
    658000   2228.808      -3011.2548      4484.2322     -137155.96    
    658100   2549.6563      1756.2686      4370.5464     -137156.87    
    658200   2781.1887      5764.4277      4276.9575     -137162.57    
    658300   2434.0584      3961.6404      4258.5682     -137161.21    
    658400   2383.9586      3816.9389      4279.4687     -137161.78    
    658500   2387.9854      2975.4215      4311.2807     -137160.73    
    658600   2532.2844     -71.883314      4350.4386     -137163.51    
    658700   2480.996      -6169.8255      4392.1434     -137158.3     
    658800   2718.8871      2658.5029      4405.4806     -137157.7     
    658900   2603.4978     -9144.6666      4427.9161     -137158.96    
    659000   2386.8261      4090.9059      4431.1175     -137159.82    
    659100   2455.5654     -12095.822      4432.9761     -137161.33    
    659200   2547.0891      774.31875      4375.2233     -137161.73    
    659300   2587.9842      3463.4372      4342.4406     -137160.13    
    659400   2598.005      -4928.8062      4330.8763     -137163.69    
    659500   2342.737      -2004.0192      4315.9592     -137163.54    
    659600   2386.2576      918.26415      4294.6924     -137164.96    
    659700   2428.0226      8289.7141      4266.3303     -137159.53    
    659800   2745.4415      4568.6186      4283.5185     -137162.65    
    659900   2629.2663     -2931.7131      4332.7038     -137162.47    
    660000   2457.8801     -2386.1374      4356.0091     -137162.54    
    660100   2511.6959     -5357.7287      4350.8377     -137163.71    
    660200   2503.4834      5341.3957      4328.4657     -137161.29    
    660300   2588.042      -2656.5899      4331.9098     -137158.91    
    660400   2777.8959      9174.7232      4351.0101     -137157.7     
    660500   2664.6967     -11338.312      4402.1098     -137157.77    
    660600   2535.9544     -9924.6618      4406.2458     -137163.22    
    660700   2497.6888     -3863.8795      4361.8397     -137164.47    
    660800   2380.6378      5601.2532      4319.4608     -137158.82    
    660900   2782.2734      3769.4109      4314.8404     -137162       
    661000   2607.2353      4239.9325      4349.6472     -137160.26    
    661100   2429.8932     -4133.3053      4415.3978     -137159.41    
    661200   2342.4012     -5107.3344      4425.747      -137155.7     
    661300   2586.8272      11333.142      4362.3685     -137158.61    
    661400   2612.9258     -3599.6496      4356.5078     -137158.69    
    661500   2374.8948      627.51405      4354.3542     -137162.69    
    661600   2267.5178      3883.6568      4334.3372     -137161.83    
    661700   2527.022      -5152.7802      4322.931      -137163.21    
    661800   2387.401       6022.5872      4313.0307     -137155.33    
    661900   2620.8981      2159.9383      4312.8131     -137159.32    
    662000   2447.045       1981.3025      4303.2519     -137160.06    
    662100   2346.5433      2633.9665      4290.6401     -137165.54    
    662200   2445.1192     -739.16091      4273.8718     -137167.06    
    662300   2409.6443      4382.8739      4271.0573     -137160.31    
    662400   2564.7523      7031.1052      4301.4426     -137160.3     
    662500   2472.4606      7961.1326      4366.8032     -137159.86    
    662600   2442.2331     -13717.85       4468.8438     -137160.19    
    662700   2527.856      -9299.328       4505.5294     -137159.67    
    662800   2637.8729     -12124.537      4466.1948     -137155.33    
    662900   2680.8565      2021.1104      4349.8318     -137159.92    
    663000   2604.0712      10270.168      4251.7202     -137166.38    
    663100   2416.1438      8862.6502      4230.9544     -137163.05    
    663200   2537.8185      2021.3232      4261.7235     -137168.09    
    663300   2459.4851     -4815.2684      4311.1308     -137165.48    
    663400   2503.9482      3060.2721      4351.5791     -137161.39    
    663500   2530.6143     -532.44997      4403.4449     -137155.9     
    663600   2535.2238     -12234.397      4441.025      -137153.87    
    663700   2719.0409      852.01316      4410.0424     -137159.55    
    663800   2398.6792     -6713.4972      4372.6909     -137158.97    
    663900   2312.8035     -1012.3063      4296.6891     -137160.04    
    664000   2546.6889      12363.151      4212.1709     -137164.23    
    664100   2627.9658      13940.507      4186.0579     -137164.97    
    664200   2432.4298      7132.5261      4234.0159     -137162.95    
    664300   2311.7989      3878.9968      4305.0107     -137166.53    
    664400   2227.621      -15255.937      4371.8814     -137164.12    
    664500   2421.0805      3211.462       4369.4336     -137159.76    
    664600   2697.8954      1142.8241      4356.8974     -137163.79    
    664700   2684.2456      262.95815      4343.4476     -137164.72    
    664800   2263.2963     -2950.9951      4310.6913     -137160.37    
    664900   2565.7604      3330.6223      4259.7413     -137166.58    
    665000   2717.9352      5931.9656      4252.2309     -137164.34    
    665100   2537.8302      566.15955      4315.6959     -137157.29    
    665200   2496.7334     -9087.7717      4379.8791     -137163.06    
    665300   2342.384      -12631.445      4380.9858     -137164.29    
    665400   2494.0781     -2194.7369      4304.5608     -137166.33    
    665500   2604.1558      8094.6469      4219.2829     -137164.09    
    665600   2651.6906      15810.601      4200.5608     -137162.66    
    665700   2358.2197     -2694.8598      4272.3881     -137163.01    
    665800   2222.3598     -12417.815      4332.2544     -137163.38    
    665900   2490.1824     -3695.2663      4320.587      -137165.09    
    666000   2544.6032      3750.0581      4292.9312     -137163.18    
    666100   2663.2757      4145.2211      4281.2483     -137167.4     
    666200   2380.5053      7916.5517      4311.3617     -137163.02    
    666300   2208.184      -2282.7852      4384.4909     -137163.53    
    666400   2303.1343     -3328.7516      4429.5872     -137165.36    
    666500   2559.7135     -1258.6873      4433.6594     -137162.25    
    666600   2475.4595      507.69132      4451.6069     -137154.68    
    666700   2593.6117     -5374.4332      4461.6648     -137155.28    
    666800   2502.4556     -1864.8545      4421.752      -137157.86    
    666900   2191.0517      90.008884      4335.9617     -137157.4     
    667000   2423.3963      18064.076      4214.8146     -137163.23    
    667100   2521.076       17746.474      4184.7591     -137164.83    
    667200   2476.0314     -5788.7962      4273.2661     -137164.18    
    667300   2438.6006     -1581.5748      4374.0663     -137160.06    
    667400   2544.4169     -10113.808      4454.0303     -137156.59    
    667500   2689.8952     -7074.7406      4464.2443     -137160.2     
    667600   2510.8242     -1443.9497      4401.7655     -137160.69    
    667700   2385.7496      9725.1118      4298.8108     -137162.28    
    667800   2345.5808      9164.998       4237.2961     -137164.11    
    667900   2353.2993      8626.9103      4223.4034     -137166.12    
    668000   2556.5163      5010.941       4254.9572     -137164.65    
    668100   2647.8225     -429.94864      4321.4353     -137161.03    
    668200   2526.0692     -10193.966      4406.8038     -137155.47    
    668300   2688.5019     -11740.919      4419.5378     -137160.63    
    668400   2538.5001      2610.8364      4369.8683     -137164.29    
    668500   2339.5508      7347.8987      4335.2577     -137164.43    
    668600   2535.3032     -9714.4669      4332.9733     -137167.69    
    668700   2632.0717      3368.1456      4308.5744     -137164.49    
    668800   2616.6856      5397.1013      4285.4974     -137163.31    
    668900   2293.8861      6140.8262      4307.7423     -137162.42    
    669000   2293.6062     -2766.4016      4365.6058     -137160.26    
    669100   2621.7158     -11474.702      4380.5151     -137161.34    
    669200   2476.9481      2426.6875      4332.9629     -137157.33    
    669300   2398.2172      6633.0619      4287.5287     -137158.4     
    669400   2379.9621     -3641.1008      4273.0417     -137162.05    
    669500   2347.1307     -329.22758      4239.9469     -137165.03    
    669600   2530.5527      8711.6277      4209.3285     -137169.03    
    669700   2449.661       8888.9644      4250.8868     -137162.97    
    669800   2525.0334     -4853.9951      4354.0127     -137158.48    
    669900   2651.6622     -8739.1144      4427.8963     -137156.07    
    670000   2466.7271     -3283.0614      4447.2309     -137152.84    
    670100   2151.3563     -8394.3582      4417.9867     -137155.18    
    670200   2419.9122     -136.18782      4329.4917     -137160.64    
    670300   2563.035       13661.148      4242.5031     -137162.21    
    670400   2453.1211      17793.143      4224.6399     -137161.63    
    670500   2173.4881     -1777.5225      4288.456      -137164.35    
    670600   2191.8128     -5147.349       4348.1001     -137163.71    
    670700   2434.1718     -2268.9371      4372.7011     -137163.21    
    670800   2492.2595      1962.5858      4380.7004     -137160.31    
    670900   2426.1937     -5976.4694      4367.545      -137157.1     
    671000   2546.6695      12503.195      4317.8079     -137160.34    
    671100   2404.5313     -3034.2681      4315.431      -137163.19    
    671200   2334.4299     -3207.3491      4309.6586     -137164.33    
    671300   2501.735       305.7303       4286.4711     -137161.8     
    671400   2542.1378      17840.129      4266.929      -137158.41    
    671500   2413.1863      4601.2036      4323.1178     -137155.63    
    671600   2687.0418     -12472.304      4399.8158     -137162.75    
    671700   2350.8642     -2308.6469      4421.1774     -137157.09    
    671800   2393.4799     -8708.2681      4411.2381     -137166.95    
    671900   2284.2684     -4354.8203      4380.245      -137161.68    
    672000   2589.199       12233.959      4330.0608     -137162.4     
    672100   2378.7885      1599.1238      4313.2484     -137157.91    
    672200   2573.324       7499.6655      4291.3781     -137164.81    
    672300   2394.5463     -34.755735      4288.8514     -137164.79    
    672400   2283.4192      3235.9299      4291.2324     -137163.69    
    672500   2597.9073     -3140.2646      4302.9078     -137162.15    
    672600   2580.1174      3652.683       4311.2277     -137160.07    
    672700   2517.9785     -9211.7103      4348.5358     -137161.21    
    672800   2335.5237     -3115.3504      4351.0086     -137159.67    
    672900   2416.123       900.29252      4314.3125     -137160.15    
    673000   2606.8535      8143.799       4287.2332     -137159.46    
    673100   2391.1013      2777.1348      4312.0299     -137155.9     
    673200   2439.8817     -4497.766       4352.6643     -137162.74    
    673300   2301.4345     -2108.5002      4357.9693     -137160.81    
    673400   2717.2449     -644.67112      4324.4534     -137163.88    
    673500   2748.295       1948.217       4309.7956     -137160.58    
    673600   2471.2925      1289.9394      4352.3817     -137159.31    
    673700   2525.9159     -1061.6595      4419.0437     -137162.98    
    673800   2437.3037     -10333.103      4485.0309     -137158.87    
    673900   2433.7052     -12832.826      4467.732      -137156.05    
    674000   2728.0818      1990.447       4344.0854     -137161.19    
    674100   2657.9185      7455.4432      4230.4166     -137167.39    
    674200   2453.5633      13160.826      4176.972      -137166.61    
    674300   2471.9829      5209.7197      4195.091      -137165.73    
    674400   2587.4322      559.70185      4246.0684     -137166.48    
    674500   2414.354      -590.47358      4317.2814     -137159.08    
    674600   2578.4945     -633.80932      4385.6267     -137158.06    
    674700   2689.9039     -3493.5387      4458.153      -137156.46    
    674800   2392.8358     -7569.6777      4510.0577     -137151.75    
    674900   2451.2012     -14372.574      4472.7208     -137159.89    
    675000   2423.6456     -884.12018      4361.8741     -137161.81    
    675100   2536.2649      8927.7836      4254.2165     -137163.86    
    675200   2599.7966      6800.1432      4213.1935     -137161.97    
    675300   2430.0511      15213.658      4240.2832     -137156.73    
    675400   2280.6531     -1994.4073      4321.9187     -137157.96    
    675500   2423.203      -7136.2239      4383.463      -137164.62    
    675600   2503.3897     -139.47932      4380.5101     -137160.89    
    675700   2834.3822      6973.3539      4361.8546     -137163.85    
    675800   2521.5404     -4122.4924      4412.8188     -137160.38    
    675900   2307.3195     -15761.267      4430.507      -137159.13    
    676000   2306.2418      3329.1447      4352.8849     -137158.22    
    676100   2516.1954      6696.6573      4284.598      -137161.25    
    676200   2667.9682      7498.7614      4260.9919     -137164.84    
    676300   2355.901       6364.2487      4303.7357     -137165.25    
    676400   2127.0047     -7985.5415      4373.6392     -137161.34    
    676500   2408.802      -3249.0407      4398.289      -137161.76    
    676600   2377.8575     -4504.23        4390.7824     -137155.89    
    676700   2583.2534      13193.233      4361.6605     -137156.88    
    676800   2558.3346      1647.7765      4363.3556     -137161.06    
    676900   2355.7719     -1473.1276      4382.2837     -137160.63    
    677000   2464.7064     -1698.0319      4387.1588     -137160.78    
    677100   2674.5878      13483.572      4388.0575     -137156.27    
    677200   2662.4522     -2865.7954      4461.9541     -137156.35    
    677300   2475.135      -8991.6205      4531.232      -137155.53    
    677400   2516.4885     -9620.6111      4514.2232     -137160.46    
    677500   2432.6709      1430.4614      4425.6266     -137159.05    
    677600   2712.067      -7051.608       4332.3875     -137163.13    
    677700   2667.6101      13985.928      4239.2075     -137163.03    
    677800   2448.1378     -1658.3536      4218.4494     -137166.68    
    677900   2514.4293     -1186.8552      4228.9341     -137169.43    
    678000   2411.4673      2412.3802      4255.4716     -137164.52    
    678100   2684.0687      1510.5288      4324.0663     -137163.01    
    678200   2596.1098     -2037.1326      4418.2802     -137159.51    
    678300   2471.5984     -20288.783      4473.9758     -137156.41    
    678400   2654.5082     -2629.8294      4416.0517     -137159       
    678500   2612.8923      6214.3536      4331.8706     -137160.98    
    678600   2457.4472     -517.61038      4267.8547     -137167.8     
    678700   2341.7936      5089.6239      4224.2031     -137163.27    
    678800   2542.9582      5004.5685      4229.1165     -137163.68    
    678900   2404.6143      7611.9241      4278.2494     -137158.27    
    679000   2426.3205     -11941.981      4325.9004     -137162.87    
    679100   2278.2008     -9465.4345      4312.9758     -137161.75    
    679200   2601.8202      7019.2767      4257.0285     -137166.6     
    679300   2528.3254      6120.9708      4246.6326     -137159.48    
    679400   2702.0359      11662.273      4268.7622     -137163.41    
    679500   2228.2893     -2276.4872      4344.1718     -137159.69    
    679600   2216.3497     -6779.814       4390.7665     -137159.95    
    679700   2613.219      -7806.6162      4383.3983     -137165.36    
    679800   2434.1921     -535.39967      4333.2879     -137159.52    
    679900   2677.3942      14333.82       4302.109      -137164.47    
    680000   2484.6605     -1145.9289      4366.4168     -137163.76    
    680100   2314.7223     -14365.888      4404.4901     -137167.67    
    680200   2393.8135      1767.0268      4357.8464     -137166.56    
    680300   2559.4883      118.70739      4309.2147     -137166.82    
    680400   2376.466       5662.6227      4276.8812     -137160.55    
    680500   2414.2589      5025.3738      4293.0866     -137159.4     
    680600   2416.0947      1651.8045      4337.1312     -137155.36    
    680700   2731.963       5374.5493      4369.8131     -137155.2     
    680800   3001.4521      4634.8586      4428.7128     -137152.94    
    680900   2461.5111      2370.05        4520.3364     -137147.52    
    681000   2329.6309     -14556.782      4594.4147     -137146.6     
    681100   2422.0607     -9660.8034      4551.1813     -137150.72    
    681200   2600.2676      3082.8225      4427.9248     -137159.38    
    681300   2428.9286      1399.3622      4333.3573     -137162.16    
    681400   2368.9797      7595.1567      4288.3095     -137163.29    
    681500   2432.9644     -1475.0335      4295.8603     -137161.28    
    681600   2644.1553      410.04973      4312.5873     -137162.93    
    681700   2390.4826     -4328.4638      4322.0754     -137165.23    
    681800   2282.4252      892.41803      4310.3927     -137164.68    
    681900   2585.6079      6119.5673      4298.5045     -137165.58    
    682000   2374.1411      7282.2812      4304.8209     -137157.68    
    682100   2451.2038      3362.5184      4321.937      -137158.1     
    682200   2770.9281      964.49804      4353.8428     -137159.68    
    682300   2676.8652      2744.8975      4386.874      -137157.17    
    682400   2345.2597     -9778.5452      4407.8172     -137158.15    
    682500   2428.9742     -2195.2482      4390.1785     -137160.09    
    682600   2452.8997      1070.23        4388.6826     -137157.61    
    682700   2600.6974     -13948.816      4403.3664     -137159.68    
    682800   2793.2071      2661.0012      4369.4592     -137157.31    
    682900   2765.1884      7405.4931      4321.7806     -137159.71    
    683000   2515.5605     -514.95638      4308.9445     -137162.55    
    683100   2475.749      -9054.102       4301.7972     -137164.25    
    683200   2497.5751      2578.8363      4278.7398     -137161.5     
    683300   2802.6906      8968.4248      4295.3175     -137164.77    
    683400   2439.6533     -4567.4434      4380.7532     -137161       
    683500   2364.2823     -12375.861      4457.7681     -137162.21    
    683600   2432.2377     -7711.2922      4474.6791     -137160.78    
    683700   2487.4971     -1816.7163      4449.069      -137159.26    
    683800   2670.4804     -2364.5381      4396.9824     -137161.02    
    683900   2455.8761      6275.2774      4349.2455     -137156.36    
    684000   2327.1154      9561.5395      4347.0418     -137159.14    
    684100   2308.9173     -6686.5292      4370.1173     -137163.78    
    684200   2463.8384     -6323.7597      4331.6318     -137164.7     
    684300   2594.7383      7877.6271      4278.3512     -137158.61    
    684400   2618.2627      9126.1348      4286.2342     -137161.3     
    684500   2358.2954     -10096.363      4337.39       -137158.67    
    684600   2437.2019      7619.1271      4334.8054     -137160.9     
    684700   2688.5275     -1526.8893      4339.8688     -137163.88    
    684800   2801.2072     -762.22947      4348.069      -137160.68    
    684900   2719.5314      2233.9176      4347.984      -137163.78    
    685000   2335.9028     -1816.4429      4363.223      -137160.86    
    685100   2497.3164     -6748.9233      4353.8182     -137164.83    
    685200   2580.9181     -2954.1916      4296.7354     -137162.53    
    685300   2701.8272      16869.737      4228.3651     -137159.5     
    685400   2682.3636      4389.4034      4242.0206     -137161.29    
    685500   2376.9062     -5698.7212      4303.5156     -137163.99    
    685600   2299.4902     -16820.867      4339.3831     -137161.07    
    685700   2709.1558      6954.927       4296.2439     -137165.37    
    685800   2617.7001      8626.5293      4290.2551     -137163.69    
    685900   2283.2347     -4635.8208      4332.0889     -137161.95    
    686000   2368.1366      176.35986      4339.4508     -137163.64    
    686100   2352.6886      2178.3661      4323.4922     -137159.48    
    686200   2540.4334     -391.74133      4297.5412     -137161.67    
    686300   2563.8779      5945.0551      4266.0675     -137163.37    
    686400   2205.8077     -1569.1537      4259.9747     -137161.02    
    686500   2133.636       7348.8454      4238.7753     -137164.24    
    686600   2316.4238      3464.1417      4233.8678     -137160.81    
    686700   2580.0756      3018.0521      4261.2132     -137163.71    
    686800   2351.7307      1395.0607      4309.4882     -137157.09    
    686900   2419.2554     -3919.2146      4355.8377     -137158.46    
    687000   2532.5351      239.54299      4379.1425     -137159.7     
    687100   2688.6809     -741.22325      4391.8138     -137162.14    
    687200   2570.4891     -11652.434      4389.1156     -137164       
    687300   2441.7038     -1402.1596      4334.0683     -137167       
    687400   2414.4381      1549.9378      4279.753      -137164.66    
    687500   2691.1776      2633.2382      4239.1753     -137164.16    
    687600   2532.998       23601.358      4244.8827     -137159.62    
    687700   2441.5692     -1999.7806      4360.0469     -137159.43    
    687800   2399.0365     -17089.799      4481.6716     -137157.31    
    687900   2713.1179     -7107.214       4518.4436     -137157.79    
    688000   2710.9733     -7140.6837      4500.8038     -137154.02    
    688100   2741.8163     -11116.406      4433.1207     -137161.02    
    688200   2539.3883      3940.0315      4316.7156     -137160.96    
    688300   2311.871       18303.207      4213.2467     -137159.42    
    688400   2392.9191      14139.06       4201.5951     -137162.68    
    688500   2491.3745     -3042.0388      4268.2278     -137161.53    
    688600   2661.2435     -1017.7593      4340.6356     -137157.05    
    688700   2647.2498     -6482.0422      4400.3946     -137159.4     
    688800   2354.357      -8869.7486      4416.5197     -137156.57    
    688900   2375.9396      3874.3909      4379.1256     -137156.68    
    689000   2556.6344     -5156.5779      4334.5048     -137158.01    
    689100   2596.0071      8553.9558      4258.0848     -137159.29    
    689200   2411.9055      8157.6306      4218.3207     -137165.8     
    689300   2314.4718      10619.4        4227.9304     -137166.05    
    689400   2463.3724      4753.9337      4276.1011     -137164.8     
    689500   2532.5871      869.33171      4357.0091     -137160.5     
    689600   2458.8063     -5260.1753      4437.6594     -137154.32    
    689700   2624.5349     -7548.5217      4463.7844     -137156.48    
    689800   2610.1394     -5648.68        4439.0241     -137161.58    
    689900   2222.9064     -7195.2052      4382.0219     -137158.94    
    690000   2663.201      -3985.6933      4293.4531     -137166.43    
    690100   2592.6379      12156.853      4223.42       -137161.98    
    690200   2523.1258      2550.2637      4238.8975     -137165.84    
    690300   2287.4132     -72.888852      4273.9918     -137166.24    
    690400   2259.8563      8510.8563      4289.3508     -137163.41    
    690500   2417.4976     -3258.4937      4323.1912     -137163.12    
    690600   2450.9021     -1487.8462      4343.7777     -137160.99    
    690700   2454.7872      8840.4669      4359.2283     -137158.78    
    690800   2632.92       -9955.5203      4397.6838     -137162.86    
    690900   2630.1264     -6902.1073      4400.4866     -137163.15    
    691000   2441.2655      237.53433      4375.0852     -137159.4     
    691100   2472.6155     -569.07086      4358.4616     -137161.97    
    691200   2589.7798     -2574.8377      4350.2911     -137166.36    
    691300   2464.8038     -1274.261       4338.4193     -137165.85    
    691400   2272.0806     -6719.068       4319.2922     -137165.02    
    691500   2488.6901      14366.203      4283.7291     -137165.01    
    691600   2600.0658     -300.43712      4306.9015     -137161.84    
    691700   2611.3642     -3614.2934      4333.8416     -137162.78    
    691800   2582.2134      762.76088      4345.0004     -137162.27    
    691900   2362.4244     -994.70309      4358.9853     -137162.14    
    692000   2357.7589     -6722.6514      4343.1142     -137167.36    
    692100   2359.9189      490.51789      4283.0088     -137164.78    
    692200   2854.616       5525.1328      4230.4067     -137169.81    
    692300   2525.7301      9059.6506      4229.1277     -137162.83    
    692400   2545.961      -364.37839      4281.8825     -137165.16    
    692500   2402.5184     -2311.3102      4333.0482     -137161.64    
    692600   2426.4467     -6895.9315      4345.0419     -137158.77    
    692700   2794.6944      1320.1356      4319.8739     -137159.42    
    692800   2837.0659      3359.2508      4315.6458     -137158.04    
    692900   2525.6333     -6151.1314      4340.4194     -137164.64    
    693000   2456.1065     -6340.6638      4344.2838     -137166.64    
    693100   2417.8866     -474.06594      4310.3493     -137165.1     
    693200   2447.3325      3872.6583      4266.0881     -137161.5     
    693300   2776.096       3865.8812      4248.8866     -137166.36    
    693400   2364.0137      6794.1999      4278.6181     -137161.64    
    693500   2268.3494     -7907.4582      4322.6821     -137162.63    
    693600   2434.6492     -4738.6293      4318.0008     -137162.93    
    693700   2639.6506     -1815.3995      4278.6479     -137166.23    
    693800   2576.776       4469.504       4256.2227     -137163       
    693900   2700.8546      3404.9959      4288.9381     -137163.91    
    694000   2566.6947      3715.5674      4357.3043     -137156.86    
    694100   2564.5317     -6936.1709      4441.6913     -137156.96    
    694200   2387.0371     -13975.777      4506.6664     -137157.31    
    694300   2397.8208     -8225.1421      4497.8976     -137157.17    
    694400   2542.9488      7717.0443      4424.9675     -137155.07    
    694500   2751.2001      11054.593      4385.3466     -137154.75    
    694600   2714.116      -5963.103       4398.2913     -137163.63    
    694700   2428.5767     -1065.5389      4405.703      -137160.82    
    694800   2644.9204     -1080.4606      4406.2719     -137164.4     
    694900   2621.8678     -6662.7274      4422.0381     -137160.31    
    695000   2549.9868     -11468.695      4414.9733     -137159.15    
    695100   2279.6536      1576.4802      4333.5146     -137160.11    
    695200   2454.6318      7405.1504      4240.724      -137167.1     
    695300   2440.0787      17871.615      4200.1218     -137164.71    
    695400   2595.0843      12817.822      4249.8936     -137161.28    
    695500   2479.7776     -2788.8423      4356.3486     -137154.59    
    695600   2555.9961     -4475.1434      4441.2522     -137155.87    
    695700   2472.0037     -6015.3208      4468.0112     -137157.9     
    695800   2339.11       -5354.2112      4422.7244     -137160.92    
    695900   2450.6628      6549.9362      4340.3497     -137162.07    
    696000   2594.172       4343.9651      4288.5261     -137158.78    
    696100   2679.276       3840.7999      4271.4507     -137159.85    
    696200   2429.4345      6333.0258      4307.5577     -137164.44    
    696300   2305.8076     -10404.523      4367.186      -137163.91    
    696400   2494.9244     -5469.1441      4367.3824     -137162.87    
    696500   2512.6905      3009.5077      4351.2696     -137158.07    
    696600   2663.4077     -1850.098       4337.7596     -137163.63    
    696700   2502.6483     -6146.6584      4330.4745     -137164.09    
    696800   2389.9025     -1507.7759      4316.5616     -137166.49    
    696900   2025.0763      7248.4204      4287.0681     -137165.69    
    697000   2376.2605     -1302.9993      4254.2022     -137169.78    
    697100   2458.1923      6747.938       4218.8339     -137166.24    
    697200   2611.0623      3832.181       4215.4559     -137167.94    
    697300   2527.7545      6744.5234      4271.0042     -137162.8     
    697400   2532.2657     -8052.3415      4372.7743     -137159.56    
    697500   2521.968      -1099.0031      4425.7094     -137153.57    
    697600   2712.398      -12061.942      4439.2075     -137160.6     
    697700   2448.4128     -8731.4449      4394.2838     -137161.69    
    697800   2572.5159      4172.5477      4311.905      -137166.05    
    697900   2509.3976      13454.458      4264.6968     -137166.05    
    698000   2278.7848     -4607.4356      4268.2596     -137165.42    
    698100   2383.0752     -3473.045       4255.9088     -137167.05    
    698200   2655.2486      6453.0697      4224.1151     -137166.32    
    698300   2704.1971     -2154.0246      4235.7208     -137168.05    
    698400   2423.504      -6198.3456      4281.7635     -137164.01    
    698500   2286.5128     -2422.6191      4329.5498     -137165.84    
    698600   2328.057      -11697.329      4369.4309     -137166.3     
    698700   2600.7392      2719.9773      4347.8458     -137163.96    
    698800   2645.8649      778.74365      4329.5285     -137162.03    
    698900   2538.7285      7496.2734      4315.1335     -137162.74    
    699000   2306.2499     -6257.4456      4342.7091     -137161.36    
    699100   2441.7072     -3.3578334      4358.6684     -137159.35    
    699200   2645.6325      5472.7326      4358.4776     -137155.83    
    699300   2527.8578     -305.61958      4373.8715     -137157.1     
    699400   2408.8689     -3947.1269      4378.9108     -137159.22    
    699500   2437.1885      6077.1275      4352.2885     -137158.35    
    699600   2675.055       5563.0009      4336.2151     -137161.25    
    699700   2653.9014     -2236.246       4364.5062     -137159.51    
    699800   2323.0378      6622.8423      4383.9659     -137156.03    
    699900   2217.2988     -3345.992       4405.0023     -137155.89    
    700000   2726.9343     -9090.5406      4402.1451     -137163.61    
    700100   2507.1858      4189.5388      4372.8736     -137155.32    
    700200   2533.0162     -6300.1537      4350.7277     -137163.29    
    700300   2436.3628     -3817.3056      4294.0512     -137167.81    
    700400   2557.4495      10077.267      4206.3941     -137170.03    
    700500   2472.4368      10370.283      4187.459      -137165.93    
    700600   2587.5791      8354.9793      4255.0378     -137163.19    
    700700   2544.3869     -1072.9353      4375.3537     -137157.27    
    700800   2586.3438     -8618.3844      4499.2391     -137158.87    
    700900   2384.2699     -21513.069      4555.0185     -137160.07    
    701000   2316.605      -9267.6778      4463.8661     -137158.45    
    701100   2494.9856      13299.398      4293.8398     -137157.52    
    701200   2723.6724      14882.186      4196.683      -137162.37    
    701300   2460.3905      5641.0611      4179.5727     -137166.44    
    701400   2538.5218     -1915.0728      4213.9232     -137169.75    
    701500   2619.9547     -4487.5833      4254.0174     -137172.86    
    701600   2360.6154     -2139.024       4297.4552     -137166.15    
    701700   2385.377       6107.566       4350.4192     -137157.24    
    701800   2561.893      -7092.0242      4396.1274     -137158.06    
    701900   2443.0021     -2075.2523      4405.176      -137155.9     
    702000   2394.5313     -859.03586      4391.7016     -137161.97    
    702100   2194.7656      938.56742      4349.2845     -137160.46    
    702200   2440.6687     -5509.9973      4283.9701     -137163.61    
    702300   2408.3914      15628.462      4212.2437     -137160.4     
    702400   2444.0765      11636.81       4226.8271     -137160.81    
    702500   2542.7784      3405.0348      4305.2468     -137160.85    
    702600   2710.2203     -5936.5793      4402.783      -137157.2     
    702700   2664.2509     -12739.673      4463.04       -137157.33    
    702800   2343.0465     -6943.6232      4444.5205     -137155.63    
    702900   2439.6201      605.99524      4393.9464     -137158.8     
    703000   2517.2998      8902.1928      4358.0873     -137161.65    
    703100   2312.1174      2624.3062      4366.2502     -137160.62    
    703200   2438.5334     -1557.2139      4374.3691     -137164.87    
    703300   2707.2846      531.20223      4354.8457     -137163.15    
    703400   2605.5662      2369.685       4352.1524     -137159.61    
    703500   2467.1484     -9864.5201      4371.7528     -137163.21    
    703600   2400.1478     -6869.2817      4353.406      -137163.41    
    703700   2368.5624      12299.061      4291.1265     -137157.97    
    703800   2673.6203      3032.5114      4264.9991     -137162.65    
    703900   2665.8515     -6608.0073      4284.5284     -137163.84    
    704000   2627.9018     -729.329        4295.0364     -137168.28    
    704100   2330.9275      8055.3377      4300.714      -137164.02    
    704200   2300.2337      3837.1163      4345.237      -137159.98    
    704300   2521.5294     -6681.8156      4400.4524     -137159.6     
    704400   2573.6736      1217.6085      4401.5831     -137159.6     
    704500   2516.6124     -3658.9182      4375.4198     -137158.57    
    704600   2501.7403     -2239.4186      4313.0502     -137162.17    
    704700   2360.1733      4704.9043      4228.7189     -137166.14    
    704800   2256.0162      13975.562      4174.4886     -137166.5     
    704900   2680.9031      8814.8606      4197.815      -137169.22    
    705000   2521.3326     -2450.3082      4288.511      -137159       
    705100   2522.6031     -5406.8789      4387.122      -137161.34    
    705200   2370.281      -14356.292      4450.9883     -137160.12    
    705300   2524.329      -4431.3206      4460.6967     -137157.67    
    705400   2672.6413     -4279.7902      4453.0727     -137155.71    
    705500   2500.2292     -422.3986       4417.4214     -137153.95    
    705600   2606.3301     -4969.7709      4375.6727     -137160.9     
    705700   2509.1803     -4239.4146      4339.2084     -137165.06    
    705800   2489.2137     -280.07238      4307.9644     -137166.68    
    705900   2514.8112     -2909.2534      4289.6135     -137165.45    
    706000   2505.3445      7261.7997      4271.014      -137162.64    
    706100   2531.3697      6965.3549      4302.3503     -137162.62    
    706200   2330.8033      5261.1631      4363.7035     -137155.92    
    706300   2619.1684     -8194.3871      4396.4184     -137161.3     
    706400   2655.4317     -900.23631      4378.4937     -137162.69    
    706500   2391.5459      7344.3237      4355.746      -137160.58    
    706600   2329.3187      470.22628      4357.059      -137163.75    
    706700   2460.3124     -1078.4761      4358.5066     -137163.69    
    706800   2688.3883      5205.5617      4366.6454     -137160.85    
    706900   2513.1494     -1334.1263      4410.7447     -137159.42    
    707000   2430.0566      1863.7888      4433.5229     -137161.63    
    707100   2401.3226     -3780.5057      4446.8145     -137161.42    
    707200   2525.123      -9135.8242      4421.322      -137157.74    
    707300   2763.6426      12423.449      4356.0833     -137157.07    
    707400   2572.0601      2227.8954      4357.1147     -137157.53    
    707500   2395.4593     -335.07389      4392.7801     -137158.21    
    707600   2578.5392     -6719.5828      4416.2473     -137163.48    
    707700   2562.257      -3202.6976      4405.117      -137157.13    
    707800   2768.0193      9489.7324      4383.2502     -137154.2     
    707900   2716.074      -7017.5799      4408.843      -137156.13    
    708000   2354.0425     -384.64497      4405.3749     -137152.52    
    708100   2503.6499      2964.4779      4363.5132     -137162.73    
    708200   2339.3681      586.26989      4335.3803     -137161.57    
    708300   2413.781       6307.7628      4310.0351     -137162.2     
    708400   2706.1286      2295.4409      4310.76       -137160.31    
    708500   2631.6973      4127.2828      4334.1486     -137157.22    
    708600   2459.6418      2832.1322      4385.1713     -137159.13    
    708700   2451.9831     -3101.3891      4432.3578     -137159.84    
    708800   2420.4827     -9632.1128      4431.808      -137156.06    
    708900   2747.1728      280.85456      4382.801      -137160.05    
    709000   2648.3138      1471.8711      4347.5812     -137158.42    
    709100   2490.0121     -2636.9642      4340.1079     -137164.82    
    709200   2371.8309     -1221.3295      4340.2424     -137161.96    
    709300   2454.8646      1126.7228      4328.6059     -137159.73    
    709400   2453.0218      3416.8201      4322.5849     -137154.75    
    709500   2717.1021      3523.786       4318.3108     -137161.33    
    709600   2416.0241     -3627.8866      4326.4716     -137161.79    
    709700   2448.7364     -632.46909      4327.1451     -137164.77    
    709800   2651.6638     -6438.3914      4331.747      -137167.59    
    709900   2594.2664      1695.2995      4321.6085     -137162.84    
    710000   2534.7845      6474.3142      4304.4067     -137157.64    
    710100   2575.8592      10213.384      4302.2084     -137158.87    
    710200   2420.109      -565.57813      4349.7696     -137162.99    
    710300   2329.2581     -17153.076      4387.0668     -137162.9     
    710400   2449.3673      5801.0897      4328.0211     -137160.1     
    710500   2707.1675      5689.6414      4267.8091     -137164.42    
    710600   2486.892       8246.6452      4279.0384     -137162.02    
    710700   2354.8109      6734.4435      4344.322      -137160.59    
    710800   2420.8959     -3713.3878      4421.9395     -137159.3     
    710900   2654.044      -9236.3144      4444.6202     -137160.13    
    711000   2581.8901      2448.7518      4412.2242     -137156.61    
    711100   2600.3152     -4773.2779      4386.7901     -137159.58    
    711200   2472.0773     -1419.1393      4351.1304     -137159.13    
    711300   2461.0393      2200.0573      4290.1142     -137162.95    
    711400   2514.2094      9291.5735      4240.1362     -137169.18    
    711500   2318.0964      4746.1185      4235.0537     -137168.38    
    711600   2493.5486      6347.1532      4246.1067     -137170.66    
    711700   2493.4774      10731.834      4292.0533     -137160.95    
    711800   2547.2443     -3872.6241      4377.7747     -137159.74    
    711900   2534.0462     -8805.8344      4430.3263     -137158.61    
    712000   2535.5901     -4149.5481      4437.4007     -137153.58    
    712100   2880.7982     -7255.2516      4400.3112     -137156.3     
    712200   2643.9877      6458.6719      4336.7246     -137157.57    
    712300   2399.0361      3221.9272      4307.7632     -137156.34    
    712400   2620.8147      7350.6641      4291.4388     -137165.3     
    712500   2421.9357     -4771.2897      4317.9266     -137163.93    
    712600   2465.14       -2417.9402      4333.3731     -137163.61    
    712700   2789.436       5726.8497      4324.1811     -137162.88    
    712800   2494.9333      4678.1731      4357.9976     -137156.45    
    712900   2388.6518     -7200.1103      4409.4742     -137158.99    
    713000   2469.7978     -10553.434      4408.1083     -137160.9     
    713100   2558.5932      937.28255      4329.109      -137163.66    
    713200   2443.0299      7060.0986      4237.8563     -137162.73    
    713300   2374.0545      8774.0589      4181.2857     -137163.84    
    713400   2128.6732      15658.717      4188.4568     -137163.45    
    713500   2438.6276     -814.12858      4273.7555     -137174.11    
    713600   2378.8514     -12902.737      4375.5404     -137162.61    
    713700   2523.1022     -11479.491      4416.5965     -137160.33    
    713800   2520.627       3454.0603      4403.8791     -137157.93    
    713900   2468.2279     -9942.849       4370.3946     -137160.25    
    714000   2404.7563      4817.3452      4284.0036     -137164.73    
    714100   2301.3859      3993.1288      4206.6853     -137167.22    
    714200   2423.6662      14104.732      4158.3716     -137167.47    
    714300   2653.2804      11942.391      4194.6732     -137164.68    
    714400   2482.7385     -3470.2476      4326.8174     -137161.68    
    714500   2460.1734     -11248.214      4464.5232     -137164       
    714600   2245.2612     -16780.717      4516.0562     -137157.29    
    714700   2668.0931     -7106.5736      4460.6413     -137158.59    
    714800   2757.6211      7524.1028      4382.885      -137159.94    
    714900   2486.4534      572.41338      4348.449      -137159.65    
    715000   2510.7797      1492.5595      4333.4962     -137165.05    
    715100   2443.071       3816.4249      4334.6192     -137163.37    
    715200   2488.2703      5147.6199      4344.6666     -137162.08    
    715300   2533.6952     -7891.5756      4373.2024     -137162.87    
    715400   2581.825      -8097.3202      4396.5893     -137159.32    
    715500   2661.8214      5458.1269      4402.9927     -137153.09    
    715600   2697.6627     -1461.7525      4436.4583     -137156.88    
    715700   2452.5595     -8801.0485      4468.0666     -137158.86    
    715800   2368.3772     -8140.8664      4443.1292     -137158.75    
    715900   2628.6824     -615.45717      4358.2166     -137162.99    
    716000   2717.2564      11174.319      4284.7055     -137162.09    
    716100   2495.4901      6317.2369      4279.1848     -137157.45    
    716200   2327.8629      4130.8353      4321.0593     -137161.02    
    716300   2358.7433     -3365.4696      4377.8157     -137163.78    
    716400   2536.9278     -4557.0874      4403.0481     -137164.2     
    716500   2519.0997     -3062.3062      4397.9965     -137155.94    
    716600   2669.0251     -2660.6224      4362.1359     -137158.62    
    716700   2411.1889     -3322.7494      4307.2214     -137162.86    
    716800   2471.7205      6267.6541      4238.0608     -137168.79    
    716900   2361.3806      7181.1028      4212.7552     -137166.45    
    717000   2418.5277     -6265.504       4233.4515     -137164.26    
    717100   2584.6785      5057.8846      4255.6428     -137160.88    
    717200   2652.1804     -8051.3029      4303.6316     -137161.85    
    717300   2549.2916      3650.0715      4331.2945     -137162.54    
    717400   2455.6378     -4214.177       4379.3478     -137164.95    
    717500   2021.0535     -6634.1767      4388.1146     -137160.12    
    717600   2506.1555      8185.3939      4321.991      -137165.97    
    717700   2556.6805      819.70548      4283.1108     -137162.95    
    717800   2612.5691      246.96718      4268.6476     -137164.64    
    717900   2526.8951     -274.37606      4276.6243     -137165.43    
    718000   2331.7599     -3142.2865      4315.267      -137164.32    
    718100   2398.3658     -6343.0957      4334.1609     -137169.33    
    718200   2425.5486      2509.9507      4303.431      -137166.67    
    718300   2600.0629      5512.6696      4269.9107     -137163.1     
    718400   2569.1413      9605.506       4265.5372     -137160.98    
    718500   2551.232      -5339.5738      4332.9206     -137162.6     
    718600   2229.3407     -9361.8103      4411.9189     -137162.01    
    718700   2336.8503     -12135.145      4442.0228     -137162.19    
    718800   2460.4242     -1472.8067      4390.6358     -137159       
    718900   2588.477       5235.8388      4312.6086     -137162.44    
    719000   2467.8149      4659.2278      4270.6715     -137162.15    
    719100   2423.0089      5533.2646      4261.1236     -137166.42    
    719200   2123.2702     -326.13893      4299.0389     -137160.51    
    719300   2639.6638     -6312.522       4339.5144     -137163.88    
    719400   2573.3525     -1050.6657      4360.5478     -137160.21    
    719500   2533.3542     -222.05671      4382.2884     -137159.42    
    719600   2445.8484      1601.504       4384.4324     -137159.39    
    719700   2435.8866     -8946.9401      4392.9675     -137161.19    
    719800   2307.6306      3660.9954      4368.9659     -137159.21    
    719900   2470.8284      2505.3656      4350.9384     -137160.62    
    720000   2531.7243     -1641.8565      4346.7117     -137155.8     
    720100   2747.875      -9112.1893      4311.6594     -137163.9     
    720200   2479.8432     -3263.9182      4255.8722     -137165.7     
    720300   2554.6933      8783.4393      4220.9142     -137166.79    
    720400   2498.1771      7223.9041      4250.9587     -137165.61    
    720500   2170.702      -4094.7281      4326.1655     -137160.06    
    720600   2342.4406     -1448.5282      4362.1357     -137159.11    
    720700   2621.1836      264.82312      4362.3834     -137159.45    
    720800   2575.4865     -5888.7566      4344.3196     -137160.34    
    720900   2493.2673     -2550.3925      4299.3679     -137163.6     
    721000   2282.8656      10066.569      4224.9259     -137161.98    
    721100   2503.4367      9495.0205      4165.3623     -137167.6     
    721200   2443.8167      10350.036      4164.4941     -137167.04    
    721300   2320.1195      3464.7118      4218.9005     -137167.36    
    721400   2310.6777      4848.5993      4285.3635     -137163.32    
    721500   2536.3704     -7471.5753      4349.1534     -137161.01    
    721600   2483.4342      3861.9892      4379.0832     -137157.99    
    721700   2592.5483     -15837.804      4400.2647     -137163.5     
    721800   2250.496       5443.2942      4330.1651     -137161.51    
    721900   2330.8993      5591.2503      4248.3383     -137164.99    
    722000   2793.1699      10570.784      4187.5366     -137167.11    
    722100   2527.4616      6092.6791      4194.28       -137159.67    
    722200   2462.6411     -627.24536      4254.9401     -137163.89    
    722300   2396.4632     -6059.3993      4324.9304     -137163.29    
    722400   2561.9125     -4024.1964      4347.7313     -137162.71    
    722500   2766.4231      6446.0344      4323.815      -137155.93    
    722600   2791.1403      10347.029      4324.1647     -137159.1     
    722700   2433.3539     -2393.9275      4378.8378     -137156.33    
    722800   2533.6884     -7974.0922      4410.7392     -137160.4     
    722900   2421.4706     -4299.0251      4385.2051     -137156.86    
    723000   2641.3554      3598.8292      4310.4098     -137159.74    
    723100   2448.485       9902.2802      4234.9585     -137161.39    
    723200   2410.1805      9983.7662      4237.598      -137166.3     
    723300   2475.618      -5402.2609      4314.5954     -137166.65    
    723400   2525.854      -15503.919      4371.937      -137161.59    
    723500   2606.6638      3634.5357      4331.7649     -137162.11    
    723600   2536.6435      4196.5866      4288.9188     -137161.66    
    723700   2428.528       2109.7279      4257.1082     -137161.05    
    723800   2465.9056     -2714.8217      4229.3115     -137164.28    
    723900   2482.767       2780.4465      4210.1109     -137166.87    
    724000   2423.2737     -7901.8444      4201.015      -137169.82    
    724100   2300.0579      15296.571      4171.1342     -137165.67    
    724200   2460.3608      12182.123      4242.3788     -137161.61    
    724300   2389.7245     -7977.6429      4399.3793     -137155.3     
    724400   2531.7919     -10086.886      4485.7262     -137156.37    
    724500   2356.291      -6261.109       4467.7609     -137153.06    
    724600   2480.4776      4761.0949      4397.4106     -137160.04    
    724700   2373.7577     -2808.9059      4335.4512     -137160.24    
    724800   2532.2248      4266.5923      4244.3783     -137166.2     
    724900   2436.6357      23808.821      4199.3742     -137167.3     
    725000   2319.8541     -2273.467       4281.2121     -137168.74    
    725100   2310.4933     -6929.2753      4347.4121     -137166.83    
    725200   2506.5432     -7191.701       4366.6043     -137161.7     
    725300   2398.0529      3971.8311      4349.8961     -137155.34    
    725400   2431.4113      10052.081      4349.8452     -137154.67    
    725500   2523.9206      2481.8095      4363.3084     -137160.73    
    725600   2312.1454     -6980.0671      4354.2124     -137163.21    
    725700   2473.299      -7191.9196      4315.8527     -137166.41    
    725800   2506.404       4318.1379      4261.5345     -137163.71    
    725900   2401.5115      16006.378      4235.1314     -137159.36    
    726000   2438.1656      6401.3769      4277.1945     -137159.61    
    726100   2464.7127      1306.9433      4360.1809     -137161.1     
    726200   2556.0134     -10614.514      4438.5386     -137161.93    
    726300   2724.2153     -4027.9004      4454.3627     -137159.87    
    726400   2702.0103      3492.9966      4435.3956     -137156.04    
    726500   2450.1004     -7845.8152      4402.8084     -137158.21    
    726600   2434.4633     -231.40795      4329.3144     -137160.11    
    726700   2646.0617      4766.4388      4251.6514     -137165.15    
    726800   2500.9351      2275.1684      4221.5925     -137163.68    
    726900   2280.5486      5388.0708      4222.2868     -137166.4     
    727000   2172.6304     -3341.4416      4252.8738     -137164.58    
    727100   2513.4292     -4233.4294      4257.092      -137164.67    
    727200   2531.087       10964.994      4258.9941     -137162.81    
    727300   2383.754       2240.6919      4308.4019     -137159.99    
    727400   2487.573      -4321.6639      4368.0756     -137160.7     
    727500   2701.4633     -7502.3357      4414.4925     -137159.94    
    727600   2627.9582     -4464.91        4414.7458     -137158.67    
    727700   2416.3766     -344.29717      4381.2079     -137162.45    
    727800   2363.7877     -2311.9694      4344.8586     -137164.01    
    727900   2407.1011     -2742.9325      4306.137      -137160.32    
    728000   2531.3488      12695.54       4276.3395     -137158.75    
    728100   2617.1411      2877.8721      4303.0591     -137161.4     
    728200   2361.8157     -8091.2544      4330.4485     -137161.87    
    728300   2466.3671     -7387.0867      4308.2588     -137166.06    
    728400   2431.9222      1320.9718      4263.3307     -137162.95    
    728500   2616.5866      4096.7791      4231.074      -137165.98    
    728600   2561.0593      1850.8605      4250.7955     -137166.83    
    728700   2211.211      -972.69411      4291.8643     -137163.67    
    728800   2249.8074     -1886.8652      4301.163      -137160.83    
    728900   2431.0957      16552.267      4285.6222     -137160.59    
    729000   2284.5575      386.53202      4336.8221     -137154.9     
    729100   2485.6975     -1094.6096      4376.7874     -137155.68    
    729200   2524.4371      1338.1127      4392.8021     -137153.85    
    729300   2644.1378     -12757.505      4409.9606     -137161.88    
    729400   2264.3102     -2066.4801      4372.4635     -137159.64    
    729500   2501.492       8169.384       4309.5933     -137163.49    
    729600   2522.7915      3553.8038      4289.8374     -137161.4     
    729700   2552.5723      1905.1853      4298.4604     -137163.22    
    729800   2259.081      -1450.7941      4306.0392     -137159.78    
    729900   2163.9216     -904.55458      4301.3236     -137162.33    
    730000   2431.0139      8225.3444      4270.9888     -137166.97    
    730100   2730.9409     -1858.9988      4281.4951     -137167.33    
    730200   2612.7684     -1455.1762      4318.6811     -137163.95    
    730300   2286.1706      111.87521      4350.3364     -137158.62    
    730400   2435.4839      3789.0211      4351.8429     -137163.61    
    730500   2438.3301      2567.5374      4384.7107     -137157.84    
    730600   2690.986       4909.5044      4443.2107     -137158.21    
    730700   2544.6752     -5473.508       4519.0584     -137156.49    
    730800   2374.0495     -20887.456      4551.1216     -137155.9     
    730900   2468.8146     -3663.4906      4454.7641     -137157.38    
    731000   2665.0782      4241.5425      4333.1089     -137156.31    
    731100   2494.7985      7117.7719      4247.0557     -137157.18    
    731200   2386.3479      18479.721      4206.8793     -137161.27    
    731300   2406.514       77.688211      4241.2322     -137162.55    
    731400   2445.4251      744.3855       4279.5323     -137161.37    
    731500   2864.8766     -2480.6475      4326.2949     -137163.98    
    731600   2692.4824     -3319.5844      4371.1217     -137161.59    
    731700   2495.6832     -16256.769      4383.1918     -137163.64    
    731800   2508.9163      2211.9278      4314.0516     -137163.37    
    731900   2457.2762      3184.3958      4260.8372     -137159.03    
    732000   2496.3172      10464.203      4229.6233     -137160.2     
    732100   2420.8042      3722.7254      4239.2573     -137166.78    
    732200   2230.0233      5263.0644      4284.2639     -137164.37    
    732300   2398.4277      4595.4437      4347.7971     -137162.56    
    732400   2447.7741     -906.26706      4403.1155     -137159.17    
    732500   2531.672       1125.8516      4434.1942     -137158.58    
    732600   2533.6392     -11052.947      4444.3492     -137157.5     
    732700   2626.9613      2123.2148      4401.5603     -137157.88    
    732800   2568.1389      3383.6017      4348.0372     -137160.52    
    732900   2483.3939     -2516.0556      4305.6487     -137165.51    
    733000   2254.1393      7540.8625      4274.1358     -137159.81    
    733100   2555.8943      13566.916      4269.5782     -137161.54    
    733200   2644.5317      3501.4427      4328.9044     -137159.1     
    733300   2448.5906     -3760.4825      4408.2477     -137155.23    
    733400   2271.5476     -11748.723      4428.7647     -137160.52    
    733500   2395.6847     -1554.5972      4376.0678     -137160.74    
    733600   2757.5009     -2560.3941      4325.1103     -137163.28    
    733700   2607.5356      5411.4609      4307.3474     -137159.79    
    733800   2464.1465     -1054.1354      4322.4016     -137161.97    
    733900   2453.1822     -7138.8468      4313.4666     -137165.84    
    734000   2513.384       2685.6656      4272.317      -137165.91    
    734100   2611.108       2388.4811      4253.3068     -137168.55    
    734200   2482.8998      8496.3809      4277.3103     -137165.48    
    734300   2454.766      -8462.2364      4340.1672     -137164       
    734400   2563.1405     -2447.2676      4376.1687     -137158.24    
    734500   2811.484      -8418.3479      4398.3477     -137162.2     
    734600   2631.0755     -1948.024       4398.519      -137162.78    
    734700   2338.368      -458.59217      4394.4223     -137158.27    
    734800   2449.6002     -4154.6372      4382.4196     -137160.99    
    734900   2504.9815     -2189.2403      4346.3209     -137159.66    
    735000   2814.4086      13696.76       4318.8046     -137159.1     
    735100   2548.4943     -3603.62        4368.0267     -137157.37    
    735200   2415.8753     -11858.932      4412.5163     -137158.42    
    735300   2516.5766      2960.4709      4407.1933     -137160.93    
    735400   2565.3873     -4474.8626      4393.6249     -137161.78    
    735500   2402.8845      6838.5038      4372.6084     -137161.48    
    735600   2287.1554     -13455.837      4387.4009     -137161.73    
    735700   2495.8949     -146.42372      4348.4013     -137162.73    
    735800   2523.2336      15681.477      4290.346      -137159.13    
    735900   2600.7491      3825.2272      4290.8967     -137160.7     
    736000   2335.2889      2895.7579      4326.1241     -137161.01    
    736100   2330.1405     -6870.7235      4358.4324     -137163.93    
    736200   2581.0552     -13758.971      4351.5555     -137163.96    
    736300   2535.6909      1413.5557      4298.101      -137158.63    
    736400   2488.9625      12850.486      4256.5351     -137159.18    
    736500   2407.3308      7350.9902      4272.4575     -137160.32    
    736600   2353.4905     -1009.9617      4309.7871     -137162.15    
    736700   2484.1361     -10647.138      4341.5878     -137165.47    
    736800   2597.53        1894.3163      4334.9538     -137160.26    
    736900   2672.5317      3887.2585      4326.1973     -137160.23    
    737000   2486.579      -4819.2336      4329.2749     -137163.17    
    737100   2413.6055      2514.5306      4310.1274     -137164.18    
    737200   2424.9504      4675.2002      4306.9629     -137160.58    
    737300   2488.0235      5491.851       4343.3539     -137160.87    
    737400   2412.3525     -8321.8686      4400.1031     -137160.74    
    737500   2464.2996     -1734.2827      4415.5994     -137159.25    
    737600   2751.9345      8754.3877      4436.2719     -137155.68    
    737700   2544.5175     -8453.5318      4492.0649     -137154.35    
    737800   2438.7807     -8114.027       4482.9031     -137158.14    
    737900   2477.5428     -561.95535      4412.2395     -137160.2     
    738000   2503.0743      7668.223       4332.9782     -137158.57    
    738100   2867.8731      10009.856      4297.378      -137159.68    
    738200   2701.4758      1046.7977      4322.1039     -137158.46    
    738300   2419.9873     -895.62501      4383.3729     -137158.89    
    738400   2392.7065      1900.0164      4445.7009     -137156.77    
    738500   2678.8008     -9911.9371      4489.3799     -137161.51    
    738600   2511.5598     -14267.509      4475.3275     -137156.64    
    738700   2637.5358     -5361.6603      4374.2625     -137162.53    
    738800   2501.37        5188.1826      4275.5123     -137166.21    
    738900   2340.9266      1743.0211      4223.0269     -137165.89    
    739000   2394.1432      19573.588      4208.8787     -137162.79    
    739100   2701.2902     -2869.2207      4273.9948     -137165.06    
    739200   2367.2627     -610.48871      4337.5353     -137157.01    
    739300   2337.1512     -4810.4667      4379.3242     -137155.57    
    739400   2486.0859      4403.4045      4381.4914     -137156.82    
    739500   2685.5083     -6698.1229      4360.7043     -137160.88    
    739600   2423.1281     -1634.0592      4320.8625     -137161.21    
    739700   2409.0543     -14176.146      4282.2754     -137165.13    
    739800   2392.6085      11506.575      4193.5804     -137163.63    
    739900   2501.7121      18467.903      4166.2466     -137161       
    740000   2526.8044      16163.77       4238.7904     -137155.47    
    740100   2689.6787     -7773.2615      4361.6953     -137161.51    
    740200   2287.4911     -9558.9664      4414.8356     -137160.07    
    740300   2446.0074     -9429.1009      4395.7077     -137162.6     
    740400   2600.0355     -5946.1121      4331.9512     -137162.5     
    740500   2773.0723     -2554.8621      4259.3966     -137167.53    
    740600   2481.3138      5713.8878      4213.0786     -137170.28    
    740700   2350.6119      9822.4971      4212.0551     -137168.33    
    740800   2278.5707      5539.2344      4253.7963     -137162.73    
    740900   2482.2807      3802.9467      4321.0223     -137162.94    
    741000   2452.296       891.0815       4407.7774     -137158.94    
    741100   2551.7219     -3593.2505      4476.4262     -137157.62    
    741200   2819.1842     -6112.2679      4507.6122     -137154.39    
    741300   2644.5518     -3882.7316      4498.9221     -137153.76    
    741400   2531.6448     -9799.0452      4445.6082     -137159.43    
    741500   2622.3652      1099.4734      4348.5225     -137164.95    
    741600   2480.5686      5445.683       4276.8453     -137163.58    
    741700   2424.9463      2761.6228      4249.7493     -137162.44    
    741800   2603.7171      6423.8154      4246.3591     -137162.46    
    741900   2781.4286     -1522.7987      4289.7688     -137164.19    
    742000   2454.8068     -6767.7247      4347.6629     -137163       
    742100   2374.753      -8484.0155      4356.2077     -137164.25    
    742200   2554.139       3655.112       4316.992      -137166.27    
    742300   2546.1939      3093.5374      4295.6176     -137164.1     
    742400   2442.2029      613.67114      4287.7539     -137163.72    
    742500   2501.8104      1738.1541      4284.3889     -137164.43    
    742600   2462.0166      3225.7419      4288.9976     -137161.49    
    742700   2578.8128      3790.5824      4316.3264     -137163.21    
    742800   2677.8765      4417.1322      4373.048      -137155.61    
    742900   2608.3832      5200.0198      4435.9245     -137153.76    
    743000   2431.1303     -10656.297      4491.4929     -137156.88    
    743100   2476.6015     -4947.4955      4480.7401     -137160.35    
    743200   2544.3622     -8461.2258      4430.5307     -137162.11    
    743300   2401.0244     -5528.1919      4342.2511     -137160.44    
    743400   2365.9458      19109.233      4245.9935     -137163.67    
    743500   2409.5933     -8220.7919      4233.4675     -137167.49    
    743600   2556.0695      708.49828      4228.1769     -137170.25    
    743700   2557.5767      3348.6881      4253.4139     -137163.17    
    743800   2649.9821      6912.6957      4312.9849     -137160.5     
    743900   2658.8085     -11110.232      4394.7977     -137162.89    
    744000   2290.6487     -15561.61       4424.5437     -137158.1     
    744100   2153.9555      0.99477469     4346.4699     -137160.95    
    744200   2273.2286      3895.0971      4248.4264     -137163.47    
    744300   2566.1027      13374.314      4195.2994     -137162.67    
    744400   2691.3993      9026.6544      4218.8293     -137165.78    
    744500   2434.6998     -1707.1991      4300.2937     -137164.12    
    744600   2334.4039     -941.50739      4365.7564     -137159.35    
    744700   2787.6416     -9197.0287      4412.1752     -137160.42    
    744800   2559.1189     -10809.429      4412.4817     -137157.17    
    744900   2494.6211     -7950.0461      4343.6564     -137161.67    
    745000   2328.4535      9911.7933      4248.0912     -137159.7     
    745100   2646.4075      8576.3455      4206.0109     -137165.06    
    745200   2608.6731      2191.0358      4228.5602     -137163.22    
    745300   2333.6787      612.04083      4282.5676     -137159.26    
    745400   2356.9455      2887.554       4333.6082     -137160.17    
    745500   2571.0732     -8075.5638      4391.5042     -137158.11    
    745600   2653.0885     -1036.3815      4414.8484     -137157.33    
    745700   2465.6055      1236.7806      4428.2501     -137156.42    
    745800   2463.7639     -8597.4413      4424.5856     -137158.93    
    745900   2627.8054      3168.6318      4373.3845     -137162.16    
    746000   2484.0318      7592.3084      4335.2619     -137159.2     
    746100   2320.8271     -3424.3229      4323.3266     -137158.32    
    746200   2448.0671      2514.8661      4282.6442     -137162.93    
    746300   2624.9587      8510.2345      4250.7422     -137165.77    
    746400   2565.3234      14869.644      4287.1848     -137160.81    
    746500   2689.4145     -6525.529       4373.2963     -137160.73    
    746600   2561.7069     -5213.2781      4445.4424     -137155.4     
    746700   2565.3143     -8303.8315      4479.1916     -137159.28    
    746800   2211.8001     -9649.7574      4445.0824     -137156.15    
    746900   2435.5589      8668.7768      4348.819      -137159.28    
    747000   2698.9292     -1948.3756      4281.158      -137160.48    
    747100   2690.2888      9005.7437      4227.8127     -137161.17    
    747200   2356.7423      5246.1553      4222.4384     -137162.34    
    747300   2466.6017     -2356.9114      4235.345      -137166.86    
    747400   2458.3809      2529.2007      4250.8965     -137163.1     
    747500   2745.9871      102.27439      4287.7104     -137165.13    
    747600   2732.2549     -4155.0877      4328.2603     -137163.77    
    747700   2466.9162     -11407.826      4356.8465     -137163.36    
    747800   2315.8596     -3329.4232      4325.4712     -137164.81    
    747900   2325.1289      15671.321      4255.4215     -137162.37    
    748000   2509.5249      8392.8449      4239.7491     -137159.23    
    748100   2695.3637      4802.9107      4279.5879     -137162.91    
    748200   2606.5916     -3787.0217      4349.4601     -137164.36    
    748300   2378.0784     -10800.12       4400.9956     -137159.8     
    748400   2579.7517     -13418.375      4381.8561     -137161.16    
    748500   2757.4022      6514.5765      4311.4607     -137163.64    
    748600   2619.9423     -397.44733      4287.5933     -137163.35    
    748700   2604.8727     -10490.465      4286.4948     -137165.79    
    748800   2334.3161      2072.5144      4261.7083     -137160.91    
    748900   2616.007       5286.7593      4253.8675     -137162.68    
    749000   2680.9444      15247.41       4287.4203     -137161.48    
    749100   2460.9834     -11343.861      4375.0886     -137159.37    
    749200   2370.8471     -7982.7109      4388.5764     -137157.83    
    749300   2525.9297     -2569.9593      4356.4178     -137160.23    
    749400   2519.3849      10508.877      4334.9226     -137159.39    
    749500   2398.0191      1830.5133      4361.8386     -137159.91    
    749600   2308.8362     -11767.234      4367.5073     -137161.74    
    749700   2605.1071     -13554.498      4303.5869     -137166.63    
    749800   2773.5485      13097.723      4202.2571     -137164.88    
    749900   2606.5944      2546.0777      4190.5862     -137166.61    
    750000   2258.0492      6561.2234      4231.2883     -137162.56    
    750100   2431.4747     -456.44739      4285.942      -137164.25    
    750200   2447.7131     -5654.1472      4324.8036     -137160       
    750300   2536.8108      3440.3856      4325.0717     -137158.81    
    750400   2558.3028      4498.4008      4331.4254     -137159.58    
    750500   2232.3626     -5848.8253      4360.0549     -137162.79    
    750600   2268.3059     -10795.279      4329.7764     -137163.79    
    750700   2607.007       7962.5441      4230.8743     -137166.75    
    750800   2571.7458      11980.913      4196.486      -137165.82    
    750900   2354.6339      2376.8338      4252.0826     -137165.1     
    751000   2102.0373     -2454.8664      4309.1316     -137164.46    
    751100   2254.8717     -1714.9726      4335.4457     -137160.48    
    751200   2611.1671      2761.2265      4341.2497     -137164.5     
    751300   2597.0963      1841.3424      4357.4434     -137165.51    
    751400   2447.9889     -2567.6249      4373.6556     -137164.21    
    751500   2484.9095     -2434.5445      4361.9888     -137165.5     
    751600   2328.2831      7253.64        4323.9083     -137160.03    
    751700   2522.6966      8694.5989      4322.7782     -137158.98    
    751800   2726.7941     -983.77725      4368.7464     -137158.89    
    751900   2457.4484     -3602.0576      4404.9819     -137155.61    
    752000   2337.0629     -12243.64       4399.3386     -137157.07    
    752100   2257.9679     -4292.0084      4308.8982     -137163.18    
    752200   2180.6554      6379.2844      4184.6298     -137166.52    
    752300   2401.6429      14650.69       4090.5951     -137165.67    
    752400   2708.5825      15280.495      4090.6488     -137169.31    
    752500   2628.9652     -3779.3197      4186.4294     -137170.12    
    752600   2288.1687      733.85671      4284.3888     -137164.62    
    752700   2347.7734     -4250.0914      4369.8381     -137159.96    
    752800   2550.9678     -15674.56       4405.6685     -137157.91    
    752900   2386.5782     -2652.7604      4375.4573     -137151.86    
    753000   2707.0319      10158.766      4337.7786     -137161.05    
    753100   2527.7894     -3073.2344      4364.4671     -137162.92    
    753200   2346.4805     -12335.542      4378.0187     -137161.9     
    753300   2514.049       5107.6892      4336.4546     -137162.74    
    753400   2702.0441      5183.9707      4324.4922     -137157.45    
    753500   2825.7539      8016.7201      4352.8111     -137162.62    
    753600   2461.2644     -4102.6794      4417.2573     -137157.88    
    753700   2451.3829     -7667.0405      4444.0171     -137159.59    
    753800   2450.8309     -4449.9331      4428.6951     -137156.86    
    753900   2665.7317      11038.263      4404.652      -137154.13    
    754000   2627.165      -0.2033518      4399.7438     -137155.31    
    754100   2646.9276      7179.3449      4393.4935     -137160.67    
    754200   2497.6767     -5902.475       4416.7822     -137159.84    
    754300   2565.4113     -4693.0887      4403.9635     -137160.67    
    754400   2503.5368      1644.6737      4349.8277     -137156.91    
    754500   2674.2359      3056.2889      4298.9391     -137157.8     
    754600   2882.3896     -2581.7381      4293.9908     -137162.4     
    754700   2446.7136     -828.05265      4306.9091     -137160.03    
    754800   2266.6845      1778.3647      4304.4134     -137158.47    
    754900   2502.9362     -2459.7157      4301.5698     -137162.14    
    755000   2895.8876      1263.8746      4299.0437     -137167.52    
    755100   2326.7883      113.15732      4327.4136     -137158.6     
    755200   2342.7472     -4601.8462      4341.9047     -137165.03    
    755300   2413.5011      3495.2417      4334.1558     -137161.49    
    755400   2454.5131      774.35344      4361.6033     -137158.95    
    755500   2658.544      -12766.286      4398.3345     -137163.03    
    755600   2743.2466     -11196.778      4381.8828     -137163.14    
    755700   2626.4406      3548.3803      4322.7193     -137160.66    
    755800   2422.1075      1956.1682      4266.1188     -137164.76    
    755900   2433.2826      13270.819      4210.3563     -137167.57    
    756000   2433.7939      12986.209      4225.6268     -137164.72    
    756100   2634.4437     -4584.0985      4336.5864     -137163.14    
    756200   2519.3623     -6581.8285      4474.0417     -137156.04    
    756300   2662.5104     -15505.388      4582.432      -137150.39    
    756400   3024.9767     -11975.821      4560.7852     -137155.53    
    756500   2736.7237     -3140.2722      4432.5046     -137158.78    
    756600   2514.5282      18676.483      4307.8226     -137159.34    
    756700   2418.7618     -1404.855       4298.8717     -137161.51    
    756800   2344.5815      8493.3212      4297.7251     -137162.33    
    756900   2433.1391      890.10025      4335.1496     -137159.44    
    757000   2706.938      -3127.5949      4371.8525     -137159.77    
    757100   2440.824       5709.6875      4377.7157     -137156.2     
    757200   2542.9071     -5397.409       4372.6701     -137162.71    
    757300   2498.6167      524.04973      4341.2862     -137162.8     
    757400   2569.359       5229.5595      4329.6033     -137163.71    
    757500   2514.9061      370.72537      4360.7992     -137162.12    
    757600   2434.4007     -4841.8112      4378.2804     -137163.95    
    757700   2282.1859     -5825.4248      4354.6093     -137163.45    
    757800   2611.2462      3359.2043      4293.7415     -137168.44    
    757900   2716.9911      7947.3583      4256.8378     -137166.85    
    758000   2336.7337      659.4039       4290.0698     -137162.35    
    758100   2274.1027     -2592.3988      4335.4445     -137167.19    
    758200   2269.9745     -3110.2806      4342.7098     -137162.29    
    758300   2473.1489      15227.277      4321.1792     -137159.06    
    758400   2528.5612     -4468.0136      4350.0671     -137161.82    
    758500   2438.0062     -751.61947      4355.6104     -137163.2     
    758600   2497.075      -9538.6775      4345.3162     -137164.85    
    758700   2601.5297     -879.27957      4290.9725     -137162.74    
    758800   2745.7826      8978.3066      4247.638      -137161.86    
    758900   2480.4295      3216.6654      4283.7046     -137163.26    
    759000   2270.8614     -9483.7573      4342.5487     -137160.76    
    759100   2422.6021      6219.7402      4348.4223     -137161.15    
    759200   2750.7167     -4211.8379      4351.8743     -137168.15    
    759300   2347.5464     -2187.4745      4361.4474     -137157.08    
    759400   2599.132      -1277.705       4381.8768     -137155.92    
    759500   2746.6078      3507.0883      4397.7608     -137157.73    
    759600   2425.7052     -10777.606      4428.4543     -137156.56    
    759700   2477.153      -4139.6295      4390.6207     -137162.7     
    759800   2450.5054     -1542.9924      4305.7604     -137164.29    
    759900   2384.9106      4762.9478      4232.6163     -137162.32    
    760000   2748.3373      21216.831      4206.518      -137163.67    
    760100   2776.0724      2638.8298      4302.4296     -137159.83    
    760200   2466.2293     -10808.064      4447.8587     -137155.39    
    760300   2360.0195     -16117.291      4531.6552     -137152.29    
    760400   2595.8806      2503.4354      4505.4814     -137150.68    
    760500   2893.3346     -5470.8495      4448.584      -137156.12    
    760600   2651.9177     -2624.3244      4374.6702     -137159.88    
    760700   2354.4336      5945.6354      4307.0066     -137157.9     
    760800   2467.4404      4072.4329      4275.1943     -137162.43    
    760900   2456.3467     -366.10389      4274.0175     -137161.95    
    761000   2486.4537     -295.09097      4282.2622     -137164.03    
    761100   2319.8557      3476.4624      4275.926      -137165.38    
    761200   2303.4373     -3294.2614      4263.2416     -137166.41    
    761300   2549.6909      4640.5684      4248.9342     -137164.17    
    761400   2586.6859      6365.7096      4284.4837     -137161.62    
    761500   2473.7538     -5503.827       4343.5733     -137159.97    
    761600   2545.9191     -1200.4115      4364.955      -137161.76    
    761700   2446.8012      656.42829      4376.4842     -137159.28    
    761800   2412.9872     -11697.47       4381.0317     -137158.65    
    761900   2666.9701      5168.0091      4339.6919     -137158.75    
    762000   2749.5246     -5.600534       4317.5214     -137161.92    
    762100   2589.7094     -11718.528      4315.5559     -137164.98    
    762200   2499.634       1934.3422      4291.9546     -137163.23    
    762300   2731.7259     -4989.3681      4290.3555     -137166.57    
    762400   2592.58       -2327.159       4285.2572     -137163.58    
    762500   2255.5013     -4389.5748      4268.9152     -137163.4     
    762600   2416.1243      6071.6164      4233.9581     -137167.81    
    762700   2547.3938      5462.2417      4246.5842     -137163.5     
    762800   2581.7675     -858.96105      4296.3648     -137162.03    
    762900   2653.4893     -8618.7296      4347.4938     -137162.82    
    763000   2403.2668     -8007.3609      4386.5629     -137152.95    
    763100   2909.349      -8351.4452      4381.201      -137159.08    
    763200   2631.7835     -26.963203      4332.9453     -137158.52    
    763300   2483.0083      8954.7229      4300.4378     -137160.89    
    763400   2387.2533      6049.4243      4329.3194     -137158.77    
    763500   2367.4476      2376.4488      4390.7705     -137157.29    
    763600   2691.7678     -9187.1633      4445.1247     -137158.14    
    763700   2573.4628      5339.2625      4439.2825     -137153.48    
    763800   2656.158      -14170.72       4415.4491     -137160.64    
    763900   2533.7215     -474.23796      4306.4998     -137162.7     
    764000   2553.9309      16225.773      4185.9441     -137164.47    
    764100   2534.7386      13696.099      4147.4248     -137166.78    
    764200   2267.4434      17736.963      4185.8535     -137163.18    
    764300   2603.654      -14467.571      4300.7321     -137167.52    
    764400   2690.1186     -16197.32       4376.1393     -137160.62    
    764500   2555.1497     -4473.6373      4375.5819     -137158.38    
    764600   2340.3627     -11714.548      4347.5602     -137157.12    
    764700   2429.5922      12193.278      4258.9999     -137162.72    
    764800   2326.7411     -592.21544      4206.9445     -137166.46    
    764900   2126.2448      6890.4686      4164.2652     -137167.47    
    765000   2462.4539      3570.4399      4143.3788     -137170.81    
    765100   2471.6091      9700.8775      4175.299      -137167.26    
    765200   2492.731      -7454.845       4276.4424     -137164.56    
    765300   2437.3151      2554.5148      4344.0197     -137159.44    
    765400   2624.7379     -12105.871      4385.6296     -137157.07    
    765500   2874.9607      2832.6503      4385.0683     -137158.1     
    765600   2420.4553     -1788.9451      4401.4249     -137153.18    
    765700   2501.3237      1901.3653      4402.6483     -137158.58    
    765800   2471.8339     -10755.094      4408.9543     -137159.94    
    765900   2441.6521     -1447.5729      4376.1612     -137160.09    
    766000   2652.3185      4082.5882      4320.0148     -137158.87    
    766100   2789.8849      18501.649      4283.4042     -137161.27    
    766200   2577.2426     -8516.7706      4324.4671     -137163.16    
    766300   2546.3791     -1724.3496      4347.8386     -137163.49    
    766400   2420.0149     -5793.9213      4351.0711     -137160.82    
    766500   2461.9057      6415.6112      4323.5698     -137159.24    
    766600   2754.8394      2615.2874      4322.6568     -137161.33    
    766700   2553.9286      2317.3974      4363.7383     -137159.27    
    766800   2447.3648     -12733.274      4406.6763     -137163.28    
    766900   2380.4765     -7553.6499      4385.5819     -137159.37    
    767000   2689.5668     -2289.3748      4315.3077     -137161.86    
    767100   2611.2912      10734.682      4236.8398     -137160.78    
    767200   2594.5501      6534.8187      4198.4258     -137166.39    
    767300   2324.78        11770.6        4212.3077     -137163.46    
    767400   2528.7235      2325.5331      4298.0893     -137167.21    
    767500   2456.6197     -4648.4842      4407.4822     -137157.79    
    767600   2599.8669     -12282.501      4460.43       -137155.99    
    767700   2706.3733     -9916.6613      4444.1896     -137161.25    
    767800   2557.8701     -4299.4107      4388.2924     -137161.84    
    767900   2560.2747      6262.5533      4308.8315     -137163.79    
    768000   2396.3946      10379.748      4271.3128     -137161.41    
    768100   2329.4897      6550.2492      4298.3192     -137165.29    
    768200   2237.7888     -9846.4146      4348.9732     -137166.09    
    768300   2593.757       4293.0471      4344.5815     -137166.04    
    768400   2475.8209     -971.39985      4338.9617     -137159.87    
    768500   2635.8296      130.04629      4353.7097     -137162.12    
    768600   2569.4664     -1323.9223      4387.3431     -137157.53    
    768700   2401.6237     -1721.5365      4393.367      -137156.41    
    768800   2211.9947     -4971.6984      4358.7361     -137159.86    
    768900   2368.5941      793.4175       4261.7871     -137164.53    
    769000   2564.3357      9493.7744      4165.6        -137163.45    
    769100   2843.5396      12139.319      4149.5818     -137170.44    
    769200   2469.3095      6772.195       4228.6249     -137164.25    
    769300   2458.2311     -3572.7115      4341.7323     -137164.33    
    769400   2387.8531     -7946.2651      4414.2171     -137159.5     
    769500   2606.9511      1132.2381      4426.4098     -137157.03    
    769600   2695.2884     -3483.6421      4410.2491     -137158.03    
    769700   2520.5151      4784.6193      4370.8086     -137157.65    
    769800   2480.9453      383.95988      4331.0751     -137160.42    
    769900   2392.4674      2677.6877      4289.3131     -137160.42    
    770000   2535.1794      4896.8264      4266.9389     -137164.73    
    770100   2466.5428      2346.3484      4273.478      -137164.83    
    770200   2252.2609      42.685275      4284.8243     -137164.07    
    770300   2381.2634      8.414354       4280.2677     -137163.43    
    770400   2617.1681      13712.715      4265.517      -137162.63    
    770500   2650.0555     -1174.1964      4310.8631     -137163.19    
    770600   2553.9727     -2645.9108      4364.3245     -137162.38    
    770700   2470.9782     -6945.0934      4394.4913     -137162.2     
    770800   2583.463      -2140.0916      4379.7656     -137160.91    
    770900   2731.1849      11250.698      4356.946      -137155.32    
    771000   2648.3981      2602.7702      4404.0919     -137159.62    
    771100   2436.5724     -18086.108      4480.0576     -137160.11    
    771200   2277.0605      2147.0278      4472.2964     -137153.64    
    771300   2628.0906      248.35737      4441.2898     -137157.02    
    771400   2609.045       4335.9167      4406.9244     -137157.95    
    771500   2441.476      -8953.7386      4374.1081     -137158.8     
    771600   2557.6899     -3936.2257      4280.0864     -137165.33    
    771700   2417.7373      18592.138      4198.1576     -137163.74    
    771800   2401.3437      16449.788      4214.9502     -137164.37    
    771900   2626.9795     -1241.732       4312.04       -137159.63    
    772000   2637.5772      2320.8424      4396.8851     -137157.71    
    772100   2481.6009     -10246.287      4452.3193     -137158.83    
    772200   2327.4727      1664.8119      4440.7522     -137157.23    
    772300   2651.7378     -9319.9088      4405.1808     -137164.61    
    772400   2821.8014      6634.3944      4352.7706     -137162.58    
    772500   2606.7738      5134.0713      4347.157      -137158.55    
    772600   2516.8427     -7590.7533      4368.5281     -137163.37    
    772700   2407.8861      9308.9139      4348.4735     -137163.42    
    772800   2532.8174     -5957.1917      4348.5713     -137164.28    
    772900   2688.3822      6853.4298      4354.2837     -137156.93    
    773000   2638.9706      4617.1502      4389.184      -137158.48    
    773100   2502.468      -8277.8304      4436.7033     -137161.24    
    773200   2203.119      -3252.982       4443.8241     -137155.58    
    773300   2517.2301     -6611.6494      4396.2719     -137160.16    
    773400   2689.1332      3646.7822      4308.7716     -137157.19    
    773500   2689.2395      10389.26       4250.8568     -137158.41    
    773600   2449.6973      11478.243      4259.2325     -137157.18    
    773700   2421.9048     -6611.0693      4305.5831     -137159.68    
    773800   2406.2026     -2344.4293      4294.7562     -137159.32    
    773900   2584.4704      3416.1937      4255.9451     -137160.56    
    774000   2636.9734     -1405.6264      4236.974      -137161.59    
    774100   2435.2018      806.26761      4230.8817     -137164.11    
    774200   2391.0118     -79.937869      4239.2529     -137166.44    
    774300   2318.1212      15607.606      4258.6364     -137162.38    
    774400   2574.3928     -2282.7494      4339.495      -137160.14    
    774500   2490.5637     -3676.3197      4416.6376     -137154.29    
    774600   2535.7779     -8218.6023      4449.1984     -137156.25    
    774700   2407.4159      3383.7918      4432.1093     -137157.79    
    774800   2434.2912      2245.3148      4390.2081     -137164.26    
    774900   2503.1247      2249.3604      4346.0629     -137164.21    
    775000   2705.4978     -3552.9682      4314.8824     -137158.44    
    775100   2764.5702      18210.247      4312.2472     -137157.06    
    775200   2493.8229     -5849.5403      4382.5779     -137157.59    
    775300   2448.0693     -4925.6917      4407.7854     -137161.48    
    775400   2419.824      -2626.5032      4376.239      -137162.07    
    775500   2574.8955      7780.0012      4320.4585     -137164.2     
    775600   2559.7465     -198.15093      4310.0783     -137161.17    
    775700   2546.5272      1514.0861      4322.4027     -137159.03    
    775800   2621.4191     -3560.3742      4346.7806     -137162.05    
    775900   2312.6257     -17511.405      4366.5969     -137157.33    
    776000   2563.4569      4059.6937      4321.1978     -137161.33    
    776100   2815.7139      8334.7269      4291.3779     -137163.44    
    776200   2539.6185     -8348.4164      4316.258      -137163.18    
    776300   2454.1826     -4775.7248      4316.4152     -137166.79    
    776400   2372.3207      5934.2653      4278.2911     -137162.62    
    776500   2455.3256      8490.0675      4242.1219     -137160.18    
    776600   2651.9919      2769.8173      4269.4036     -137163.18    
    776700   2627.3509     -2574.7277      4357.5665     -137164.39    
    776800   2328.7955     -11798.177      4448.3783     -137158.8     
    776900   2403.629      -5782.5989      4462.349      -137158.84    
    777000   2391.3218      4285.3776      4417.3395     -137156.53    
    777100   2548.649       5226.8473      4366.7225     -137161.41    
    777200   2451.7366      10497.315      4318.9962     -137161.64    
    777300   2225.5889     -6538.6831      4293.1898     -137164.8     
    777400   2329.1392     -2422.0129      4248.2406     -137170.19    
    777500   2462.4401      2146.6367      4198.4114     -137169.47    
    777600   2313.95        19169.654      4175.3243     -137162.88    
    777700   2543.7535      7931.2151      4250.0893     -137164.96    
    777800   2544.8276     -6276.3529      4406.6714     -137159.55    
    777900   2660.1046     -6255.8698      4548.4549     -137156.38    
    778000   2528.125      -4847.4975      4637.5632     -137150.73    
    778100   2567.2124     -3150.6694      4684.3087     -137151.39    
    778200   2647.6917     -11725.925      4669.551      -137157.33    
    778300   2455.0399     -6878.3327      4574.7816     -137157.22    
    778400   2359.7472      5069.195       4423.0754     -137160.28    
    778500   2551.1204      12948.266      4310.9791     -137165.17    
    778600   2403.5728     -8068.8286      4278.7271     -137164.52    
    778700   2393.3414     -2643.3163      4232.0063     -137169.37    
    778800   2618.6164      1207.7995      4189.4612     -137172.66    
    778900   2512.6915      18610.364      4190.5436     -137161.74    
    779000   2542.2983      6880.1771      4270.5045     -137162.83    
    779100   2456.5684     -1219.2282      4376.43       -137161.53    
    779200   2427.3813     -15045.397      4434.4188     -137159.83    
    779300   2800.9557     -745.97431      4404.7247     -137160.46    
    779400   2697.029      -2256.3836      4370.8145     -137160.46    
    779500   2348.7107      12052.767      4345.1598     -137157.52    
    779600   2502.8618      3806.5627      4373.9911     -137162.89    
    779700   2448.0257     -4721.9967      4429.5754     -137160.41    
    779800   2557.1993     -1136.2733      4452.0781     -137153.47    
    779900   2603.5834     -7324.6221      4457.9979     -137153.22    
    780000   2503.758      -4279.5084      4441.7424     -137155.49    
    780100   2492.8119     -12523.008      4387.8866     -137160.54    
    780200   2485.7154      1010.4761      4270.9785     -137163.77    
    780300   2544.1374      11551.902      4173.396      -137166.63    
    780400   2440.6148      14051.038      4160.1258     -137167.01    
    780500   2336.2616     -2594.4141      4242.8284     -137167.14    
    780600   2375.1666     -3649.9539      4313.2571     -137161.81    
    780700   2597.6643      4932.0287      4346.6804     -137159.65    
    780800   2552.4078     -2964.4035      4399.1173     -137155.43    
    780900   2423.1832      1702.9068      4409.0077     -137154.27    
    781000   2593.1035     -5078.9691      4396.9122     -137164.23    
    781100   2313.5952      5001.6428      4389.9615     -137163.92    
    781200   2270.9811     -7184.2572      4417.6462     -137161.21    
    781300   2458.6764     -1271.9749      4407.6624     -137156.5     
    781400   2442.0968      660.2176       4379.1964     -137155.78    
    781500   2514.641      -6988.366       4323.6507     -137163.04    
    781600   2330.3093      12084.829      4258.826      -137163.17    
    781700   2286.2751      5046.843       4244.0193     -137164.08    
    781800   2740.8167      2764.9825      4244.9287     -137170.43    
    781900   2812.8142     -1998.0128      4299.0897     -137166.44    
    782000   2431.6596      6879.6954      4397.2454     -137157.1     
    782100   2401.0777     -21252.721      4495.2125     -137156.41    
    782200   2497.0582     -7732.1956      4471.1107     -137155.01    
    782300   2708.7115      7778.7463      4393.309      -137156.48    
    782400   2731.0542     -597.73992      4347.6471     -137163.57    
    782500   2541.2237      3210.331       4314.6651     -137167.65    
    782600   2271.6964      3488.9283      4321.4469     -137162.44    
    782700   2562.4583     -2596.5727      4339.7439     -137164.63    
    782800   2588.4913      730.30456      4357.6584     -137159.28    
    782900   2522.0399      1154.4861      4380.4523     -137157.81    
    783000   2380.2099     -3447.8533      4402.154      -137157.1     
    783100   2205.7456     -2503.5259      4387.2205     -137160.08    
    783200   2181.0094      2653.5142      4337.0955     -137164.31    
    783300   2412.7378     -863.80556      4303.4447     -137162.64    
    783400   2508.9563      9543.4325      4289.3546     -137160.89    
    783500   2506.3738      3164.1382      4307.8508     -137162.31    
    783600   2315.337       1539.3315      4336.6579     -137161.58    
    783700   2427.5422     -5914.8988      4350.7283     -137166.79    
    783800   2523.8771      6526.1756      4338.5321     -137161.56    
    783900   2605.4821      3826.0058      4356.2169     -137159.53    
    784000   2487.1215     -2931.6837      4384.7783     -137159.58    
    784100   2433.8397     -2674.6717      4379.3679     -137162.45    
    784200   2206.6219     -1651.92        4361.6594     -137164       
    784300   2209.0958     -3101.1929      4327.472      -137166.57    
    784400   2405.173       3404.7402      4276.1952     -137162.91    
    784500   2438.9375      19598.903      4242.154      -137159.24    
    784600   2672.7922     -712.32345      4287.4325     -137164.26    
    784700   2417.1619     -8713.7933      4362.2596     -137159.48    
    784800   2409.3842     -4512.4198      4387.9441     -137158.1     
    784900   2634.6689      2937.3781      4363.5316     -137158.96    
    785000   2693.1528      4957.8722      4373.6301     -137160.79    
    785100   2318.5165     -10040.971      4425.5552     -137158.59    
    785200   2417.8606     -8753.6847      4443.1735     -137160.45    
    785300   2529.3943      822.29753      4421.2319     -137158.24    
    785400   2494.1723      8191.9125      4380.984      -137159.06    
    785500   2572.4375     -4526.3956      4365.2945     -137163.78    
    785600   2413.387      -7340.5919      4362.2444     -137161.42    
    785700   2524.6073      1740.1036      4336.2217     -137164.16    
    785800   2562.6886      5095.8146      4314.6647     -137161.61    
    785900   2583.3093     -1884.1036      4314.2453     -137161.24    
    786000   2368.8739      3607.6465      4309.1908     -137160.37    
    786100   2543.1929     -1125.7747      4328.4674     -137166.77    
    786200   2524.0311     -10755.394      4357.9537     -137168.51    
    786300   2278.5336     -3912.6292      4351.2451     -137162.62    
    786400   2509.5337     -785.15258      4327.2543     -137160.36    
    786500   2587.646       7473.3913      4290.9958     -137160.36    
    786600   2430.1431      2740.5575      4288.4276     -137161.16    
    786700   2430.9161      2249.3649      4312.5034     -137163.71    
    786800   2289.9337     -10301.796      4356.6607     -137165.53    
    786900   2074.9339     -6398.4932      4345.4069     -137162.82    
    787000   2498.8693      13035.845      4281.2009     -137164.78    
    787100   2556.8234      2455.9413      4279.5126     -137163.05    
    787200   2520.7831      3269.8429      4300.4374     -137164.02    
    787300   2378.4009     -3197.0164      4332.6288     -137164.83    
    787400   2386.9641     -4761.9869      4369.3066     -137162.62    
    787500   2567.6183      3624.4311      4367.4904     -137157.34    
    787600   2487.3694      8129.644       4366.1989     -137155.71    
    787700   2458.3687     -9141.5147      4395.4992     -137159.17    
    787800   2391.1923     -9098.747       4365.9214     -137160.92    
    787900   2517.2551      3608.2422      4281.0417     -137165.36    
    788000   2654.3929      18648.913      4229.249      -137164.68    
    788100   2634.5857     -88.487497      4267.5744     -137165.99    
    788200   2389.8189      1592.2578      4316.4469     -137166.97    
    788300   2220.6401      1305.7392      4352.6158     -137161.08    
    788400   2519.0312     -6044.99        4357.9688     -137162.15    
    788500   2476.7786     -2951.8182      4341.812      -137159.26    
    788600   2395.1623      8851.8124      4309.0297     -137155.24    
    788700   2703.7952      3754.0633      4288.9299     -137164.25    
    788800   2280.4477      6026.4486      4299.2238     -137163.16    
    788900   2319.0835     -1207.0676      4319.9841     -137163.64    
    789000   2568.7995     -3846.4489      4328.6867     -137164.13    
    789100   2643.0815      6239.7772      4320.0762     -137164.21    
    789200   2459.4165     -1851.1412      4337.817      -137161.64    
    789300   2533.6436     -860.15228      4346.6082     -137164.96    
    789400   2406.1815      8358.7905      4334.158      -137161.52    
    789500   2474.2299      138.50531      4345.4661     -137159.85    
    789600   2659.7887     -6819.8232      4349.6397     -137160.14    
    789700   2504.7359      3962.0775      4315.7291     -137157.37    
    789800   2594.2046      7.5291506      4289.8335     -137168.35    
    789900   2290.1956     -3048.4279      4270.6676     -137162.94    
    790000   2468.117       14237.35       4232.1219     -137162.49    
    790100   2540.773       6971.0063      4251.5801     -137160.85    
    790200   2592.6419     -5924.3748      4301.8093     -137164.73    
    790300   2497.5425     -8217.7697      4350.2034     -137163.95    
    790400   2440.4809     -6552.9768      4366.2513     -137160.28    
    790500   2683.8438      10473.131      4356.2748     -137155.75    
    790600   2663.8598      6766.924       4403.968      -137156.19    
    790700   2422.7409     -17199.624      4477.8593     -137157.8     
    790800   2374.5458     -13711.772      4439.403      -137157.42    
    790900   2638.6594      9109.5848      4322.7966     -137161.68    
    791000   2505.8194      4194.7929      4260.6117     -137162.36    
    791100   2385.3439      6728.922       4233.9951     -137168.5     
    791200   2306.8292     -3360.8799      4246.4594     -137165.43    
    791300   2450.0991      4500.087       4265.8089     -137162.86    
    791400   2423.9337      985.56111      4297.1965     -137157.99    
    791500   2537.794      -2508.057       4314.6917     -137158.21    
    791600   2484.5109      15268.151      4313.8282     -137154.42    
    791700   2502.1119      241.08621      4352.4931     -137157.78    
    791800   2330.8628     -10497.174      4387.0461     -137161.55    
    791900   2230.7447      1648.5686      4350.808      -137158.14    
    792000   2630.2916      2625.1575      4292.4799     -137161.96    
    792100   2679.7779      9226.915       4253.5642     -137164.93    
    792200   2563.636      -1115.1715      4289.3847     -137163.92    
    792300   2473.1129     -2038.2313      4358.5638     -137162.05    
    792400   2348.6799     -9449.2685      4402.8343     -137163.53    
    792500   2155.9283     -990.95467      4393.1627     -137162.43    
    792600   2605.3995     -4347.0841      4356.3123     -137167.8     
    792700   2761.1843      1958.8657      4315.8205     -137168       
    792800   2578.6069     -5971.0427      4292.6817     -137166.34    
    792900   2524.5624      13104.033      4250.5203     -137169.22    
    793000   2223.9289     -3624.4862      4276.057      -137167.76    
    793100   2242.9626     -7741.8893      4300.4108     -137169.33    
    793200   2485.4373      4773.8343      4292.2929     -137165.97    
    793300   2500.5399     -6019.2061      4302.1595     -137163.77    
    793400   2452.2725     -3829.2873      4286.1307     -137162.4     
    793500   2547.7737      7304.5405      4246.1352     -137165.25    
    793600   2305.2746      4076.4641      4245.5055     -137164.68    
    793700   2218.9649     -832.40469      4269.8507     -137165.51    
    793800   2536.1669     -5364.2408      4295.3712     -137165.24    
    793900   2435.8294      9069.7046      4326.6271     -137158.12    
    794000   2361.8433     -4952.0591      4399.6583     -137155.81    
    794100   2531.6416     -17509.804      4433.452      -137159.55    
    794200   2621.9686     -5115.057       4375.0791     -137158.73    
    794300   2649.1084      10053.25       4276.5073     -137161.3     
    794400   2571.446       3275.2915      4231.692      -137168.49    
    794500   2319.6241      8316.5175      4231.4433     -137164.07    
    794600   2414.3905      339.06014      4262.9123     -137163.76    
    794700   2676.2214      36.512768      4305.1479     -137163.39    
    794800   2466.5398      2225.6321      4368.7265     -137154.93    
    794900   2314.7527     -17993.3        4415.3714     -137159.8     
    795000   2250.9419     -5109.7956      4344.5437     -137162.36    
    795100   2479.3352      12020.383      4213.5774     -137163.22    
    795200   2657.76        19329.662      4151.7548     -137163.11    
    795300   2558.2823      8275.0331      4211.9353     -137165.54    
    795400   2355.8954     -11961.229      4338.3317     -137165.83    
    795500   2248.5539     -13502.442      4391.8805     -137160.2     
    795600   2468.8191     -5962.6047      4356.8223     -137161.79    
    795700   2660.5261      3813.0484      4284.4469     -137163.75    
    795800   2555.1888      2872.6866      4250.8462     -137162.47    
    795900   2295.8603      9024.048       4262.3095     -137162.51    
    796000   2325.826      -4701.9439      4321.5597     -137165.9     
    796100   2442.6268     -4888.5056      4371.1688     -137159.67    
    796200   2580.0472      5543.7422      4370.6163     -137158.59    
    796300   2513.1317     -7750.2322      4364.8746     -137158.86    
    796400   2515.3792      2368.5747      4348.291      -137161.94    
    796500   2423.7189     -9703.6232      4346.2708     -137164.56    
    796600   2230.4047      4490.061       4302.9422     -137160.01    
    796700   2715.3383      17340.383      4262.8355     -137163       
    796800   2659.9917     -1680.8052      4311.3282     -137163.17    
    796900   2472.8758     -1376.1495      4375.9738     -137162.28    
    797000   2354.5733     -7562.7167      4425.8265     -137157.2     
    797100   2483.6583     -358.47008      4422.8254     -137156.66    
    797200   2883.2185     -7881.6075      4399.5105     -137162.44    
    797300   3084.495      -9131.727       4340.2884     -137162.83    
    797400   2504.4079      10653.988      4259.9557     -137158.94    
    797500   2440.9759      7550.6622      4239.3751     -137163.26    
    797600   2397.4102     -5924.3694      4267.1434     -137163.66    
    797700   2467.2141      5496.2346      4280.1481     -137162.07    
    797800   2665.533       2902.5444      4315.4922     -137161       
    797900   2654.4884     -132.192        4364.6105     -137160.66    
    798000   2304.9964     -3737.4566      4400.4585     -137161.84    
    798100   2343.4824     -4642.201       4394.5838     -137163.24    
    798200   2421.0681      14.037651      4360.3491     -137159.36    
    798300   2721.8391      5116.0912      4315.4428     -137164.52    
    798400   2433.9022      11418.816      4296.5773     -137160.23    
    798500   2426.3789     -2336.1548      4346.9735     -137161.25    
    798600   2399.6658     -4024.2184      4399.1145     -137158.79    
    798700   2613.6687     -7258.574       4423.5508     -137162.85    
    798800   2437.7905     -325.37911      4410.9964     -137158.57    
    798900   2657.8823     -5875.7481      4360.815      -137162.31    
    799000   2759.8769      12266.458      4287.2569     -137159.62    
    799100   2722.5801     -2576.3016      4273.7018     -137161.53    
    799200   2390.563      -3098.2072      4268.1947     -137161.99    
    799300   2435.221      -4315.4337      4248.817      -137164.49    
    799400   2564.4056      11544.439      4224.2218     -137164.7     
    799500   2551.6683      10635.144      4269.7425     -137160.8     
    799600   2468.5978     -10850.056      4365.6853     -137161.29    
    799700   2420.8746     -13585.858      4423.398      -137163.03    
    799800   2338.593      -1792.319       4419.3029     -137154.97    
    799900   2651.6579     -5582.0542      4393.1918     -137156.53    
    800000   2627.5182     -3482.8907      4354.7236     -137158.18    
    800100   2362.7242      1603.0824      4321.2698     -137155.73    
    800200   2303.2087      5287.8181      4300.5795     -137158.43    
    800300   2597.4307      1615.0589      4298.4619     -137166.2     
    800400   2861.6499      2796.7299      4313.9089     -137160.78    
    800500   2690.3298      6167.4326      4361.7304     -137156.45    
    800600   2504.4926     -7783.2728      4426.6257     -137159.43    
    800700   2414.6029     -10286.883      4413.528      -137159.98    
    800800   2552.9451      2818.5308      4305.3891     -137163.01    
    800900   2662.7388      18524.67       4214.5004     -137161.91    
    801000   2444.9411      4500.6379      4231.1001     -137160.01    
    801100   2427.3122     -6143.5754      4271.3841     -137167.65    
    801200   2486.534      -8671.2407      4275.2016     -137167.58    
    801300   2739.841       3280.5109      4261.0979     -137168.12    
    801400   2528.5283     -428.09032      4276.828      -137163.3     
    801500   2357.4211      5955.5197      4304.6595     -137160.18    
    801600   2559.6215      6149.0496      4339.9386     -137157.98    
    801700   2619.4329      6040.9764      4371.2005     -137153.78    
    801800   2619.978      -5692.8161      4413.1401     -137157.87    
    801900   2298.499       1772.0653      4415.8119     -137155.67    
    802000   2367.2896     -4044.7221      4394.6793     -137158.32    
    802100   2613.9079     -964.78035      4345.6336     -137158.92    
    802200   2918.0774      7661.2452      4318.0137     -137156.92    
    802300   2719.5126      3038.8164      4336.7271     -137159.05    
    802400   2579.0639     -9698.111       4389.778      -137161.61    
    802500   2427.2102     -6975.6691      4404.885      -137162       
    802600   2289.6173      4383.773       4354.6664     -137158.81    
    802700   2630.0003      7668.9582      4289.6075     -137161.13    
    802800   2534.2197      11597.919      4257.5301     -137157.22    
    802900   2503.6994      1959.0174      4282.5365     -137166.75    
    803000   2337.456      -9460.7438      4351.9093     -137165.1     
    803100   2360.7477     -9514.9012      4382.5714     -137161.24    
    803200   2639.4064      2640.7865      4365.1183     -137163.08    
    803300   2502.6154      1683.5119      4346.2914     -137160.48    
    803400   2413.1931     -1526.4017      4320.9937     -137160.35    
    803500   2681.4746      1303.2349      4295.7908     -137168.65    
    803600   2348.2528     -915.09091      4284.8794     -137164.69    
    803700   2430.1845     -1369.436       4282.2827     -137164.44    
    803800   2615.3701      2327.9437      4282.1864     -137162.6     
    803900   2641.4658     -3034.1671      4309.4752     -137162.38    
    804000   2246.875      -3454.81        4344.9485     -137157.74    
    804100   2377.3376     -12804.334      4356.2765     -137163.97    
    804200   2551.3974      3965.3866      4316.4124     -137161.65    
    804300   2677.4775      7014.9338      4321.2376     -137158.85    
    804400   2594.2115      413.14949      4384.4042     -137158.46    
    804500   2297.6677     -6163.1295      4445.511      -137157.23    
    804600   2477.0221     -10072.093      4453.3048     -137162.4     
    804700   2676.7984      2242.3443      4409.2825     -137160.27    
    804800   2579.5009      5843.2878      4369.0947     -137153.9     
    804900   2758.3887      1045.7763      4349.9242     -137162.92    
    805000   2443.8116     -1446.9043      4346.2349     -137161.03    
    805100   2417.2749      2486.1125      4330.7232     -137163.28    
    805200   2449.3018     -3009.6462      4313.8006     -137164.36    
    805300   2607.1989      1561.9133      4291.6151     -137164.08    
    805400   2785.1249      3359.2719      4291.6022     -137162.66    
    805500   2663.2597      1549.2844      4340.4126     -137164.34    
    805600   2218.8465     -1119.8145      4411.6196     -137159.02    
    805700   2342.0074     -8615.2629      4445.3341     -137160.04    
    805800   2595.5278     -637.72225      4407.2682     -137162.63    
    805900   2525.7128     -2940.3128      4381.6652     -137158.8     
    806000   2595.6614     -4867.7345      4391.4799     -137161.31    
    806100   2338.8667     -5081.1591      4362.7173     -137160.92    
    806200   2262.8882      7296.2425      4272.4631     -137162.61    
    806300   2446.0404      10678.282      4210.5195     -137164.46    
    806400   2594.7892      10770.856      4204.6727     -137160.27    
    806500   2780.3438      2736.9522      4241.8731     -137165.2     
    806600   2495.3075     -401.45004      4324.731      -137164.78    
    806700   2288.6114     -11046.764      4423.2502     -137159.87    
    806800   2492.5078     -8591.5545      4466.0181     -137160.25    
    806900   2530.019      -1761.779       4433.6894     -137155.83    
    807000   2572.4997      6920.0539      4382.6421     -137155.85    
    807100   2430.518       1561.0867      4355.5808     -137158.8     
    807200   2373.2093     -7665.7724      4317.1424     -137163.18    
    807300   2387.5527     -3267.2125      4230.5426     -137173.71    
    807400   2240.7335      13415.206      4160.9806     -137168.72    
    807500   2361.7875      10094.596      4157.3301     -137165.06    
    807600   2432.8282      7052.3763      4208.4412     -137163.95    
    807700   2339.1323      960.51864      4301.178      -137157.72    
    807800   2605.1663      878.04936      4384.4378     -137159.27    
    807900   2648.1579     -18162.812      4460.8655     -137157.5     
    808000   2597.4483      542.27753      4469.2997     -137160.19    
    808100   2167.3812     -16543.673      4448.923      -137157.89    
    808200   2530.1624     -371.89445      4325.7041     -137164.04    
    808300   2634.4201      19140.732      4209.2352     -137162.54    
    808400   2454.9218      7232.0502      4212.2527     -137162.34    
    808500   2242.0272     -2769.6195      4280.9125     -137163.56    
    808600   2354.7363     -6195.364       4351.6082     -137165.38    
    808700   2641.7661     -4463.4051      4379.025      -137159.16    
    808800   2550.1244      1006.8497      4372.9832     -137157.34    
    808900   2544.166      -8503.7651      4359.3858     -137163.17    
    809000   2255.6593      2913.4205      4304.9087     -137159.79    
    809100   2546.2071      6053.7853      4249.4548     -137165.78    
    809200   2722.669       9045.9134      4238.6132     -137163.22    
    809300   2593.7152      5320.3736      4286.939      -137164.11    
    809400   2315.408      -779.23396      4371.2603     -137164.64    
    809500   2397.2847     -13881.854      4426.235      -137162.69    
    809600   2480.6428      1382.4113      4409.573      -137158.68    
    809700   2641.304      -3681.7247      4383.3303     -137160.42    
    809800   2368.2966     -4169.4715      4333.1115     -137157.3     
    809900   2481.4868      2259.3167      4265.9821     -137168.07    
    810000   2308.7488      7795.4706      4224.8901     -137168.03    
    810100   2517.1407      4514.4953      4221.0349     -137166.25    
    810200   2602.697       10665.855      4237.9713     -137160.9     
    810300   2505.803       8843.6949      4303.2565     -137160.05    
    810400   2321.1261     -6400.1251      4393.4953     -137159.7     
    810500   2366.3912     -4791.0513      4455.3075     -137157.91    
    810600   2646.752      -6083.579       4467.9951     -137155.83    
    810700   2623.8241     -3485.7612      4438.3398     -137156.48    
    810800   2470.3325      1540.9381      4373.03       -137157.3     
    810900   2554.2039      1898.71        4314.2089     -137163.8     
    811000   2417.7086     -1683.6159      4276.5935     -137162.23    
    811100   2628.3684      3466.0718      4240.3586     -137166.76    
    811200   2577.2247      7602.6904      4254.6161     -137163.93    
    811300   2639.2379     -10853.361      4324.1214     -137165.28    
    811400   2513.4261     -4427.8689      4364.7165     -137162.18    
    811500   2527.291      -8674.1345      4382.266      -137160.4     
    811600   2552.208       5605.2345      4370.1938     -137157.43    
    811700   2516.8592     -769.67703      4368.353      -137157.93    
    811800   2433.4444     -7429.5465      4360.4256     -137163.2     
    811900   2362.8327      1308.809       4322.7098     -137164.16    
    812000   2524.8834     -920.90899      4309.7233     -137162.53    
    812100   2591.8163     -6486.3973      4306.1726     -137156.63    
    812200   2749.8452      11517.102      4302.3832     -137163.26    
    812300   2387.8763     -493.78661      4359.3019     -137160.44    
    812400   2491.0195     -6088.1417      4398.1731     -137165.16    
    812500   2610.3928      1285.2418      4402.4035     -137162.71    
    812600   2718.8199     -9999.2923      4410.0401     -137160.76    
    812700   2604.5839     -1391.0796      4396.638      -137158.6     
    812800   2680.8176     -4331.3201      4379.5288     -137163.54    
    812900   2292.8247     -2716.2717      4336.9988     -137157.05    
    813000   2469.9698     -3918.8922      4275.3504     -137160.24    
    813100   2730.743       16046.555      4199.669      -137158.23    
    813200   2631.3745      20824.42       4208.1874     -137159.76    
    813300   2380.9738     -3996.1278      4343.7442     -137162.08    
    813400   2300.0944     -10169.985      4493.5462     -137156.43    
    813500   2601.2866     -10730.697      4591.4698     -137156.57    
    813600   2675.8519     -18918.644      4600.5981     -137156.05    
    813700   2496.0894      3780.3922      4503.5126     -137153.18    
    813800   2501.0228      5082.4898      4411.12       -137161.77    
    813900   2278.6816      5693.1894      4359.4805     -137159.45    
    814000   2468.2308      11622.856      4330.1405     -137161.19    
    814100   2529.4223      739.63473      4328.8545     -137159.11    
    814200   2418.3878      10845.49       4323.6337     -137156.33    
    814300   2592.1139     -1622.3896      4342.0126     -137162.63    
    814400   2505.2944     -7811.5674      4348.132      -137162.36    
    814500   2525.5963     -467.50808      4319.1939     -137162.63    
    814600   2525.6411      20634.842      4314.6277     -137158.2     
    814700   2774.6101     -1741.4402      4401.166      -137159.69    
    814800   2569.367      -17657.152      4489.7359     -137161.31    
    814900   2341.1743     -5723.5625      4496.9648     -137157.85    
    815000   2612.7013      136.29018      4441.0802     -137161.32    
    815100   2496.658       4468.703       4379.595      -137156.41    
    815200   2589.9811      3409.0646      4359.8368     -137160.19    
    815300   2459.903      -2744.3798      4374.155      -137161.48    
    815400   2176.2799     -3765.8941      4356.4202     -137163.14    
    815500   2387.5596     -5796.103       4309.423      -137169.93    
    815600   2538.0352      9010.8394      4258.8619     -137163.16    
    815700   2635.7391      9991.6423      4267.1634     -137164.53    
    815800   2415.8634      6922.9941      4331.1031     -137163.77    
    815900   2351.9606     -4166.7895      4403.3972     -137161.97    
    816000   2537.1531     -2078.1092      4430.1547     -137159.04    
    816100   2574.5278      2457.6903      4443.9977     -137156.08    
    816200   2541.7811     -9541.8076      4444.3103     -137158.07    
    816300   2492.1121     -8540.2496      4385.1548     -137160.35    
    816400   2440.1331      9662.6247      4287.668      -137159.99    
    816500   2874.7827      10580.985      4235.3266     -137162.98    
    816600   2792.3225      4655.8979      4259.7925     -137158.68    
    816700   2506.8384     -3980.4258      4326.2743     -137159.94    
    816800   2484.3311     -12893.409      4376.0339     -137162.53    
    816900   2492.6757     -4494.0906      4360.8357     -137163.23    
    817000   2542.6651      9454.3497      4314.9643     -137160.57    
    817100   2804.4275      216.04422      4319.7345     -137159.26    
    817200   2664.9025      570.07742      4359.2396     -137157.24    
    817300   2463.9661     -12462.972      4383.7161     -137161.56    
    817400   2417.3745     -2679.2199      4334.7675     -137162.18    
    817500   2452.8561      11400.939      4278.9452     -137159.83    
    817600   2546.487       9403.7679      4275.0806     -137160.86    
    817700   2423.2702      3416.0117      4325.467      -137164.41    
    817800   2277.0616     -6296.9144      4391.3098     -137164.09    
    817900   2583.3565     -18628.086      4410.3664     -137164.23    
    818000   2673.5593      293.03178      4362.6735     -137163.27    
    818100   2515.0404      4249.1837      4321.267      -137161.09    
    818200   2412.4876     -6049.9973      4287.7871     -137162.4     
    818300   2304.085       12360.672      4235.1511     -137159.14    
    818400   2756.3246      8611.0974      4228.5671     -137163.33    
    818500   2465.1712     -2041.5254      4275.873      -137157.35    
    818600   2296.6076     -1265.7942      4306.0203     -137161.73    
    818700   2244.5389      5489.9227      4290.4113     -137161.08    
    818800   2429.5278     -2657.1398      4268.9884     -137162.44    
    818900   2513.9843      11837.969      4259.0912     -137161.08    
    819000   2540.7492      11255.511      4329.0521     -137159.99    
    819100   2657.7369     -15169.066      4448.1201     -137160.62    
    819200   2380.0313     -7155.8745      4487.8481     -137154.24    
    819300   2472.9331     -5123.4877      4457.3391     -137157.83    
    819400   2414.1769     -1730.4011      4402.1474     -137156.62    
    819500   2479.7761     -4424.9325      4334.5481     -137159.22    
    819600   2471.4417      17811.923      4264.9033     -137162.75    
    819700   2269.8382      7511.5915      4270.5439     -137163.84    
    819800   2367.7812      5706.5673      4305.8187     -137163.75    
    819900   2659.4127      543.73374      4366.6103     -137164.27    
    820000   2341.9802     -10875.296      4431.2016     -137153.91    
    820100   2500.8941     -6716.7064      4413.2183     -137155.62    
    820200   2674.4384      10843.543      4363.5675     -137159.13    
    820300   2518.8515     -7546.0458      4359.6469     -137165.64    
    820400   2357.4178      1983.3719      4326.6366     -137164.46    
    820500   2365.6308      1743.0652      4297.1347     -137161.21    
    820600   2555.7101      6395.9609      4313.2409     -137161.53    
    820700   2466.8768     -8667.235       4375.9424     -137158.23    
    820800   2436.7728     -9342.6456      4387.9301     -137160.26    
    820900   2366.0079     -3122.095       4346.8339     -137161.16    
    821000   2428.2682      7210.5467      4279.3349     -137161.43    
    821100   2635.2222      3480.0051      4229.5286     -137162.85    
    821200   2578.1994      5316.3375      4210.4722     -137161.46    
    821300   2476.6339      1164.4233      4220.4975     -137167.54    
    821400   2271.0661     -6576.1766      4241.3859     -137165.47    
    821500   2448.5672      6143.5061      4229.0108     -137164.06    
    821600   2451.9809      11020.536      4252.3613     -137160.55    
    821700   2579.1948     -1890.8419      4334.0251     -137162.6     
    821800   2578.0017     -4017.6748      4419.6357     -137163.94    
    821900   2096.7031     -2519.3982      4469.0019     -137158.45    
    822000   2318.2075     -8549.0419      4475.4991     -137159.34    
    822100   2516.5014      1788.476       4415.8482     -137159.08    
    822200   2576.9468     -2057.278       4343.8208     -137160.42    
    822300   2376.1835      10180.51       4262.8035     -137160.11    
    822400   2380.529       10774.005      4210.9754     -137165.8     
    822500   2380.6448      290.80935      4225.6666     -137165.71    
    822600   2731.0957      2334.5619      4272.4055     -137166.74    
    822700   2671.8158      3387.0601      4339.686      -137159.9     
    822800   2542.904      -8952.3678      4424.9292     -137159.07    
    822900   2488.2854     -17045.452      4465.5874     -137157.81    
    823000   2494.8402      1123.4874      4400.5817     -137157.55    
    823100   2493.6508      3835.621       4335.3449     -137160.67    
    823200   2444.5588     -812.47594      4300.1078     -137166.7     
    823300   2469.4934      4519.2389      4272.7615     -137167.38    
    823400   2676.4273     -2415.05        4270.8754     -137166.04    
    823500   2690.2683      1042.0806      4295.1278     -137160.73    
    823600   2383.1237     -2427.7554      4357.3467     -137158.96    
    823700   2410.5546     -5052.2604      4405.5757     -137166.16    
    823800   2377.2302     -7404.5541      4412.2391     -137160.78    
    823900   2478.0829      3977.1383      4370.9224     -137156.73    
    824000   2661.6437      5887.7889      4345.1539     -137158.46    
    824100   2505.7984     -3664.8518      4343.269      -137158.11    
    824200   2503.7724     -4224.1774      4315.1011     -137161.03    
    824300   2511.6454      7956.3746      4257.6626     -137162.86    
    824400   2574.1339      6992.1345      4231.677      -137165.98    
    824500   2528.1367     -389.30072      4266.5114     -137165.6     
    824600   2373.9385      1325.2578      4306.7561     -137160.83    
    824700   2488.7527     -1088.1211      4332.2682     -137158.71    
    824800   2508.2077      6244.7166      4332.2428     -137153.87    
    824900   2648.2268      3383.7717      4343.2316     -137156.69    
    825000   2530.5129     -8986.1736      4362.6429     -137161.79    
    825100   2294.2151     -3615.1389      4338.8758     -137159.74    
    825200   2486.5411     -3298.9326      4273.3108     -137163.99    
    825300   2753.5914      12119.73       4195.976      -137165.07    
    825400   2796.7718      14239.067      4177.1721     -137163.89    
    825500   2477.0114      1155.1022      4235.5619     -137166.12    
    825600   2225.8202     -3744.6275      4324.7518     -137159.84    
    825700   2463.9206     -5514.4582      4394.8162     -137160.25    
    825800   2547.8392     -12365.176      4421.0517     -137158.75    
    825900   2536.1321      1897.0767      4381.1604     -137159.45    
    826000   2326.5016     -1773.0354      4338.6445     -137163.63    
    826100   2273.28       -4232.1733      4282.4327     -137165.36    
    826200   2560.2398      8013.3415      4197.6965     -137169.34    
    826300   2527.8629      14888.302      4183.5729     -137165.83    
    826400   2494.1496      4822.1306      4263.332      -137161.03    
    826500   2735.8169      605.44508      4375.0693     -137158.45    
    826600   2486.8512     -5917.1157      4465.4762     -137149.42    
    826700   2408.2395     -5192.3918      4472.871      -137158.49    
    826800   2202.231       11128.942      4433.1899     -137154.91    
    826900   2505.0838     -6384.2212      4421.8183     -137157.01    
    827000   2598.4321     -3317.977       4380.9814     -137156.72    
    827100   2556.0275      10268.471      4313.425      -137162.11    
    827200   2236.9177      6043.9914      4280.0146     -137160.68    
    827300   2456.639      -7495.1178      4254.4965     -137163.67    
    827400   2583.7257      6520.8631      4211.0669     -137161.93    
    827500   2616.7323      9461.6622      4223.8277     -137163.12    
    827600   2309.6975     -1887.9258      4302.2239     -137161.93    
    827700   2182.3247     -8122.1634      4348.2495     -137164.57    
    827800   2236.15       -1621.9705      4323.0132     -137161.84    
    827900   2518.1458      3939.6125      4259.8041     -137160.48    
    828000   2540.0009      20303.193      4210.3288     -137158.09    
    828100   2592.6347      2015.3812      4264.5093     -137160.35    
    828200   2266.749      -995.5758       4341.3398     -137159.11    
    828300   2238.9897     -2994.4693      4380.9007     -137158.57    
    828400   2639.4532     -3581.4903      4386.0453     -137163.56    
    828500   2579.0198     -6994.5463      4356.9142     -137161.33    
    828600   2495.7759      5117.7874      4292.5992     -137159.32    
    828700   2422.0389     -1512.0962      4254.6916     -137161.51    
    828800   2363.5484      1265.4959      4235.6592     -137168.37    
    828900   2217.1076      4143.8629      4237.0363     -137163.71    
    829000   2447.8089      2889.8998      4254.4759     -137164.33    
    829100   2451.7601      12757.856      4291.0408     -137163.5     
    829200   2336.822      -9391.8173      4384.0055     -137157.86    
    829300   2733.5657     -4421.3802      4408.1912     -137161.95    
    829400   2598.8489     -2578.5848      4419.501      -137158.65    
    829500   2346.217      -8560.2732      4449.703      -137160.31    
    829600   2220.4581      434.65023      4439.1027     -137161.16    
    829700   2531.9816      138.39184      4421.4343     -137162.96    
    829800   2476.8442     -770.42419      4407.9941     -137156.85    
    829900   2544.2687     -2880.2278      4388.8299     -137156.69    
    830000   2568.5132      14571.313      4342.5147     -137159.79    
    830100   2337.0813     -2836.7703      4345.7262     -137162.59    
    830200   2406.871      -7461.8291      4345.7202     -137166.24    
    830300   2457.3855     -5966.2942      4320.7004     -137163.56    
    830400   2630.0936     -3013.138       4290.103      -137164.81    
    830500   2369.9694      10745.827      4267.3548     -137158.65    
    830600   2439.9584      1851.7631      4283.1229     -137162.79    
    830700   2308.1695      3623.5984      4308.8472     -137166.04    
    830800   2202.3502     -1553.5901      4359.2571     -137163.51    
    830900   2326.7811     -14236.61       4390.1282     -137157.12    
    831000   2573.2234     -328.8079       4346.3427     -137159.24    
    831100   2475.1268      5610.2949      4286.7609     -137159.41    
    831200   2499.5993      2930.3072      4235.2678     -137165.98    
    831300   2487.6842      202.37301      4222.936      -137167.57    
    831400   2364.5104      4626.2236      4244.5866     -137164.52    
    831500   2442.3825      1903.4361      4298.3896     -137158.56    
    831600   2734.196      -567.26828      4374.9329     -137160.45    
    831700   2421.0952     -11389.205      4458.7652     -137153.02    
    831800   2455.0916     -12891.753      4469.6625     -137158.44    
    831900   2418.9419     -6323.2343      4397.9709     -137163.19    
    832000   2315.6258      10283.391      4308.6833     -137162.1     
    832100   2606.6791      533.78875      4289.1291     -137163.69    
    832200   2824.8254      386.65248      4302.5984     -137163.74    
    832300   2600.4822     -2872.4914      4323.9891     -137161.53    
    832400   2191.2927      6194.6177      4348.8752     -137155.88    
    832500   2319.3787     -4584.6051      4364.9921     -137160.98    
    832600   2613.2318     -3588.4691      4339.6183     -137165.55    
    832700   2734.1863     -4028.1619      4303.8321     -137162.36    
    832800   2702.3742      8003.0201      4276.8426     -137163.35    
    832900   2252.6636     -1533.8577      4313.6672     -137158.08    
    833000   2333.1688     -2100.0643      4340.7219     -137158.5     
    833100   2797.2864     -1937.5691      4331.6281     -137165.55    
    833200   2584.3719     -2753.4961      4319.4608     -137161.54    
    833300   2592.6056      4896.124       4303.7075     -137163.76    
    833400   2407.3076      8815.54        4317.3661     -137161.5     
    833500   2533.0419     -13480.539      4365.0525     -137165.84    
    833600   2444.5958     -4402.9196      4358.6268     -137158.92    
    833700   2756.604      -3208.1458      4317.3087     -137160.07    
    833800   2514.617       10911.866      4277.8691     -137158.25    
    833900   2397.7378      3467.5487      4282.9567     -137161.38    
    834000   2410.3044     -8412.9069      4317.9536     -137160.78    
    834100   2568.8791     -2332.269       4340.0632     -137161.07    
    834200   2635.146       2565.1553      4359.3146     -137158.77    
    834300   2549.9128     -3907.2082      4415.7646     -137156.33    
    834400   2480.7913     -19193.57       4438.828      -137163.07    
    834500   2360.5485      2978.1028      4366.7427     -137161.53    
    834600   2560.3332     -659.57537      4295.2418     -137162.17    
    834700   2750.0063      5304.6178      4239.1308     -137162.61    
    834800   2374.4775      2207.543       4230.5368     -137161.46    
    834900   2321.7619      6264.7876      4252.5191     -137164.17    
    835000   2551.6698      426.42557      4276.6341     -137167.62    
    835100   2518.0515      5351.8364      4310.6109     -137163.01    
    835200   2573.697      -1495.8635      4404.7432     -137154.59    
    835300   2759.7651     -22877.471      4482.8244     -137158.38    
    835400   2437.4686      15.369861      4469.2612     -137152.92    
    835500   2465.6951     -2263.725       4421.6823     -137157.13    
    835600   2574.3082      3546.7839      4359.6636     -137165.29    
    835700   2422.5966     -5611.0373      4324.0851     -137171.14    
    835800   2274.1481      2345.6692      4283.6764     -137165.96    
    835900   2437.38        5608.6414      4236.6685     -137164.31    
    836000   2518.8257      14676.6        4229.0458     -137161.87    
    836100   2453.561       10177.507      4288.1973     -137158.66    
    836200   2614.5339     -13950.653      4385.4978     -137158.53    
    836300   2619.2189      9381.8884      4437.6255     -137150.14    
    836400   2528.3682     -15650.1        4500.3877     -137152.65    
    836500   2561.8002     -9434.0824      4492.4194     -137159.24    
    836600   2606.9583     -2165.0618      4428.3856     -137161.95    
    836700   2450.1546     -963.4212       4347.6613     -137162.4     
    836800   2489.6904      6852.9962      4272.5272     -137167.97    
    836900   2259.5348      3827.9895      4236.8835     -137164.74    
    837000   2601.6284      4374.643       4237.5042     -137164.49    
    837100   2550.1604      10364.418      4296.8446     -137157.85    
    837200   2467.4888     -6075.8458      4415.9553     -137155.7     
    837300   2453.334      -15280.868      4477.1331     -137155.99    
    837400   2426.2989     -3300.5277      4446.9516     -137154.97    
    837500   2596.7797     -8325.1492      4383.6015     -137158.6     
    837600   2554.7705      5304.2995      4321.5758     -137158.85    
    837700   2477.0298      1252.1522      4291.9297     -137162.57    
    837800   2479.8512      4146.1845      4268.1017     -137168.69    
    837900   2325.4725     -3734.9281      4279.6848     -137165.43    
    838000   2715.1427      5495.3418      4289.779      -137165.32    
    838100   2597.3574      4228.3853      4324.8416     -137160.74    
    838200   2577.4951     -6534.9396      4398.0261     -137163       
    838300   2325.9863     -11472.609      4420.8318     -137158.52    
    838400   2569.1591      6069.2211      4361.3015     -137162.05    
    838500   2566.9838      444.48784      4326.5455     -137156.62    
    838600   2583.1717      6609.0789      4300.7425     -137163.13    
    838700   2299.618       1592.9977      4311.2721     -137161.31    
    838800   2473.7352     -6053.24        4339.1139     -137163.26    
    838900   2584.4135     -3632.9786      4353.8401     -137162.68    
    839000   2486.0033     -6846.4779      4340.2623     -137158.78    
    839100   2905.6013      1923.7249      4287.6595     -137160.45    
    839200   2813.7282      10800.304      4298.2183     -137157.6     
    839300   2361.9988     -6784.4783      4373.0586     -137154.24    
    839400   2481.8779     -4873.3149      4386.1887     -137159.37    
    839500   2437.0353     -5045.8453      4357.2603     -137158.72    
    839600   2553.5047      5676.3348      4323.64       -137161.76    
    839700   2463.9532      2137.1001      4345.0504     -137161.75    
    839800   2296.2685     -4690.4596      4366.7047     -137162.41    
    839900   2283.8377     -11138.96       4359.7118     -137159.12    
    840000   2622.6239      285.85195      4285.0886     -137160.12    
    840100   2590.9287      12790.832      4212.8593     -137160.28    
    840200   2545.5958      7912.6207      4203.0909     -137166.18    
    840300   2243.9005      997.72604      4237.234      -137161.44    
    840400   2517.1162     -646.25774      4276.5151     -137164.74    
    840500   2603.4537      11296.093      4319.5191     -137163.94    
    840600   2495.4215     -16736.945      4397.3466     -137161.09    
    840700   2437.2919     -1307.7848      4406.5113     -137158.59    
    840800   2598.9415     -5236.9884      4379.7234     -137160.25    
    840900   2845.6429     -4995.7483      4305.0183     -137162.54    
    841000   2561.4053      15022.664      4232.8566     -137161.21    
    841100   2364.4088      6749.2991      4232.8266     -137165.07    
    841200   2301.0868     -1267.7992      4256.5352     -137164.02    
    841300   2593.7689     -3497.6671      4271.8329     -137164.54    
    841400   2648.0415     -1195.4301      4295.6363     -137161.28    
    841500   2553.2003      2063.8089      4320.9642     -137161.68    
    841600   2263.8065     -2120.2401      4345.6731     -137159.16    
    841700   2271.1931      7479.1467      4338.1955     -137158.44    
    841800   2451.8167      3803.7919      4344.1094     -137160.21    
    841900   2478.128      -8261.8246      4370.725      -137160.59    
    842000   2294.7641      6888.2794      4346.3039     -137157.22    
    842100   2703.5571     -3705.7309      4304.0238     -137161.61    
    842200   2771.9308      3156.6         4256.2177     -137158.13    
    842300   2541.102       15999.026      4231.6869     -137159.31    
    842400   2525.3166      3058.996       4265.7021     -137164.08    
    842500   2344.3168     -7065.4534      4319.3296     -137160.57    
    842600   2350.7018      4401.6492      4342.9001     -137156.35    
    842700   2706.8693     -1364.8288      4370.7809     -137159.17    
    842800   2724.8233     -14961.948      4396.5678     -137164.66    
    842900   2478.5506     -7021.061       4366.1326     -137161.81    
    843000   2472.0052      2743.9689      4310.1393     -137161.85    
    843100   2489.2895      14039.094      4263.2491     -137163.07    
    843200   2428.4394      543.33888      4273.2159     -137165.58    
    843300   2299.5925     -3765.4332      4299.9906     -137167.4     
    843400   2394.4477      4522.0569      4318.1111     -137164.65    
    843500   2462.8813      962.44637      4360.0257     -137158.98    
    843600   2511.5638     -2162.2938      4397.6635     -137159.46    
    843700   2487.6693     -1827.4838      4412.4423     -137159.26    
    843800   2323.4544     -5974.5552      4398.0691     -137156.02    
    843900   2614.0532      1333.8774      4343.4797     -137161.1     
    844000   2655.3133      12099.04       4300.6517     -137162.02    
    844100   2309.4701      630.52316      4320.046      -137160.56    
    844200   2375.9092      181.79923      4339.2842     -137164.1     
    844300   2465.1066      3102.9061      4347.934      -137161.87    
    844400   2523.0183     -3132.5822      4371.0654     -137157.5     
    844500   2603.1635     -3660.5495      4367.3321     -137156.83    
    844600   2572.3214      2870.6094      4313.1777     -137157.82    
    844700   2531.1815      4298.9821      4262.3066     -137163.85    
    844800   2213.0069      14877.068      4256.1133     -137159.18    
    844900   2461.2712      4119.5732      4308.6847     -137161.24    
    845000   2656.1573     -4373.88        4382.3279     -137160.48    
    845100   2531.6905     -6986.8742      4456.3694     -137156.36    
    845200   2298.4929      4306.1123      4483.2066     -137150.47    
    845300   2416.3579     -3781.7023      4460.8271     -137157.94    
    845400   2101.5443     -2080.4984      4427.8788     -137155.65    
    845500   2557.7291      4273.9377      4356.892      -137162.78    
    845600   2623.4378      10673.762      4286.9557     -137161.5     
    845700   2401.0612      4652.8966      4284.7004     -137161.69    
    845800   2405.1238     -2241.7448      4289.4295     -137163.92    
    845900   2507.4914      6410.0123      4278.6989     -137163.84    
    846000   2521.3608      8474.6956      4310.0979     -137160.08    
    846100   2478.2943     -1560.3787      4383.0291     -137154.52    
    846200   2853.7207     -2531.0318      4441.1808     -137159.47    
    846300   2520.5837     -9887.5057      4460.5794     -137159.11    
    846400   2484.8198     -7700.3539      4411.0466     -137163.59    
    846500   2608.969       2966.5767      4324.2549     -137167.04    
    846600   2358.4487      6479.6561      4263.0686     -137160.9     
    846700   2565.5628      4146.4004      4243.3613     -137163.12    
    846800   2795.2714     -1129.1255      4260.8082     -137164.82    
    846900   2446.4612      7484.6691      4301.8814     -137162.11    
    847000   2251.482      -9114.0664      4368.5366     -137161.83    
    847100   2432.7269     -4665.952       4381.1865     -137163.29    
    847200   2456.4821     -5990.857       4358.0022     -137160.95    
    847300   2593.6354     -716.98456      4299.5855     -137163.53    
    847400   2562.0968      6837.8503      4238.0446     -137162.82    
    847500   2464.6876      5051.8727      4233.7405     -137161.68    
    847600   2314.5711      5081.1463      4280.5435     -137164.18    
    847700   2203.7425     -15169.74       4348.4687     -137166.7     
    847800   2358.7984     -3212.1858      4338.9735     -137163.76    
    847900   2705.5092      3314.6167      4306.8202     -137167.33    
    848000   2550.8126     -8084.5278      4308.2765     -137163.33    
    848100   2442.4617      9477.4364      4281.4289     -137162.69    
    848200   2529.4855     -1218.6067      4304.2702     -137164.22    
    848300   2531.604       3405.2094      4362.3575     -137159.33    
    848400   2440.5377      1069.1462      4434.6714     -137152.15    
    848500   2682.5659     -10453.858      4486.5679     -137156.59    
    848600   2400.6938     -3049.326       4466.1715     -137154.99    
    848700   2352.6268     -5538.1298      4380.8993     -137161.07    
    848800   2409.9523      1501.9849      4244.5422     -137162.39    
    848900   2627.68        21156.356      4136.7828     -137166.73    
    849000   2400.4713      682.15752      4160.2486     -137169.58    
    849100   2255.1871     -2170.8562      4213.0729     -137168.48    
    849200   2518.7966     -7468.3995      4237.6149     -137168.65    
    849300   2510.3435      9494.0675      4253.2818     -137163.18    
    849400   2486.3288     -4962.8128      4301.6283     -137161.97    
    849500   2567.4976     -3835.5348      4315.119      -137163.93    
    849600   2707.08       -158.86585      4314.7474     -137164.27    
    849700   2558.2077     -1257.2412      4336.5011     -137157.53    
    849800   2336.7845     -1053.0371      4374.9213     -137154.17    
    849900   2431.0678     -10223.955      4392.4584     -137161.95    
    850000   2320.3993     -8840.1387      4333.4646     -137161.91    
    850100   2612.314       10707.39       4240.5067     -137160.63    
    850200   2656.1636      6470.0891      4221.1811     -137158.84    
    850300   2621.7022      8347.63        4253.3234     -137163.89    
    850400   2541.7278     -1905.528       4325.458      -137165.88    
    850500   2440.8935     -12978.398      4413.0799     -137161.59    
    850600   2543.0387     -1101.6814      4451.469      -137158.32    
    850700   2561.0509     -7219.6384      4448.5697     -137156.78    
    850800   2645.3452      1081.7616      4391.6016     -137161.8     
    850900   2536.9762     -1868.3222      4322.2098     -137164.89    
    851000   2469.28       -2325.1309      4264.2576     -137167       
    851100   2523.9981      2788.8386      4214.4452     -137167.95    
    851200   2705.6905      13192.086      4203.9423     -137167.38    
    851300   2576.2586      11478.708      4291.2377     -137155.52    
    851400   2580.4158     -3382.2633      4409.642      -137156.85    
    851500   2354.1072     -11246.637      4465.4184     -137158.33    
    851600   2421.0021     -8995.0266      4417.1967     -137160.84    
    851700   2436.8102      6337.9254      4304.4969     -137159.84    
    851800   2535.9002      5995.9287      4219.0114     -137162.75    
    851900   2482.0431      5554.72        4189.9852     -137166.1     
    852000   2189.4212      9023.2852      4196.836      -137166.53    
    852100   2273.3619      2406.1989      4233.1366     -137166.68    
    852200   2328.8244     -507.53343      4270.9732     -137163.2     
    852300   2475.8485     -840.05005      4312.0327     -137162.86    
    852400   2554.5512     -5216.0311      4355.7145     -137160.52    
    852500   2455.9027      1827.0381      4372.1888     -137156.26    
    852600   2714.3139     -153.54782      4369.0824     -137160.67    
    852700   2678.7213     -189.96599      4357.6291     -137159.57    
    852800   2382.8948     -3291.6663      4361.1699     -137157.83    
    852900   2419.0578     -292.13038      4340.7775     -137162.09    
    853000   2282.2948      2306.8396      4314.3136     -137159.7     
    853100   2724.3215     -5601.1809      4310.9721     -137164.46    
    853200   2728.6005     -5222.6616      4318.4159     -137161.16    
    853300   2545.3641     -11913.24       4331.0767     -137163.72    
    853400   2435.3265     -8876.3417      4305.7928     -137163.31    
    853500   2525.2467      13370.457      4257.4214     -137164.57    
    853600   2424.1704      10197.38       4288.1825     -137161.96    
    853700   2409.8801     -3549.1762      4366.3192     -137157.97    
    853800   2772.6869     -1579.8432      4414.2147     -137159.39    
    853900   2542.8321     -9714.8276      4446.6443     -137155.53    
    854000   2524.0501     -127.7928       4429.1456     -137160.05    
    854100   2465.9104     -12354.742      4385.6696     -137163.52    
    854200   2277.1894      6307.8744      4292.8616     -137166.44    
    854300   2475.3432      4207.2183      4247.9553     -137168.91    
    854400   2491.1458      8749.806       4247.0821     -137160.68    
    854500   2465.2403     -1638.8853      4279.5391     -137159.61    
    854600   2540.6075     -6630.0221      4320.3037     -137161.44    
    854700   2424.9774      2029.9478      4342.9124     -137157.8     
    854800   2623.9394     -977.12479      4355.2866     -137157.41    
    854900   2703.6551      6283.621       4356.3395     -137158.59    
    855000   2517.3106     -9838.7367      4385.6978     -137162.38    
    855100   2239.0602     -6683.2078      4364.0138     -137157.67    
    855200   2532.7867      11145.87       4311.2872     -137162.2     
    855300   2465.6845      589.83058      4321.9283     -137159.44    
    855400   2526.3053     -5861.4398      4356.4064     -137160.98    
    855500   2481.0602     -1909.9269      4369.7209     -137161.24    
    855600   2424.2669     -1939.9351      4373.6602     -137158.53    
    855700   2569.3917     -6505.4816      4343.8948     -137160.98    
    855800   2518.7841      5855.4485      4281.4377     -137163       
    855900   2361.9029     -615.51561      4253.5005     -137166.05    
    856000   2471.7092     -5497.721       4234.898      -137167.78    
    856100   2566.9501      1688.4303      4194.6696     -137163.55    
    856200   2592.3699      17859.872      4176.8472     -137163.49    
    856300   2503.9532      8056.9825      4239.142      -137162.89    
    856400   2466.1598     -9074.102       4322.7902     -137163.21    
    856500   2565.0258     -3789.9729      4350.4661     -137163.97    
    856600   2630.2657      3823.7398      4355.2262     -137158.52    
    856700   2834.6807     -2600.4455      4398.9511     -137159.37    
    856800   2549.5097     -7102.8142      4447.5663     -137159.19    
    856900   2385.8594     -1236.6875      4453.3978     -137159.1     
    857000   2330.6421     -6064.7629      4437.6794     -137155.15    
    857100   2481.5477      10617.068      4388.8896     -137154.14    
    857200   2703.8892      2209.6437      4363.7765     -137160.66    
    857300   2429.5602     -6718.955       4353.6864     -137163.2     
    857400   2458.8009     -3859.8398      4309.5169     -137165.98    
    857500   2629.4198      9271.7296      4275.303      -137167.6     
    857600   2493.6026      1555.6964      4313.2321     -137161.88    
    857700   2510.9945     -5718.8613      4349.1082     -137163.37    
    857800   2335.4809     -1648.5658      4334.006      -137164.31    
    857900   2347.4154      1648.7669      4313.5711     -137163.2     
    858000   2633.3444     -887.60845      4302.7786     -137162.87    
    858100   2653.0955     -2665.5008      4280.5489     -137164.64    
    858200   2472.136       3151.2817      4264.1597     -137164.13    
    858300   2586.7969     -571.42994      4261.7949     -137169.82    
    858400   2341.8909      1335.0889      4281.9204     -137166.34    
    858500   2439.6991     -1360.5446      4310.7317     -137167.26    
    858600   2726.704      -6136.6384      4337.5612     -137165.96    
    858700   2499.9174      2296.6931      4358.3242     -137159.81    
    858800   2406.1086      324.93548      4400.4108     -137160.5     
    858900   2438.0722     -13495.301      4433.7597     -137161.85    
    859000   2508.2375     -6828.6634      4385.9301     -137158.95    
    859100   2630.0253      12048.421      4289.9549     -137155.56    
    859200   2481.855       10405.606      4258.7354     -137157.86    
    859300   2282.2357      3203.2095      4289.2045     -137156.96    
    859400   2565.4061     -4399.3621      4341.8841     -137162.6     
    859500   2692.9326     -9611.21        4385.8624     -137163.46    
    859600   2532.2445      5248.4153      4390.4603     -137161.8     
    859700   2297.1022     -9556.7684      4392.1714     -137163.13    
    859800   2271.93        5569.624       4319.5478     -137161.97    
    859900   2551.4255      4606.201       4249.609      -137161.11    
    860000   2742.3282      1833.0471      4226.372      -137167.22    
    860100   2561.9069      3555.3353      4243.855      -137167.83    
    860200   2345.3811     -7057.8708      4305.1266     -137163.92    
    860300   2538.5206     -9277.3624      4351.6939     -137161.16    
    860400   2691.9639     -1000.6854      4349.6187     -137162.99    
    860500   2542.4576     -2626.125       4357.1262     -137161.49    
    860600   2452.7012     -3239.5447      4368.6435     -137162.18    
    860700   2561.1253     -9533.9065      4384.9753     -137164.63    
    860800   2639.1325      7876.8818      4376.5407     -137157.29    
    860900   2658.6482     -4110.6143      4403.17       -137156.37    
    861000   2540.3782     -5940.267       4414.5801     -137159.39    
    861100   2582.9871     -8529.3065      4390.0349     -137164.88    
    861200   2573.1759      349.73901      4335.1686     -137164.41    
    861300   2658.562       4440.9463      4274.0022     -137166.44    
    861400   2491.96       -316.50322      4237.4604     -137166.79    
    861500   2346.2316      5212.8774      4229.1267     -137166.72    
    861600   2452.1539      9028.5854      4261.5154     -137164.39    
    861700   2587.7794      1344.6697      4358.8867     -137159.83    
    861800   2441.0264     -14528.867      4449.3182     -137156.57    
    861900   2305.3535     -1126.2324      4443.6527     -137155.32    
    862000   2551.5151      6787.668       4395.7691     -137157.72    
    862100   2708.5591      5416.4007      4359.8445     -137155.38    
    862200   2433.4208      7155.4485      4374.6493     -137155.6     
    862300   2524.8592      1770.676       4440.9516     -137162.74    
    862400   2468.6083     -12231.211      4518.1219     -137160.88    
    862500   2523.714      -3725.2664      4536.2362     -137158.04    
    862600   2560.2759      2489.727       4511.8266     -137152.41    
    862700   2902.6039     -9892.6817      4478.7761     -137155       
    862800   2606.1502     -337.12667      4441.008      -137155.56    
    862900   2602.5404      2636.0147      4409.4673     -137163.4     
    863000   2402.7221     -1835.5878      4388.1801     -137161.02    
    863100   2478.2777      98.790822      4369.6376     -137161.53    
    863200   2627.5807      5155.702       4352.7681     -137160.85    
    863300   2543.2282      1277.094       4356.7449     -137156.45    
    863400   2398.7254      7589.2302      4368.4001     -137160.64    
    863500   2228.2304     -8002.6661      4402.8581     -137159.71    
    863600   2419.9488     -7791.5496      4402.9468     -137158.78    
    863700   2528.1797     -1685.5103      4351.5248     -137158.21    
    863800   2577.0462      9638.1627      4304.4522     -137158.41    
    863900   2534.0778      810.63978      4324.9816     -137159.69    
    864000   2327.3299     -4097.6152      4347.2158     -137163.35    
    864100   2312.7697     -2208.8401      4349.5039     -137164.58    
    864200   2378.7888     -3527.7334      4359.6793     -137161.6     
    864300   2389.9719     -4943.2696      4363.8165     -137157.11    
    864400   2562.9059     -3197.4943      4333.015      -137158.13    
    864500   2678.3519      6876.279       4304.6066     -137160.46    
    864600   2396.272      -6121.0784      4316.0105     -137161.73    
    864700   2420.5763     -7119.2534      4312.2121     -137164.02    
    864800   2465.5204      4602.9048      4290.3564     -137162.84    
    864900   2705.9025      2184.6837      4292.5696     -137167.82    
    865000   2553.263      -5809.8694      4318.2304     -137165.95    
    865100   2224.3492     -7428.4324      4321.7476     -137165.85    
    865200   2268.8832     -147.63451      4265.5452     -137166.51    
    865300   2544.1205      5213.5255      4198.842      -137165.98    
    865400   2645.0833      7427.8621      4179.9319     -137167.34    
    865500   2523.8235      6543.2192      4216.0444     -137167.79    
    865600   2358.7965     -6619.2384      4280.307      -137166.65    
    865700   2279.6654     -404.54071      4310.4649     -137159.06    
    865800   2593.2842      5524.1262      4320.4757     -137158.63    
    865900   2579.6363     -3429.8441      4340.9635     -137159.48    
    866000   2343.0583      6245.594       4361.1426     -137158.68    
    866100   2247.5387      8990.1785      4383.0571     -137159.02    
    866200   2577.2338     -10480.084      4415.2524     -137160.78    
    866300   2761.8977     -4924.5427      4391.0495     -137160.31    
    866400   2666.6012     -1105.9855      4334.9008     -137161.7     
    866500   2424.9601     -1936.3536      4285.8031     -137160.73    
    866600   2482.5514      2935.5759      4236.5608     -137163.82    
    866700   2577.3748     -335.30599      4209.0405     -137166.47    
    866800   2476.1512      6671.5743      4201.9576     -137165.97    
    866900   2116.7326     -1705.5384      4232.5573     -137167.23    
    867000   2246.7993     -11089.115      4248.7147     -137168.11    
    867100   2471.3655      13710.296      4231.5687     -137165.78    
    867200   2697.5827     -7908.3283      4312.7778     -137168.63    
    867300   2497.6616     -5231.0269      4410.8651     -137160.45    
    867400   2459.7188     -10271.83       4453.9863     -137156.3     
    867500   2754.3927      1824.8633      4429.6807     -137159.42    
    867600   2498.9718      1872.4494      4395.0677     -137158       
    867700   2320.2175     -2152.7002      4368.2159     -137160.07    
    867800   2425.8917      3065.6716      4324.1498     -137164.04    
    867900   2419.5747      8178.2901      4304.5527     -137158.36    
    868000   2787.3006      6091.957       4326.7282     -137158.06    
    868100   2494.3215      6493.3726      4365.2403     -137155.89    
    868200   2489.3376     -988.18888      4409.9679     -137159.47    
    868300   2471.8084     -4306.8981      4432.4925     -137161.27    
    868400   2303.6617      1032.5935      4416.3728     -137156.69    
    868500   2700.8456      4246.0586      4378.1938     -137158.72    
    868600   2728.6372      11725.206      4369.4722     -137160.19    
    868700   2367.0965     -7062.1376      4427.1126     -137157.3     
    868800   2292.5552     -5525.1566      4445.2093     -137154.13    
    868900   2571.8763      894.37851      4400.2269     -137158.06    
    869000   2716.114      -2866.0623      4351.4537     -137161.47    
    869100   2485.249       4089.5544      4319.3122     -137161.85    
    869200   2270.5209      4351.5774      4312.2748     -137161.86    
    869300   2393.0713      5174.9325      4323.8826     -137163.11    
    869400   2458.8251      3681.1898      4383.1036     -137161.87    
    869500   2486.8973     -3146.4607      4462.3482     -137159.45    
    869600   2593.717      -20606.606      4500.6322     -137157.29    
    869700   2679.3081     -1973.5049      4410.6996     -137155.27    
    869800   2508.3623      9008.3347      4283.06       -137159.64    
    869900   2446.6266      14198.839      4226.1962     -137162.14    
    870000   2412.61        4336.4178      4249.93       -137162.91    
    870100   2369.5969      5273.0937      4285.5771     -137162.59    
    870200   2562.4222     -2129.0977      4320.8196     -137163.78    
    870300   2550.3136     -6733.3915      4364.7314     -137156.16    
    870400   2613.7537     -3210.9665      4387.7509     -137155.07    
    870500   2402.2541      1500.643       4362.9529     -137158.29    
    870600   2341.2551      2673.0401      4313.9938     -137161.62    
    870700   2564.3139      9451.8086      4278.7787     -137164.26    
    870800   2497.3664     -3154.0344      4293.9652     -137159.87    
    870900   2706.2573     -1031.5255      4311.2132     -137164.01    
    871000   2587.4229     -14321.938      4333.729      -137165.77    
    871100   2382.819      -1808.2174      4310.372      -137165.21    
    871200   2464.9117     -686.60793      4281.9095     -137163.72    
    871300   2696.0142      8956.38        4283.8574     -137162.31    
    871400   2708.2973      2810.5523      4354.1627     -137162.72    
    871500   2582.2997     -22190.793      4444.6142     -137162.08    
    871600   2336.1646      7314.5606      4457.1271     -137156.05    
    871700   2470.5987     -9211.0085      4461.7471     -137157.78    
    871800   2658.3306      5481.1574      4403.1008     -137161.14    
    871900   2556.5501     -2190.9696      4365.5621     -137163.01    
    872000   2441.3258     -3200.5317      4323.3538     -137165.82    
    872100   2233.7676      12910.106      4271.8809     -137161.59    
    872200   2563.8581      6463.1546      4279.6054     -137164.06    
    872300   2584.6667      3509.4396      4320.4271     -137159.19    
    872400   2362.9005      3820.4834      4377.2256     -137156.54    
    872500   2054.0082     -20434.217      4442.6958     -137158.57    
    872600   2402.275      -4479.1157      4387.7016     -137164.36    
    872700   2485.921       14223.856      4289.6768     -137161.4     
    872800   2536.3936      4057.4352      4274.4622     -137162.94    
    872900   2486.681      -661.08963      4293.6701     -137164.86    
    873000   2194.3344     -2371.8286      4312.5513     -137163.16    
    873100   2379.3458      5938.3109      4308.6408     -137167.94    
    873200   2542.0985     -8248.6361      4339.9318     -137162.02    
    873300   2695.3295      1382.9876      4356.235      -137163.8     
    873400   2455.6861     -5136.2375      4377.3611     -137161.02    
    873500   2236.1826     -8741.5983      4365.446      -137158.39    
    873600   2576.4248      9946.7194      4283.7368     -137160.42    
    873700   2652.3097      21147.066      4243.6313     -137158.38    
    873800   2525.1899     -5682.7176      4321.81       -137161.74    
    873900   2423.4095     -7329.8862      4411.5642     -137159.49    
    874000   2569.8529     -7573.6822      4443.4486     -137160.4     
    874100   2605.409      -3058.2967      4430.1607     -137159.18    
    874200   2614.2957     -7262.6229      4400.3431     -137157.6     
    874300   2580.313       1741.3613      4338.1138     -137160.44    
    874400   2502.8577     -3457.6991      4295.893      -137165.49    
    874500   2397.8194      3957.4312      4273.2503     -137166.17    
    874600   2557.1288     -1990.4608      4288.2868     -137169       
    874700   2679.201       31.780271      4321.7159     -137162.12    
    874800   2801.7555     -162.75581      4348.2278     -137164.49    
    874900   2561.5284     -3045.2104      4386.5185     -137163.81    
    875000   2377.7476     -6266.2011      4411.681      -137158.84    
    875100   2606.5601     -5752.462       4369.024      -137162.29    
    875200   2622.6446      938.67521      4286.0849     -137162.89    
    875300   2338.85        15900.75       4220.518      -137161.3     
    875400   2414.0603     -2447.5656      4222.8361     -137168.96    
    875500   2387.5155      4470.0185      4257.8135     -137166.07    
    875600   2588.8713      2844.6749      4314.5457     -137163.65    
    875700   2459.0928     -6003.786       4382.1856     -137158.35    
    875800   2605.7105     -7179.8579      4426.7757     -137161.21    
    875900   2530.7179     -4289.0085      4434.7308     -137162.09    
    876000   2361.4427     -10707.492      4423.0427     -137158.05    
    876100   2548.9898      2275.7399      4347.6823     -137161.98    
    876200   2539.9088      2927.1397      4259.7621     -137163.04    
    876300   2484.4876      9659.3234      4206.8114     -137166.02    
    876400   2182.7542      5858.9678      4203.4683     -137165.56    
    876500   2365.3354     -6603.2291      4220.3762     -137169       
    876600   2514.2371      9968.0371      4229.1779     -137161.94    
    876700   2626.0922     -285.44529      4283.8177     -137163.85    
    876800   2425.8017     -2287.4776      4365.1182     -137161.1     
    876900   2252.0482     -11096.852      4439.2145     -137157.78    
    877000   2599.3008     -12500.6        4450.9292     -137157.92    
    877100   2491.5808     -1177.972       4395.5784     -137153.07    
    877200   2682.8118      7255.4042      4316.3627     -137162.88    
    877300   2589.6714     -1883.6611      4281.0982     -137167.42    
    877400   2365.2323      4801.4827      4267.2586     -137163.48    
    877500   2595.1958      1122.4423      4292.2623     -137166.64    
    877600   2539.9179      1588.828       4349.844      -137163.61    
    877700   2366.9379     -7534.4532      4410.7269     -137163.08    
    877800   2279.596      -13176.212      4402.6419     -137165.95    
    877900   2580.8053     -4845.2957      4313.3589     -137166.11    
    878000   2552.9562      13764.047      4214.7244     -137161.54    
    878100   2408.4513      16264.413      4186.9933     -137160.9     
    878200   2448.8997     -425.6392       4271.8797     -137163.89    
    878300   2683.5737     -12858.823      4391.7777     -137163.32    
    878400   2750.4399     -17123.592      4472.4134     -137156.81    
    878500   2702.9177     -4841.8787      4472.0225     -137158.78    
    878600   2536.7968     -8268.4417      4451.0364     -137160.69    
    878700   2626.5762     -9209.5231      4375.8681     -137165.67    
    878800   2451.0956      12214.142      4258.4775     -137162.09    
    878900   2497.5927      3517.6962      4206.6899     -137165       
    879000   2434.5123      7183.9521      4190.0518     -137167.86    
    879100   2253.6586     -2006.7139      4209.3528     -137165.91    
    879200   2502.7427     -1279.4959      4234.2104     -137167.96    
    879300   2619.1303     -1343.0433      4262.9194     -137164.79    
    879400   2404.0401     -2569.8889      4301.8516     -137160.56    
    879500   2480.1315      5005.9914      4323.5279     -137162.75    
    879600   2491.6761      9343.7588      4357.9387     -137158.57    
    879700   2467.3479     -1881.2541      4448.8559     -137159.87    
    879800   2332.2932     -17099.913      4505.1228     -137158.45    
    879900   2610.4989      515.36706      4465.7569     -137159.92    
    880000   2668.9457     -2002.9938      4417.7257     -137157.12    
    880100   2451.1463     -9657.4796      4369.1565     -137155.96    
    880200   2366.3596      3408.3386      4264.3406     -137163.91    
    880300   2515.9947      15870.595      4154.0176     -137164.61    
    880400   2778.0247      15793.677      4139.4288     -137170.34    
    880500   2284.5102     -2121.9493      4233.6913     -137163.95    
    880600   2279.9951     -10345.574      4318.6686     -137167       
    880700   2496.1559      7530.1486      4359.0599     -137161.4     
    880800   2340.292      -5234.6184      4409.9988     -137151.91    
    880900   2620.0829     -1976.3989      4407.471      -137157.78    
    881000   2397.3571      3637.5059      4379.5043     -137154.91    
    881100   2508.1545      2142.8414      4339.3477     -137161.87    
    881200   2351.3141     -2199.5226      4307.0219     -137161.15    
    881300   2380.8203      2624.982       4275.6487     -137164.94    
    881400   2322.7508      7446.5165      4257.858      -137161.5     
    881500   2620.6283      6076.7884      4262.5062     -137161       
    881600   2661.2777      699.38984      4304.5735     -137162.43    
    881700   2515.9218     -12760.213      4358.8945     -137162.96    
    881800   2491.216       1216.3776      4358.0912     -137162.58    
    881900   2762.02       -2205.2071      4358.3921     -137160.67    
    882000   2740.2872      5536.1644      4379.8784     -137157.31    
    882100   2573.7507     -9479.7745      4413.6706     -137161.78    
    882200   2480.829      -7444.2946      4422.2273     -137162       
    882300   2521.8377     -6581.9455      4392.1102     -137162.26    
    882400   2613.4821      2488.3959      4298.1449     -137162.27    
    882500   2606.2967      19695.85       4216.2107     -137161.06    
    882600   2360.0338      4708.1774      4228.5653     -137163.31    
    882700   2329.7809      3202.1663      4260.5854     -137165.18    
    882800   2316.6828      1212.6093      4299.0916     -137159.89    
    882900   2384.4448     -69.410878      4333.8856     -137154.09    
    883000   2573.1158     -3499.1099      4356.5724     -137158.39    
    883100   2606.0982     -6734.6361      4350.2946     -137163.2     
    883200   2433.5176     -5932.953       4322.2699     -137164.19    
    883300   2339.766      -3669.9366      4253.6072     -137165.46    
    883400   2689.2107      14382.095      4168.4772     -137166.49    
    883500   2619.3988      14921.227      4169.4065     -137161.11    
    883600   2464.3124     -1427.4717      4246.0313     -137164.41    
    883700   2286.3966     -8158.7552      4333.6659     -137161.35    
    883800   2453.6561     -7028.7829      4366.0115     -137160.08    
    883900   2751.5182      5536.8682      4346.6361     -137164.26    
    884000   2530.1664     -2448.3537      4358.0336     -137162.2     
    884100   2397.7205     -11534.442      4376.1571     -137160.48    
    884200   2542.0075      1783.5691      4348.2115     -137162.32    
    884300   2749.8348      8580.5539      4322.2463     -137159.69    
    884400   2813.4327     -2328.7002      4351.8191     -137159.26    
    884500   2474.5543     -3599.3228      4390.5529     -137161.07    
    884600   2482.05        2126.1265      4406.6609     -137162.96    
    884700   2524.0904     -6768.9873      4421.4176     -137163.12    
    884800   2519.8308      4894.1955      4402.3995     -137161.26    
    884900   2708.0472     -172.6033       4405.9134     -137159       
    885000   2731.7927     -9846.2246      4401.5738     -137160.71    
    885100   2423.8569     -1839.0475      4352.1232     -137161.71    
    885200   2284.0121      9000.1136      4314.6291     -137157.58    
    885300   2579.8771      7522.1792      4323.017      -137162.22    
    885400   2523.219      -9884.0304      4367.9653     -137160.89    
    885500   2553.2292     -15227.574      4382.1377     -137165.27    
    885600   2385.5648     -57.45502       4320.4162     -137166.46    
    885700   2443.4413      3421.6534      4228.5444     -137168.76    
    885800   2636.2385      15857.083      4151.9265     -137168.22    
    885900   2548.6019      17211.145      4167.273      -137160.05    
    886000   2531.893      -3819.7687      4282.6776     -137160.82    
    886100   2502.3313     -11737.674      4421.6679     -137164.44    
    886200   2271.8075     -12076.368      4496.013      -137159.45    
    886300   2505.4841     -15814.792      4475.4309     -137157.79    
    886400   2646.6181      11105.549      4391.6352     -137157.17    
    886500   2444.7249      5005.993       4335.2503     -137155.13    
    886600   2414.2715      4894.6864      4281.8118     -137160.15    
    886700   2448.9321      3952.6854      4262.9756     -137163.22    
    886800   2541.6509     -1668.0576      4293.1052     -137164.34    
    886900   2556.6282     -4796.1426      4333.9592     -137163.92    
    887000   2454.6752     -1197.2114      4353.3544     -137159.73    
    887100   2642.219       10324.265      4376.7365     -137157.03    
    887200   2729.2321     -77.346426      4452.2094     -137154.95    
    887300   2409.3906     -9892.9795      4519.9386     -137156.41    
    887400   2358.5834     -15357.316      4526.1899     -137156.74    
    887500   2621.3365     -192.29933      4451.4655     -137160.22    
    887600   2587.1195     -5650.562       4374.1448     -137155.62    
    887700   2596.656       9813.5292      4295.0192     -137161.72    
    887800   2372.812       6114.0051      4276.8012     -137163.54    
    887900   2252.752       2190.6881      4290.4015     -137157.72    
    888000   2603.2607     -4040.0364      4301.9769     -137161.6     
    888100   2554.8066      10311.126      4308.8065     -137160.29    
    888200   2431.0814     -13660.047      4349.9097     -137163.62    
    888300   2267.6883      491.57231      4333.181      -137164.44    
    888400   2328.8684      2273.0715      4304.9226     -137159.92    
    888500   2665.277       1435.1052      4296.5027     -137165.28    
    888600   2458.3176     -669.36007      4300.9469     -137162.09    
    888700   2361.9697     -2535.9179      4301.3121     -137159.58    
    888800   2714.4397     -2963.8647      4268.7668     -137163.97    
    888900   2879.3794      7710.1356      4241.4781     -137164.34    
    889000   2422.2898      4834.2227      4275.0343     -137162.66    
    889100   2387.911       2705.1474      4346.6818     -137163.17    
    889200   2528.1849     -10400.196      4441.6324     -137161.27    
    889300   2558.954      -12365.117      4493.2514     -137156.35    
    889400   2612.8715     -15076.098      4475.0568     -137156.43    
    889500   2590.3232     -2340.2041      4378.5843     -137159.26    
    889600   2512.832       5731.5406      4270.3714     -137169.4     
    889700   2496.4058      6124.2583      4194.9415     -137171.88    
    889800   2421.444       8877.501       4184.589      -137167.63    
    889900   2511.5567      10377.42       4249.3252     -137162.42    
    890000   2668.9644     -2113.5963      4341.6411     -137164.13    
    890100   2329.3085      3689.4455      4418.4663     -137155.56    
    890200   2535.4792     -7057.31        4474.6785     -137156.63    
    890300   2844.7364     -102.51213      4464.4678     -137154.32    
    890400   2718.9525     -8077.2858      4437.101      -137154.65    
    890500   2497.8961      310.94051      4381.6922     -137154.3     
    890600   2589.6461     -514.4395       4323.8203     -137161.88    
    890700   2495.354      -898.8646       4271.5366     -137163.91    
    890800   2467.0054      4624.2643      4230.5127     -137163.19    
    890900   2670.1557      3912.0621      4224.6355     -137164.24    
    891000   2752.2903      5392.7234      4281.2908     -137158.62    
    891100   2684.6808     -15596.115      4367.2854     -137162.64    
    891200   2404.9415     -12260.597      4383.9354     -137160.94    
    891300   2377.7902     -5362.4236      4329.7995     -137159.27    
    891400   2547.486      -3031.9571      4248.993      -137161.79    
    891500   2659.9543      14566.728      4186.8931     -137163.36    
    891600   2576.7761      5062.8899      4218.1286     -137163.47    
    891700   2393.7994     -3140.7213      4290.5361     -137164.71    
    891800   2389.5836      791.93614      4338.5268     -137164.75    
    891900   2567.1383     -1954.6427      4371.1541     -137161.69    
    892000   2703.402       1413.2292      4390.9086     -137161.33    
    892100   2561.1787      596.02785      4423.6444     -137160.43    
    892200   2449.7279     -1469.9216      4442.0183     -137160.36    
    892300   2445.3595     -2093.2519      4413.2309     -137160.8     
    892400   2685.9066      4201.1677      4379.9726     -137156.99    
    892500   2701.1121     -6100.662       4382.1161     -137155.63    
    892600   2369.5335      852.39671      4368.2336     -137153.29    
    892700   2312.3564      12043.431      4347.0451     -137156.06    
    892800   2392.2786     -7160.6046      4349.8265     -137160.36    
    892900   2305.4911      10729.491      4313.6486     -137156.11    
    893000   2840.1154      11319.832      4312.116      -137159.79    
    893100   2575.8902     -3476.0978      4375.1364     -137156.8     
    893200   2499.4271     -4034.9161      4417.0413     -137161.17    
    893300   2389.6312     -2427.2089      4443.7955     -137158.52    
    893400   2662.7121     -13485.759      4450.7679     -137162.06    
    893500   2793.0291      4214.7897      4395.8652     -137160.79    
    893600   2541.1277      8061.0747      4354.2141     -137156.43    
    893700   2522.2806     -1934.2595      4345.8435     -137164.96    
    893800   2343.9496      2767.0011      4341.1981     -137163.92    
    893900   2359.2098     -12609.024      4324.1146     -137163.77    
    894000   2646.0501      19530.039      4246.4309     -137164.01    
    894100   2672.1719      11725.248      4256.336      -137161.18    
    894200   2456.9647     -14315.99       4350.5934     -137163.13    
    894300   2340.3978     -6448.3256      4395.3249     -137161.08    
    894400   2464.4276     -9011.7547      4394.1419     -137160.42    
    894500   2654.1722      1049.0088      4336.9612     -137161.67    
    894600   2720.6166     -132.47341      4301.0315     -137163.63    
    894700   2350.9623      3073.0216      4279.6821     -137162.55    
    894800   2418.2441      9131.021       4250.0637     -137166.82    
    894900   2399.4517      3749.238       4260.1995     -137162.08    
    895000   2440.0136      2467.6329      4295.5678     -137160.44    
    895100   2530.3281     -2758.4789      4342.1117     -137161.9     
    895200   2476.3755     -16.942484      4386.4245     -137159.76    
    895300   2463.6077     -8472.9474      4395.8421     -137158.2     
    895400   2473.7457      6986.3546      4339.9697     -137156.54    
    895500   2729.9274      4962.9833      4284.3523     -137164.34    
    895600   2399.6042      1899.0574      4272.7957     -137165.69    
    895700   2351.276      -6551.8645      4285.5404     -137165.31    
    895800   2547.5098      2949.6451      4275.9111     -137162.51    
    895900   2669.858      -719.40839      4277.1502     -137162.93    
    896000   2354.8349      5643.6041      4288.5284     -137157.95    
    896100   2339.2913     -6070.7739      4327.7472     -137161.29    
    896200   2427.4642     -14387.743      4344.7764     -137163.58    
    896300   2736.2707      11193.529      4317.8544     -137162.72    
    896400   2705.6324      4895.3988      4366.6483     -137163.5     
    896500   2377.6939     -17850.218      4456.6782     -137160.2     
    896600   2560.2872     -14560.776      4456.4243     -137161.91    
    896700   2583.2637      1897.0941      4374.8013     -137158.78    
    896800   2588.406       1443.9356      4303.9437     -137161.58    
    896900   2572.9522      11040.4        4250.9671     -137163.3     
    897000   2610.3461      4968.1923      4254.4857     -137167.86    
    897100   2280.394       2858.9864      4289.695      -137163.82    
    897200   2535.6426     -1189.5687      4318.0428     -137167.21    
    897300   2743.2532     -4041.3307      4360.035      -137161.69    
    897400   2553.7303      2322.332       4402.9836     -137157.74    
    897500   2338.984      -8410.5646      4450.2341     -137156.63    
    897600   2424.4806     -7955.8332      4451.2351     -137157.18    
    897700   2709.8649      2474.5099      4393.7108     -137157.66    
    897800   2585.9364      5333.4133      4347.304      -137158.81    
    897900   2305.1404     -223.13725      4330.5466     -137159.37    
    898000   2547.3627     -817.90645      4321.4428     -137162.89    
    898100   2574.6241      13975.076      4330.2845     -137160.06    
    898200   2493.7109     -5873.6026      4386.1106     -137160.66    
    898300   2260.51       -4297.7037      4410.4959     -137160.28    
    898400   2295.8568     -6415.6668      4359.0926     -137163.6     
    898500   2699.4987      1335.8382      4245.2247     -137167.88    
    898600   2736.8792      15353.268      4159.2434     -137164.41    
    898700   2440.7272      13511.321      4200.4595     -137163.6     
    898800   2232.3391     -6704.8803      4316.8941     -137163.08    
    898900   2486.0918     -16613.302      4389.3958     -137164.89    
    899000   2405.8272     -539.36034      4388.416      -137157.7     
    899100   2514.524       3999.2775      4348.2397     -137156.68    
    899200   2674.3185      6473.9587      4298.5906     -137162.05    
    899300   2315.9165      8146.2905      4274.1191     -137162.7     
    899400   2341.591       2163.7739      4290.984      -137163.48    
    899500   2509.2016      116.03893      4336.9002     -137162.55    
    899600   2683.0719     -13200.606      4407.3168     -137163.03    
    899700   2559.3437     -7647.3911      4450.4329     -137160.43    
    899800   2491.9867     -8600.1121      4446.0875     -137162.15    
    899900   2230.5952     -11229.654      4391.0569     -137164.25    
    900000   2375.7865     -7761.4984      4292.3679     -137164.79    
    900100   2628.0219      9264.8487      4182.7177     -137165.3     
    900200   2618.648       10314.221      4146.6935     -137165.58    
    900300   2374.2403      3073.0448      4191.4207     -137163.3     
    900400   2328.0463     -3071.0633      4251.0472     -137167.61    
    900500   2232.3394     -4510.3849      4286.3567     -137166.81    
    900600   2494.7036      4011.3819      4296.6266     -137165.34    
    900700   2581.2639     -2940.6226      4325.9568     -137162.82    
    900800   2539.9357      2960.1628      4351.5886     -137159.49    
    900900   2625.7418     -13023.865      4372.2118     -137162.74    
    901000   2444.1662     -6185.7594      4320.697      -137165.26    
    901100   2300.1104      14046.869      4236.7989     -137166.15    
    901200   2455.3072     -4564.7077      4227.6007     -137168.19    
    901300   2505.4862      2960.998       4240.7692     -137160.53    
    901400   2583.1885      8046.7178      4265.7321     -137157.66    
    901500   2592.5932     -1438.6235      4301.723      -137161.29    
    901600   2456.7422      1188.5528      4323.5804     -137160.18    
    901700   2491.0658      7536.6425      4350.4918     -137160.96    
    901800   2467.0234      9939.1326      4417.5027     -137157.37    
    901900   2478.9499     -6171.378       4521.123      -137148.48    
    902000   2602.7239     -12736.284      4533.1062     -137151.1     
    902100   2638.9802     -8099.2474      4456.9829     -137159.28    
    902200   2538.0476      3366.2012      4354.6002     -137164.56    
    902300   2635.2187      7472.8042      4297.7235     -137168.92    
    902400   2377.5662     -2469.951       4296.324      -137163.74    
    902500   2271.473       12458.832      4297.5429     -137157.95    
    902600   2780.1073      467.09501      4356.2538     -137162.89    
    902700   2595.5986     -9136.3384      4442.1934     -137159.15    
    902800   2423.4213     -15110.884      4466.5579     -137157.07    
    902900   2625.6279     -5732.9917      4405.0888     -137161.94    
    903000   2592.9382      7589.4665      4324.0294     -137160.55    
    903100   2551.1857     -2031.002       4288.4454     -137164.76    
    903200   2389.6348      7112.8153      4263.732      -137168.38    
    903300   2376.403       4198.5434      4250.9517     -137168.53    
    903400   2523.8648     -5372.6903      4276.9396     -137165.47    
    903500   2529.5681     -591.30618      4312.3817     -137159.51    
    903600   2537.6683     -446.06735      4343.1117     -137157.63    
    903700   2498.9307      1483.2641      4362.7149     -137159.29    
    903800   2393.1957     -13564.249      4371.8067     -137164.69    
    903900   2325.0881     -3991.0511      4312.8437     -137165.38    
    904000   2566.6707      5003.8756      4236.3796     -137165.57    
    904100   2534.7957      1574.1323      4209.2314     -137163.39    
    904200   2476.5926      13557.809      4230.6378     -137163.13    
    904300   2317.3703      3913.1009      4330.949      -137162.86    
    904400   2193.8224     -21235.128      4427.4053     -137160.21    
    904500   2584.9059     -4932.3989      4387.2174     -137161.28    
    904600   2525.2819      11907.657      4310.8384     -137155.67    
    904700   2654.2843      4061.4085      4295.8497     -137160.41    
    904800   2374.6591     -466.46728      4337.4081     -137161       
    904900   2368.4333     -8289.3602      4394.7681     -137161.4     
    905000   2494.0905     -4734.8234      4398.7238     -137160.94    
    905100   2474.3052      2441.1849      4372.6952     -137159.19    
    905200   2608.8685     -5387.805       4357.8565     -137162.9     
    905300   2354.9845     -1117.7056      4310.9241     -137162.02    
    905400   2303.3152     -2231.8044      4235.9724     -137168.27    
    905500   2246.1989      13031.53       4142.529      -137164.67    
    905600   2478.7264      20205.409      4114.6508     -137166.32    
    905700   2417.7814      1314.5031      4201.8985     -137164.24    
    905800   2458.3098      569.79786      4308.5284     -137163.27    
    905900   2552.529      -10.057496      4396.0088     -137160.5     
    906000   2628.9273     -8242.1072      4449.0355     -137158.47    
    906100   2651.4555     -3894.8217      4447.8308     -137154.89    
    906200   2637.3858      2802.7519      4416.5292     -137157.23    
    906300   2425.1991     -12164.803      4395.1821     -137158.75    
    906400   2493.0468     -3892.262       4329.739      -137163.57    
    906500   2426.9733      9424.3298      4264.9621     -137162.17    
    906600   2530.8716      11464.707      4259.9267     -137166.08    
    906700   2311.46       -8373.4797      4312.9311     -137164.89    
    906800   2297.7766     -4857.336       4318.1215     -137163.68    
    906900   2619.1796     -3062.5382      4273.5275     -137162.79    
    907000   2671.4208      8506.1363      4243.2254     -137163.2     
    907100   2371.2763      3945.7572      4280.6437     -137160.75    
    907200   2395.3275     -688.94808      4342.4497     -137162.95    
    907300   2615.4828     -9329.3484      4396.7539     -137160.84    
    907400   2780.0812     -9546.6749      4397.3513     -137161.18    
    907500   2664.0128      4236.9729      4370.2798     -137162.06    
    907600   2404.1038     -7786.8232      4371.4208     -137158.79    
    907700   2535.2218      5288.7023      4338.7757     -137162.7     
    907800   2646.7418      1502.1182      4342.6326     -137163.87    
    907900   2611.6272     -1627.3629      4385.3859     -137161.67    
    908000   2469.1926     -10963.797      4417.0531     -137160.9     
    908100   2424.7324      3536.9755      4382.4905     -137159.08    
    908200   2614.0428      4235.2029      4346.1825     -137157.88    
    908300   2821.7495      7789.2076      4359.9479     -137159.41    
    908400   2524.3035     -13200.478      4409.929      -137161.99    
    908500   2344.7863     -2018.1461      4407.4224     -137159.35    
    908600   2496.3195     -4885.1276      4376.4295     -137161.1     
    908700   2588.4938      10345.564      4321.1289     -137159.77    
    908800   2355.2842      11292.61       4313.2711     -137155.67    
    908900   2237.9422     -7653.6633      4350.2028     -137159.84    
    909000   2412.1175     -12735.418      4323.3609     -137163.47    
    909100   2870.7904      9214.414       4231.6967     -137166.96    
    909200   2669.1973      2590.6783      4202.6472     -137163.1     
    909300   2645.5645      7386.5243      4219.7791     -137168.13    
    909400   2336.9614     -3289.773       4268.196      -137164.55    
    909500   2269.9035      545.5713       4307.3834     -137159.97    
    909600   2650.8725     -2734.0903      4358.6613     -137162.73    
    909700   2349.2967     -3321.3828      4415.2044     -137152.94    
    909800   2598.4658     -1807.2156      4430.7207     -137157.8     
    909900   2738.4592     -3998.6369      4420.9447     -137164.11    
    910000   2203.0774     -8977.945       4394.622      -137159.34    
    910100   2524.9667      3343.7104      4314.7975     -137165.68    
    910200   2554.0247      3822.0392      4249.9746     -137162.17    
    910300   2750.6197      5495.9558      4255.5978     -137164.62    
    910400   2282.599       4127.367       4323.3063     -137158.79    
    910500   2230.7091     -15007.212      4384.9107     -137160.69    
    910600   2457.0229      5004.0857      4352.8454     -137159.22    
    910700   2717.917       3348.9993      4321.9633     -137163.96    
    910800   2384.0584      4927.9892      4351.3882     -137158.01    
    910900   2462.1554      1409.6254      4406.5954     -137163.68    
    911000   2299.0503     -14242.437      4446.3987     -137163.42    
    911100   2472.9298     -10345.386      4419.4098     -137160.77    
    911200   2798.9235      1262.0561      4334.5437     -137163.51    
    911300   2375.5362      12741.94       4265.3159     -137155.09    
    911400   2341.6294      7713.1547      4249.7559     -137159.54    
    911500   2482.5235      11453.7        4272.3064     -137163.95    
    911600   2469.9348     -988.93124      4353.847      -137160.29    
    911700   2709.0458     -7804.0119      4436.4238     -137159.93    
    911800   2478.3809     -7423.282       4450.2596     -137157.6     
    911900   2410.8298     -10338.32       4427.7353     -137160.67    
    912000   2520.4697      3982.5446      4385.6399     -137162.81    
    912100   2833.8712      162.45947      4364.3891     -137159.6     
    912200   2664.6703      4119.7223      4367.9199     -137157.95    
    912300   2268.7185     -1214.3947      4393.8756     -137153.2     
    912400   2435.0582     -1397.1788      4408.5046     -137155.32    
    912500   2614.8775     -771.08765      4407.7201     -137157.28    
    912600   2251.7043      11791.33       4389.9135     -137155.53    
    912700   2289.8854     -5384.0923      4379.6425     -137160.74    
    912800   2605.1863      615.74159      4339.3762     -137164.91    
    912900   2570.732       4421.0461      4310.3439     -137161.18    
    913000   2459.1736      4383.9857      4321.1205     -137159.55    
    913100   2305.2383     -4533.6793      4335.516      -137163.99    
    913200   2314.0373     -4331.3969      4294.5123     -137163.33    
    913300   2787.6534      574.53365      4207.4291     -137168.32    
    913400   2540.4577      18805.763      4156.8025     -137162.2     
    913500   2435.1885      3255.2688      4216.2029     -137163.41    
    913600   2340.472      -7912.7827      4308.9457     -137162.51    
    913700   2514.1366      1387.905       4360.1581     -137160.13    
    913800   2582.3023     -4944.8558      4410.3637     -137154.63    
    913900   2625.3787     -10107.292      4449.7494     -137158.17    
    914000   2495.1155     -3002.0231      4419.1724     -137162.44    
    914100   2345.5659      1776.0964      4336.0685     -137159.66    
    914200   2549.1328      12900.635      4247.2969     -137165.24    
    914300   2336.243       11573.46       4232.2386     -137162.69    
    914400   2386.833      -2580.7626      4278.8606     -137163.68    
    914500   2429.5932     -7400.8422      4326.4642     -137162.27    
    914600   2553.9529      6683.4127      4339.0085     -137164.32    
    914700   2516.9001     -4433.9319      4369.6362     -137162.93    
    914800   2475.0635     -143.92326      4401.3544     -137157.81    
    914900   2760.2205     -2318.2979      4419.9122     -137157.61    
    915000   2487.7831     -3257.7268      4395.1953     -137155.49    
    915100   2458.5923      3783.996       4335.4215     -137161.09    
    915200   2483.6049      4584.8274      4295.78       -137162.91    
    915300   2361.0335      4171.2695      4278.0679     -137160.53    
    915400   2626.0067      2214.1715      4267.0898     -137165.16    
    915500   2656.279       1030.3508      4256.6118     -137163.47    
    915600   2357.3857      4970.1347      4262.1685     -137162.21    
    915700   2185.3253      1151.4095      4283.6329     -137160.79    
    915800   2426.8981      5753.8839      4298.3024     -137160.34    
    915900   2435.8781      3895.5643      4311.2962     -137156.56    
    916000   2619.1631     -3068.0422      4316.0316     -137162.39    
    916100   2455.5055     -1253.9638      4315.3241     -137162.45    
    916200   2427.8299     -1409.9067      4309.3195     -137167.6     
    916300   2243.7497     -5025.4587      4311.294      -137165.87    
    916400   2507.7381     -6328.5157      4285.1708     -137165.02    
    916500   2655.0153      14726.422      4245.0735     -137164.43    
    916600   2463.624       3159.5451      4271.1386     -137164.47    
    916700   2329.616      -475.52128      4305.6313     -137163.97    
    916800   2527.4272      989.5582       4324.2741     -137165.61    
    916900   2611.5572     -7652.944       4348.8301     -137158.54    
    917000   2348.7869     -5583.9417      4344.3537     -137151.2     
    917100   2520.0153      6895.6517      4305.851      -137156.8     
    917200   2642.6118     -2537.0379      4288.1927     -137164.37    
    917300   2326.5539     -2496.5123      4281.9744     -137165.11    
    917400   2269.4073     -1620.1211      4292.5383     -137163.34    
    917500   2625.9414     -3855.3474      4303.3159     -137168.39    
    917600   2688.5645     -1636.8041      4313.3176     -137166.27    
    917700   2572.5823      5662.0598      4330.5678     -137165.53    
    917800   2231.4877     -1527.2036      4361.6793     -137162.8     
    917900   2392.0404     -8895.0858      4352.5723     -137165.68    
    918000   2640.8144      404.24162      4300.904      -137161.12    
    918100   2781.3758      177.2366       4252.6457     -137165.82    
    918200   2393.6841      11324.526      4227.668      -137161.91    
    918300   2383.509      -3827.7517      4268.6261     -137164.35    
    918400   2512.9923     -1698.4357      4326.3786     -137163.92    
    918500   2641.9392      38.05133       4389.8971     -137158.43    
    918600   2717.1123     -6615.6233      4451.1282     -137159.19    
    918700   2522.7698     -18016.866      4497.6785     -137156       
    918800   2714.4377     -13681.137      4448.6781     -137161.82    
    918900   2533.7517     -1767.7033      4315.8874     -137161.82    
    919000   2385.2701      10531.65       4175.3855     -137167       
    919100   2357.8884      20806.336      4082.193      -137168.19    
    919200   2537.3096      4207.5586      4114.1076     -137170.37    
    919300   2518.2655      5707.391       4206.7947     -137166.57    
    919400   2510.1723      6115.2408      4326.6005     -137158.73    
    919500   2584.9611     -5053.4985      4448.9976     -137152.6     
    919600   2559.7374     -12796.565      4496.5352     -137153.37    
    919700   2510.6323     -12302.932      4441.336      -137156.25    
    919800   2408.4372     -3460.2511      4341.8475     -137158.94    
    919900   2492.1595      5924.0858      4258.6797     -137165.31    
    920000   2439.4891      5976.5459      4230.999      -137164.82    
    920100   2541.6778     -671.94005      4253.675      -137165.71    
    920200   2458.0313      810.82476      4297.492      -137161.6     
    920300   2529.0794     -962.42375      4326.407      -137162.39    
    920400   2612.6355     -404.15359      4363.5245     -137162.6     
    920500   2633.1565     -19310.54       4405.2557     -137161.15    
    920600   2522.8951      3108.3257      4345.8516     -137158.34    
    920700   2284.5606      8917.5565      4277.7779     -137157.1     
    920800   2329.9583      1317.5363      4258.2227     -137162.15    
    920900   2198.1788      9822.529       4242.5306     -137159.46    
    921000   2697.0722      2158.276       4238.5037     -137164.35    
    921100   2620.4719      7544.3736      4271.3431     -137161.15    
    921200   2313.8204      4685.5052      4370.5674     -137160.23    
    921300   2190.746      -19176.043      4478.4698     -137157.68    
    921400   2410.5325     -1791.7327      4465.3617     -137158.49    
    921500   2501.0221     -195.81873      4405.2883     -137157.9     
    921600   2593.7259     -155.88602      4358.7165     -137155.24    
    921700   2621.584       7803.9815      4310.0727     -137158.57    
    921800   2571.669      -10181.864      4292.1539     -137165.7     
    921900   2604.1654      9386.1639      4268.0925     -137167.86    
    922000   2438.0619     -4631.7274      4286.3052     -137163.52    
    922100   2589.6718      7356.1604      4298.2715     -137162.21    
    922200   2592.0202      11516.816      4354.6767     -137154.08    
    922300   2541.1201     -12159.497      4440.9275     -137153.01    
    922400   2197.3805      1152.5134      4456.7992     -137152.58    
    922500   2333.7492     -11061.865      4443.4574     -137159.92    
    922600   2454.0079      4666.9618      4400.4867     -137159.33    
    922700   2614.7308     -4266.2418      4388.1878     -137160.05    
    922800   2461.4969     -203.91045      4384.2378     -137156.39    
    922900   2361.1729      4448.0629      4349.5952     -137159.64    
    923000   2220.6519     -2342.4596      4308.2994     -137160.21    
    923100   2691.2846      4862.7886      4246.9897     -137167.35    
    923200   2684.1179      11212.234      4240.9563     -137162.05    
    923300   2492.7711     -2592.6131      4298.6987     -137162.29    
    923400   2316.8489     -761.39983      4331.8106     -137161.83    
    923500   2621.9149     -1005.4082      4339.999      -137167.96    
    923600   2498.008      -4622.9074      4351.8653     -137162.74    
    923700   2404.4938     -2791.371       4350.1139     -137159.4     
    923800   2665.1162      2355.5389      4326.1845     -137162.18    
    923900   2612.1532      552.15594      4326.3933     -137157.09    
    924000   2574.1223      2894.681       4338.8278     -137161.83    
    924100   2343.9708      5513.2877      4366.8232     -137162.03    
    924200   2430.8281     -10122.44       4411.8658     -137161.97    
    924300   2401.1086      1159.3093      4395.259      -137154.1     
    924400   2583.8745     -7703.9088      4356.2761     -137156.81    
    924500   2574.939       6187.126       4293.8419     -137160.99    
    924600   2619.3807      7170.3906      4265.0252     -137165.58    
    924700   2401.3188     -4833.6273      4279.045      -137161.94    
    924800   2505.1856      2751.9008      4289.4476     -137161.4     
    924900   2708.1315      3242.2949      4317.5588     -137156.27    
    925000   2571.3392      8419.451       4372.7512     -137152.14    
    925100   2417.1421     -7190.7866      4409.2792     -137155.09    
    925200   2561.5248      1974.0886      4379.566      -137161.61    
    925300   2514.7358     -4684.391       4347.2547     -137164.03    
    925400   2286.4294      4028.5206      4293.1521     -137161.51    
    925500   2430.1585      10216.247      4263.2779     -137164.02    
    925600   2661.7379      3507.0965      4277.0886     -137163.03    
    925700   2837.6116     -8026.9254      4333.153      -137165.64    
    925800   2294.4896     -9540.1848      4368.7346     -137158.91    
    925900   2290.5236     -4701.6052      4334.1585     -137159.47    
    926000   2565.0479      5543.918       4260.6845     -137163.71    
    926100   2472.6059      11174.823      4225.7136     -137160.83    
    926200   2413.623       6178.9326      4246.7541     -137159.04    
    926300   2489.7367     -3178.3788      4297.6881     -137162.29    
    926400   2319.6859     -6667.4409      4353.6926     -137163.5     
    926500   2306.9607      75.359789      4382.8377     -137161.76    
    926600   2750.9008     -7212.6756      4389.893      -137164.93    
    926700   2580.2549      1208.7252      4381.6798     -137159.48    
    926800   2412.4099     -6297.2034      4366.9987     -137158.48    
    926900   2517.894      -2302.1789      4300.5703     -137163.95    
    927000   2414.134       7861.308       4219.6048     -137167.82    
    927100   2330.1257      4241.0944      4179.8561     -137170.58    
    927200   2460.9887      3909.3772      4172.4878     -137169.22    
    927300   2535.6072      11542.483      4206.897      -137165.06    
    927400   2540.5922     -8742.3247      4300.9776     -137164.18    
    927500   2480.3042     -4464.7965      4367.9976     -137162.89    
    927600   2469.7124     -7283.2941      4403.7518     -137161.97    
    927700   2482.7129     -730.48447      4400.2457     -137157.49    
    927800   2733.6034      1669.1814      4376.9017     -137158.87    
    927900   2657.144      -7984.995       4347.716      -137164.55    
    928000   2323.303       4643.6699      4289.0683     -137160.38    
    928100   2545.9659      13229.948      4233.4637     -137167.32    
    928200   2357.6915      665.43801      4267.4578     -137165.3     
    928300   2427.8702     -3033.1536      4344.2107     -137162.36    
    928400   2664.4393     -4831.8526      4391.6766     -137160.22    
    928500   2525.5335     -4739.0056      4400.5783     -137158.36    
    928600   2544.5083      4176.7685      4387.6696     -137162.7     
    928700   2409.8966     -14377.435      4362.2548     -137166.86    
    928800   2429.8338      1131.8522      4254.1965     -137167.49    
    928900   2868.7838      26624.027      4162.9305     -137165.98    
    929000   2651.5294      4944.7586      4223.116      -137165.16    
    929100   2331.8227     -9546.1782      4342.1459     -137162.62    
    929200   2274.5432     -13466.699      4412.7583     -137157.01    
    929300   2442.4516      4393.577       4407.7945     -137154.16    
    929400   2744.5525     -1926.5119      4385.7927     -137161.91    
    929500   2476.2386      3018.7621      4362.0725     -137158.16    
    929600   2437.1523     -2350.9506      4352.2301     -137163.6     
    929700   2369.7957     -6341.0835      4334.748      -137167.73    
    929800   2361.2348      6960.8548      4307.8233     -137160.91    
    929900   2626.1967      4575.6447      4294.0868     -137160.86    
    930000   2528.5285     -557.50455      4298.0716     -137160.08    
    930100   2518.2392      3859.0268      4303.5374     -137163.7     
    930200   2299.8613     -2612.2041      4314.3975     -137162.44    
    930300   2489.034      -1893.8823      4318.6766     -137163.9     
    930400   2600.1026      4114.4516      4331.4354     -137157.85    
    930500   2559.8378     -997.08847      4358.44       -137159.26    
    930600   2427.992      -7141.5211      4357.8712     -137160.53    
    930700   2570.3784     -4600.1115      4314.7422     -137164.22    
    930800   2449.8682      6448.3309      4242.1498     -137161.28    
    930900   2637.7395      419.69204      4209.3303     -137168.58    
    931000   2203.9903     -3002.6039      4212.0695     -137166.6     
    931100   2375.4059      4933.7376      4197.4558     -137167.41    
    931200   2557.2709      9305.7847      4214.6371     -137164.72    
    931300   2474.5186      1053.0031      4284.8841     -137162.85    
    931400   2351.6174     -2384.1856      4374.0849     -137159.57    
    931500   2417.7184      3043.55        4439.2929     -137154.86    
    931600   2716.9646     -9355.4017      4482.6235     -137156.34    
    931700   2548.0112     -5319.6323      4484.1038     -137154.3     
    931800   2506.0367     -12485.732      4424.7629     -137161.14    
    931900   2347.9576      8755.2677      4310.5504     -137162.84    
    932000   2203.1126     -2643.7263      4253.654      -137168.79    
    932100   2181.3083      3583.528       4230.6262     -137168.94    
    932200   2361.9167      2784.3102      4248.3601     -137165.72    
    932300   2465.2721     -3000.5218      4295.4968     -137162.82    
    932400   2434.693       6323.0277      4333.7559     -137156.03    
    932500   2649.0737      597.34276      4380.227      -137159.82    
    932600   2347.9232     -6392.1301      4437.7994     -137157.1     
    932700   2303.7641     -8896.8283      4462.602      -137162.73    
    932800   2155.2885     -5484.9545      4422.2776     -137162.02    
    932900   2434.0519     -4320.0806      4336.5122     -137158.51    
    933000   2668.3798      8255.7918      4246.2945     -137160.15    
    933100   2572.7787      14991.039      4238.1716     -137161.82    
    933200   2484.1934     -3824.0135      4334.7722     -137166.03    
    933300   2417.1287     -20705.07       4437.7711     -137163.12    
    933400   2603.4865     -6261.7379      4435.7322     -137159       
    933500   2516.2374      8756.6484      4386.7336     -137156.14    
    933600   2525.6252      8422.0369      4379.4117     -137159.53    
    933700   2360.2875     -7078.5737      4413.0065     -137159.31    
    933800   2555.1227     -10804.013      4404.0873     -137162.69    
    933900   2811.099       13161.136      4365.3366     -137158.7     
    934000   2509.9227     -4152.8805      4383.7516     -137153.94    
    934100   2391.8923     -1418.1282      4376.0189     -137154.97    
    934200   2510.0805     -1329.0066      4344.5859     -137160.99    
    934300   2399.4033      3096.0353      4305.2334     -137165.8     
    934400   2064.7282      7801.1571      4283.6852     -137161.01    
    934500   2496.4167     -2347.29        4278.4315     -137167.61    
    934600   2363.7523      5449.784       4279.1277     -137161.37    
    934700   2566.8509      474.94176      4294.595      -137164.85    
    934800   2385.0778      3532.0934      4317.5667     -137160.64    
    934900   2330.1329     -714.40276      4344.4867     -137159.61    
    935000   2745.8734      1405.2781      4368.7774     -137167.43    
    935100   2409.3369     -9377.2236      4433.2337     -137152.97    
    935200   2621.4308      11852.89       4452.9957     -137154.49    
    935300   2440.7623     -2426.7324      4490.8145     -137155.15    
    935400   2328.5457     -7501.7689      4498.4957     -137159.3     
    935500   2450.1064     -10822.419      4463.983      -137161.38    
    935600   2563.285       3305.8685      4382.5491     -137161.05    
    935700   2633.5633      12379.924      4328.859      -137160.3     
    935800   2430.6361     -3845.593       4347.2614     -137160.31    
    935900   2321.042      -14158.334      4360.685      -137163.2     
    936000   2451.174      -2197.4136      4304.4418     -137163.41    
    936100   2598.9761      3350.5981      4230.568      -137161.04    
    936200   2544.9939      12553.115      4206.661      -137161.06    
    936300   2458.1202     -3963.987       4263.2715     -137164.9     
    936400   2248.0003      319.92065      4303.1794     -137158.95    
    936500   2512.2806     -3935.4248      4311.0035     -137163.97    
    936600   2469.7523     -4070.0589      4296.3929     -137163.64    
    936700   2440.0031      313.88005      4272.0619     -137164.82    
    936800   2356.3983      10581.871      4261.7713     -137163.5     
    936900   2377.5751      8446.3384      4300.9542     -137160.08    
    937000   2707.2575     -5955.5405      4361.1046     -137162.54    
    937100   2489.7738      1594.2403      4410.0844     -137158.37    
    937200   2363.9376     -20765.662      4429.5011     -137162.35    
    937300   2513.7364     -5299.5399      4350.3391     -137166.64    
    937400   2946.8494     -3125.6253      4273.2065     -137165.96    
    937500   2672.2331      18666.747      4231.8848     -137160       
    937600   2312.2092      8386.5794      4270.6169     -137159.17    
    937700   2363.4498     -7478.6168      4334.2228     -137162.6     
    937800   2501.265      -6453.3073      4374.0356     -137160.1     
    937900   2661.04       -2891.4851      4360.8435     -137160.91    
    938000   2491.5012      291.99854      4322.2447     -137157.19    
    938100   2451.0166      8854.1856      4300.0174     -137157.41    
    938200   2433.0703      1717.3665      4313.6422     -137159.01    
    938300   2291.9945     -1538.0049      4331.4526     -137161.14    
    938400   2219.0156     -1337.4212      4322.8195     -137168.5     
    938500   2487.4603     -3679.5985      4292.8345     -137169.58    
    938600   2516.4099      7142.1956      4259.2122     -137163.61    
    938700   2561.041      -6696.9531      4260.9315     -137162.15    
    938800   2714.9373     -2865.8461      4259.3106     -137165.65    
    938900   2434.5276      3473.6535      4279.7725     -137162.17    
    939000   2327.462       3982.5043      4341.0984     -137164.92    
    939100   2401.8836     -6112.4138      4427.8889     -137165.71    
    939200   2525.7966     -9347.9874      4481.9482     -137158.49    
    939300   2508.5027      5.2561301      4448.6526     -137155.91    
    939400   2639.3102     -1117.6082      4380.9886     -137160.03    
    939500   2396.8942      2840.3626      4310.5274     -137159.83    
    939600   2382.7407      1758.0609      4274.8144     -137162.18    
    939700   2747.8248      4421.2514      4279.8958     -137164.73    
    939800   2759.7603      803.144        4328.3411     -137159.82    
    939900   2437.8178     -5562.7749      4403.0429     -137154.1     
    940000   2250.2222     -15758.931      4441.9567     -137159.38    
    940100   2321.8524     -5601.7386      4381.7742     -137165.8     
    940200   2413.9808      8286.291       4253.7758     -137162.42    
    940300   2494.6602      27210.844      4184.0501     -137159.12    
    940400   2559.6553     -2013.2734      4241.2683     -137161.88    
    940500   2334.7896     -5371.4601      4304.817      -137162.96    
    940600   2279.6007     -10002.166      4328.0154     -137162.09    
    940700   2569.6293      13845.502      4307.4639     -137157.87    
    940800   2530.6202      10387.869      4363.5513     -137158.91    
    940900   2312.6643     -17327.684      4481.1645     -137157.41    
    941000   2381.1228     -15025.382      4470.1046     -137160.05    
    941100   2657.6464     -3431.9744      4336.3083     -137163.14    
    941200   2717.5442      10404.328      4206.3544     -137158.86    
    941300   2560.8364      9589.4706      4175.9509     -137161.18    
    941400   2395.2697      4321.664       4209.096      -137163.96    
    941500   2466.0206      5303.1161      4278.3036     -137164.94    
    941600   2578.7267     -10060.128      4382.8359     -137162.46    
    941700   2557.9948     -5659.8233      4428.8407     -137157.32    
    941800   2685.5956      2996.165       4434.556      -137154.39    
    941900   2957.1715     -4345.8451      4446.3061     -137157.01    
    942000   2609.9206     -11350.524      4448.0149     -137157.93    
    942100   2396.1531     -4582.4863      4375.1768     -137157.62    
    942200   2556.4167      7726.8983      4277.3623     -137162.5     
    942300   2439.2281      6741.5659      4222.8263     -137163.11    
    942400   2316.9743      1551.144       4209.6879     -137166.86    
    942500   2387.304       3507.5902      4215.2251     -137170.34    
    942600   2627.8321      2719.8607      4254.226      -137165.84    
    942700   2450.5028      2690.7203      4324.3889     -137158.12    
    942800   2605.5837     -2844.304       4383.7722     -137162.06    
    942900   2447.6701     -1138.0711      4413.4067     -137157.95    
    943000   2449.1076     -3184.2155      4410.0932     -137159.44    
    943100   2582.1913     -8885.8258      4386.603      -137161.58    
    943200   2684.0227      4371.0504      4344.1031     -137159.22    
    943300   2491.9575      7807.1818      4324.3614     -137160.17    
    943400   2403.9238      1768.3037      4341.076      -137164.15    
    943500   2348.0245      3786.0741      4376.1525     -137162.02    
    943600   2472.7647     -1257.7197      4409.5187     -137160.64    
    943700   2569.6091     -3204.4783      4418.1184     -137159.4     
    943800   2419.2228      5037.5347      4405.2723     -137158.7     
    943900   2169.062      -3145.7041      4399.7027     -137162.53    
    944000   2339.3839     -9399.5609      4369.4952     -137163.05    
    944100   2524.7882      1081.6314      4287.5604     -137161.64    
    944200   2631.3617      3900.2625      4224.1933     -137162.69    
    944300   2506.6         6208.606       4223.3347     -137164.86    
    944400   2310.6569      2509.7259      4271.2199     -137165.13    
    944500   2408.5368     -6299.0005      4344.8961     -137164.4     
    944600   2403.4741     -13033.947      4388.9469     -137160.6     
    944700   2537.2239     -17255.564      4353.4076     -137161.62    
    944800   2584.3903      16822.643      4263.7542     -137161.17    
    944900   2558.0404      9206.4289      4264.7727     -137164.68    
    945000   2350.8923     -5028.799       4307.2349     -137166.4     
    945100   2168.5215     -784.38319      4304.8148     -137159.74    
    945200   2514.6796      834.02462      4294.3511     -137161.67    
    945300   2537.5821      6209.0164      4304.011      -137160.91    
    945400   2446.266      -6270.291       4331.2205     -137161.05    
    945500   2347.6831     -7232.5861      4322.4241     -137159.59    
    945600   2615.498       3820.4103      4272.1308     -137163.94    
    945700   2559.3626      14386.15       4243.0143     -137160.41    
    945800   2566.5653     -2645.2323      4266.9574     -137165.16    
    945900   2288.7046     -1311.9783      4302.9384     -137163.56    
    946000   2532.632      -10543.984      4329.4528     -137168.44    
    946100   2641.2153     -1210.9942      4319.3816     -137163.17    
    946200   2728.7194      6177.0868      4319.0199     -137162.27    
    946300   2437.0715     -1375.7211      4346.3758     -137157.84    
    946400   2459.3035      1234.1531      4339.9869     -137161.44    
    946500   2421.5315      1666.4752      4317.4309     -137161.99    
    946600   2408.9103     -1723.9465      4282.8075     -137162.06    
    946700   2452.6527      7843.574       4255.077      -137160.8     
    946800   2531.3039      6873.9888      4284.702      -137160.23    
    946900   2554.9146     -7844.2324      4362.7912     -137165.65    
    947000   2268.3607     -12060.505      4414.292      -137164.08    
    947100   2357.2344     -7372.1578      4405.1689     -137162.05    
    947200   2532.7674     -7333.0679      4340.6487     -137161.71    
    947300   2690.9568      13998.247      4242.7035     -137165.79    
    947400   2519.9218     -1974.7413      4231.7345     -137166.84    
    947500   2421.4775     -218.91476      4249.4605     -137167.82    
    947600   2381.2408     -2244.0088      4254.9187     -137162.77    
    947700   2659.744       6825.7894      4251.3144     -137158.87    
    947800   2503.0726      401.72671      4282.1526     -137155.93    
    947900   2380.8106      7282.3855      4310.7857     -137156.88    
    948000   2337.4099     -7212.2042      4340.1843     -137159.13    
    948100   2609.1884     -5152.4065      4317.5435     -137164.69    
    948200   2910.7991      3760.5073      4289.5749     -137165.8     
    948300   2553.6955     -2367.4011      4311.0675     -137161.23    
    948400   2355.5347     -3524.6612      4329.861      -137161.92    
    948500   2413.9627      319.28438      4324.0407     -137162.37    
    948600   2665.7945     -928.27734      4318.335      -137164.08    
    948700   2436.4202      3223.78        4319.2387     -137157.94    
    948800   2547.1055     -8825.4274      4314.2365     -137162.69    
    948900   2447.5962      13496.342      4293.5231     -137161.1     
    949000   2542.5018      8066.4584      4350.0391     -137164.03    
    949100   2552.8386     -23161.828      4440.7184     -137163.46    
    949200   2644.5383     -5676.5238      4417.0665     -137160.45    
    949300   2638.0896      1094.7517      4362.7217     -137157.88    
    949400   2510.2558      2633.6519      4310.3318     -137162.31    
    949500   2413.5971      7684.3184      4255.5762     -137165.84    
    949600   2504.8565      4302.1212      4229.6104     -137169.32    
    949700   2494.4126      6917.9009      4241.1799     -137169.4     
    949800   2509.3073      5246.8323      4309.6417     -137165.52    
    949900   2376.078       8755.283       4421.4368     -137152.56    
    950000   2646.1552     -16511.491      4561.01       -137154.38    
    950100   2481.4093     -4379.3796      4611.8536     -137149.44    
    950200   2486.0704     -7724.7135      4579.7804     -137156.7     
    950300   2371.6243     -12472.42       4482.1672     -137159.79    
    950400   2508.1085     -1469.5241      4325.8473     -137161.73    
    950500   2649.5416      10782.815      4186.0137     -137165.06    
    950600   2461.8574      20293.105      4138.8476     -137163.68    
    950700   2545.7248      1635.6589      4205.0057     -137168.19    
    950800   2417.7326     -3600.4228      4308.5866     -137164.06    
    950900   2495.5031     -9416.224       4382.934      -137163.2     
    951000   2567.5034     -16584.579      4384.6213     -137161.51    
    951100   2675.8347      2068.1458      4307.8104     -137160.34    
    951200   2695.7765      6468.6793      4248.1593     -137163.99    
    951300   2354.6804     -5634.9065      4241.7045     -137164.83    
    951400   2458.5573     -4140.3294      4217.0314     -137165.87    
    951500   2560.9479      15328.626      4196.409      -137164.04    
    951600   2560.9584      15688.069      4257.0538     -137161.43    
    951700   2672.1303     -1988.1274      4384.7073     -137162.38    
    951800   2445.6099     -10941.927      4498.9721     -137156.06    
    951900   2403.5159     -14796.741      4527.5554     -137155.7     
    952000   2570.8769      109.67889      4464.8204     -137159.7     
    952100   2437.6979      6385.0879      4405.3972     -137155.15    
    952200   2566.8037      10068.698      4394.2698     -137156.42    
    952300   2649.0638     -14302.093      4415.7735     -137158.2     
    952400   2567.1498     -7425.1517      4391.6766     -137161.16    
    952500   2419.6893     -3334.5601      4322.4069     -137164.96    
    952600   2378.1921      13828.547      4229.5732     -137162.77    
    952700   2623.7998      14847.967      4207.6816     -137164.6     
    952800   2580.4761      6885.6046      4294.139      -137161.94    
    952900   2442.1314      163.1462       4423.0463     -137156.25    
    953000   2437.4382     -10721.588      4508.5068     -137154.52    
    953100   2615.8631     -12786.045      4492.7901     -137155.9     
    953200   2691.4938     -7539.3655      4394.9378     -137159.49    
    953300   2417.6282      10714.72       4288.7095     -137162.25    
    953400   2376.2445      7153.3651      4238.1662     -137163.66    
    953500   2445.5388      5584.6733      4242.967      -137163.86    
    953600   2563.4496      5226.8903      4278.0308     -137162.81    
    953700   2568.6367      7444.3094      4345.4639     -137156.95    
    953800   2569.9629     -3985.1594      4430.4897     -137156.72    
    953900   2301.6857     -6863.665       4480.4051     -137156.23    
    954000   2490.399      -14652.553      4459.3736     -137162.81    
    954100   2656.9797     -2578.9606      4373.7257     -137159.8     
    954200   2707.9449      695.65034      4285.0468     -137159.27    
    954300   2536.0117      9948.6679      4205.9702     -137160.62    
    954400   2667.3751      10617.007      4176.9255     -137167.59    
    954500   2356.7573      1960.7888      4235.3279     -137163.59    
    954600   2448.8896      2692.6042      4324.135      -137164.63    
    954700   2651.7278     -8532.0778      4408.5266     -137162.26    
    954800   2608.9971     -12032.996      4483.0438     -137156.88    
    954900   2688.9069     -15859.295      4508.872      -137158.92    
    955000   2647.5914     -15977.674      4458.8796     -137160.65    
    955100   2418.5385      307.40742      4336.0452     -137157.2     
    955200   2654.5736      10403.131      4230.521      -137164.67    
    955300   2407.6344      10687.987      4206.3327     -137163.24    
    955400   2452.8298      2776.8954      4221.0229     -137166.72    
    955500   2423.392       1257.4749      4246.1938     -137164.23    
    955600   2640.1543      5294.0529      4270.2036     -137162.68    
    955700   2776.9879     -3023.226       4321.1795     -137162.03    
    955800   2470.4645     -9728.5044      4341.8362     -137160.98    
    955900   2413.1175      9375.6756      4295.0771     -137162.01    
    956000   2610.8449     -398.53148      4274.6434     -137165.32    
    956100   2447.2076      6948.6382      4287.489      -137158.29    
    956200   2389.7076     -938.79093      4336.6384     -137154.39    
    956300   2851.9485     -4256.1439      4363.5713     -137158.74    
    956400   2601.0211     -3134.8702      4376.7777     -137157.73    
    956500   2460.0685     -5570.9699      4365.9686     -137160.89    
    956600   2436.3781      1341.7231      4313.8061     -137163.65    
    956700   2277.7674      10755.162      4282.7226     -137159.39    
    956800   2824.4018      643.26568      4301.3094     -137165.74    
    956900   2567.6635      1473.881       4349.837      -137157.82    
    957000   2443.3675     -5403.4444      4407.8266     -137157.22    
    957100   2235.1368     -668.6555       4427.1842     -137155.78    
    957200   2455.9701     -9058.3704      4406.5342     -137166.2     
    957300   2402.3397      6102.5209      4332.0916     -137165.08    
    957400   2720.1886      17407.775      4288.4693     -137167.1     
    957500   2513.5544     -3871.351       4334.1863     -137156.87    
    957600   2710.8441     -3584.5665      4392.01       -137159.7     
    957700   2418.8063     -9085.7342      4432.3756     -137162.16    
    957800   2293.0898     -4145.9501      4410.0675     -137162.54    
    957900   2451.7322     -1380.3251      4354.9692     -137161.58    
    958000   2600.2396     -3240.1254      4303.8479     -137160.02    
    958100   2543.1113      11421.129      4259.0273     -137161.03    
    958200   2581.6602     -2390.0673      4278.2559     -137169.2     
    958300   2449.078       243.96095      4323.3698     -137166.39    
    958400   2298.8137     -2097.2403      4369.6074     -137159.78    
    958500   2654.8951     -3930.6502      4394.9579     -137161.64    
    958600   2506.6093      2844.498       4411.8147     -137156.58    
    958700   2520.0605     -6549.8977      4432.659      -137155.91    
    958800   2648.6758     -7118.9372      4404.8877     -137156.63    
    958900   2581.0637      7569.1279      4341.0205     -137150.01    
    959000   2533.6876      8948.8608      4290.496      -137155.29    
    959100   2629.0601     -688.35636      4260.4718     -137165.92    
    959200   2313.9592      5547.2504      4248.5954     -137162.09    
    959300   2546.3542      1329.214       4259.6116     -137169.06    
    959400   2599.2594     -2241.8622      4300.7811     -137165.44    
    959500   2711.2427     -916.75884      4366.7955     -137159.56    
    959600   2570.3877     -15357.23       4446.5549     -137155.83    
    959700   2506.184      -11248.309      4449.9215     -137157.38    
    959800   2458.0571     -5425.5662      4380.7415     -137159.87    
    959900   2118.5731      13388.01       4269.1511     -137160.27    
    960000   2324.6442     -1963.8361      4195.1155     -137169.8     
    960100   2488.1327      9327.0942      4127.986      -137168.5     
    960200   2618.115       20042.983      4126.0173     -137168.55    
    960300   2381.8365      2560.7772      4252.2632     -137163.4     
    960400   2567.3137     -8693.2239      4413.0321     -137162.71    
    960500   2522.7918     -13917.79       4519.2741     -137151.86    
    960600   2390.4252     -5706.4654      4529.0943     -137148.85    
    960700   2542.5466     -708.56893      4458.2989     -137158.4     
    960800   2484.0231      2455.7309      4358.5919     -137162.64    
    960900   2503.4472      4694.1056      4283.2619     -137163.92    
    961000   2564.591      -2652.8808      4251.1966     -137163.37    
    961100   2561.3995      10329.821      4244.3989     -137156.94    
    961200   2772.8103      10209.564      4302.9864     -137161.51    
    961300   2404.518      -6705.0617      4426.6454     -137160.42    
    961400   2312.3206     -8532.2773      4514.9127     -137158.72    
    961500   2520.7195     -13712.974      4527.1114     -137158.09    
    961600   2661.8177     -3381.5699      4449.6624     -137159.8     
    961700   2521.8451      9936.5912      4371.4041     -137159.16    
    961800   2394.748       1204.4592      4347.6831     -137161.33    
    961900   2399.6596     -468.21965      4336.8919     -137161.37    
    962000   2466.9292     -832.38805      4332.3639     -137161.43    
    962100   2611.5777     -4274.4797      4302.1717     -137164.52    
    962200   2659.4465      14462.989      4275.8143     -137162.4     
    962300   2599.0206     -2659.1485      4313.9091     -137161.16    
    962400   2245.1351      1669.8607      4345.1161     -137156.9     
    962500   2483.8613     -3258.4235      4352.7961     -137163.46    
    962600   2688.1534      2961.9728      4339.549      -137162.87    
    962700   2643.4172      679.54801      4339.4386     -137159.86    
    962800   2245.1382      1756.3017      4353.5334     -137158.89    
    962900   2304.4381     -7992.0379      4368.9942     -137160.73    
    963000   2417.7675      5100.5388      4358.0238     -137158.01    
    963100   2556.379      -7732.0299      4357.0926     -137159.37    
    963200   2609.9574     -2793.8711      4318.4825     -137160.49    
    963300   2475.3121     -6350.6019      4286.0012     -137162.05    
    963400   2243.7345      12492.799      4247.4683     -137164.64    
    963500   2427.7936      1186.1442      4231.2165     -137166.67    
    963600   2395.5753      11766.965      4236.2793     -137159.62    
    963700   2334.829       8381.6761      4292.4613     -137157.84    
    963800   2591.4985     -6400.1136      4399.6575     -137162.1     
    963900   2416.3373     -19295.807      4486.4436     -137155.13    
    964000   2550.7816     -12243.943      4476.3015     -137154.16    
    964100   3014.2979      9142.9306      4384.5851     -137153.92    
    964200   3089.5905      4180.4197      4341.2149     -137158.58    
    964300   2587.3656     -8259.9965      4353.8201     -137156.81    
    964400   2531.2844      2100.9475      4338.6612     -137163.99    
    964500   2406.6533     -7313.6683      4335.5785     -137164.85    
    964600   2441.6256     -97.562633      4305.0609     -137163.73    
    964700   2549.0292      13880.896      4258.2039     -137162.53    
    964800   2633.1144      7970.1055      4269.1815     -137166.49    
    964900   2422.4054     -11247.085      4326.9707     -137168.39    
    965000   2265.039      -13890.721      4326.6914     -137163.91    
    965100   2637.9269      5025.53        4247.2305     -137165.75    
    965200   2601.8882      16440.047      4197.5165     -137163.93    
    965300   2466.1932     -3150.8357      4218.2215     -137164.17    
    965400   2542.047       480.71998      4231.4431     -137168.76    
    965500   2460.9699      5629.7328      4241.2146     -137164.78    
    965600   2615.3276      12975.402      4303.4647     -137158.87    
    965700   2483.2377     -7533.4044      4445.6952     -137154.59    
    965800   2390.7844     -5383.456       4554.6908     -137153.95    
    965900   2402.6554     -12681.133      4595.5895     -137153.36    
    966000   2646.2244      4877.2004      4537.2097     -137150.83    
    966100   2721.1558     -398.77134      4452.6491     -137152.51    
    966200   2558.2977     -9498.4082      4360.3448     -137156.83    
    966300   2795.9341      5071.3785      4242.3549     -137168.94    
    966400   2452.8462      16953.862      4190.3684     -137164.07    
    966500   2608.6555      3758.9758      4230.6791     -137170.58    
    966600   2514.9865     -4631.7637      4326.3569     -137170.25    
    966700   2386.4557     -10647.509      4429.1226     -137157.69    
    966800   2584.6119     -3259.9586      4454.9922     -137156.06    
    966900   2748.5697     -1379.1451      4456.8684     -137160.54    
    967000   2417.3649     -11958.034      4452.8602     -137157.45    
    967100   2448.0939     -6973.6527      4383.3319     -137161.13    
    967200   2457.0124      2286.346       4267.6789     -137163.2     
    967300   2461.2693      9015.9576      4202.0003     -137166.47    
    967400   2410.4637      7664.2843      4212.1705     -137165.66    
    967500   2669.24       -1098.6341      4267.1004     -137166.45    
    967600   2625.1865     -3130.6845      4343.312      -137160.64    
    967700   2474.0899     -5096.931       4394.2322     -137157.43    
    967800   2361.5774     -6300.2794      4406.5118     -137163.1     
    967900   2310.5725     -10667.386      4351.6645     -137165.9     
    968000   2540.9718      10127.349      4244.1926     -137165.56    
    968100   2406.8859      12342.48       4212.2625     -137159.45    
    968200   2486.9199      8044.4202      4254.0783     -137162.23    
    968300   2324.241       2147.6176      4348.5897     -137161.13    
    968400   2243.07       -8559.6517      4428.1854     -137157.96    
    968500   2570.6328      3593.7192      4423.0192     -137158.13    
    968600   2538.3908     -2416.7402      4413.201      -137155.26    
    968700   2551.9983     -1425.4407      4406.4234     -137158.19    
    968800   2298.2646     -10328.516      4398.7405     -137159.22    
    968900   2383.816       2754.4803      4330.9661     -137162.98    
    969000   2675.3704      5681.8816      4280.2582     -137162.7     
    969100   2787.1804      8942.8411      4294.4234     -137158.28    
    969200   2475.2216     -5070.3446      4372.4426     -137157.1     
    969300   2346.3722     -2505.0586      4427.746      -137156.03    
    969400   2464.7253     -3475.7071      4441.0109     -137157.89    
    969500   2589.4134     -5007.4688      4410.2974     -137161.28    
    969600   2441.1435     -2455.6851      4348.6924     -137160.1     
    969700   2460.1901     -226.03811      4259.5528     -137164.29    
    969800   2363.945       11810.193      4176.7347     -137165.71    
    969900   2505.7422      7878.1188      4155.3509     -137169.55    
    970000   2592.2233      3081.4747      4214.1186     -137167.32    
    970100   2534.9331      592.1537       4318.0843     -137158.91    
    970200   2679.725      -5160.0151      4402.4115     -137157.93    
    970300   2568.6849     -19214.316      4443.9477     -137159.08    
    970400   2374.9487     -8263.3462      4393.6801     -137163.05    
    970500   2326.7094      12371.023      4304.585      -137160.6     
    970600   2531.2083      1862.3549      4291.0421     -137163       
    970700   2498.1125      13686.863      4308.9375     -137158.71    
    970800   2538.4543     -5816.8671      4359.3273     -137157.24    
    970900   2469.8407     -6767.6353      4378.0935     -137156.3     
    971000   2422.7837      1210.9405      4360.3312     -137161.65    
    971100   2411.8647     -5923.1296      4333.1838     -137165.58    
    971200   2355.0288      566.37824      4291.0101     -137162.7     
    971300   2412.4817      10898.035      4283.2945     -137157.03    
    971400   2650.2289     -6646.4831      4343.3686     -137157.78    
    971500   2640.9257     -2798.2705      4403.4353     -137159.05    
    971600   2554.4071     -10497.52       4437.8999     -137159.29    
    971700   2437.4347     -3582.0908      4400.4068     -137158.04    
    971800   2514.4454      6657.4527      4313.155      -137160.04    
    971900   2583.9572      3939.6422      4268.7039     -137163.78    
    972000   2370.8319     -1907.3595      4256.4656     -137166.23    
    972100   2425.7357     -3341.158       4235.5643     -137167.15    
    972200   2638.1236      3951.7865      4220.3953     -137166.64    
    972300   2733.7895      7745.5899      4250.462      -137162.82    
    972400   2748.1809      5993.6951      4328.2425     -137159.49    
    972500   2529.0376     -12158.913      4426.6379     -137163.53    
    972600   2303.793      -19186.16       4451.854      -137160.49    
    972700   2503.9918     -6925.249       4377.277      -137163.15    
    972800   2613.0912     -52.097677      4282.8912     -137160.99    
    972900   2791.1759      11825.46       4230.7653     -137162.38    
    973000   2507.0049      1519.9508      4252.4961     -137166.04    
    973100   2301.8805     -8117.3122      4281.0394     -137164.5     
    973200   2408.9958      101.12637      4266.1566     -137163.44    
    973300   2627.5943      7717.3197      4257.7326     -137162.86    
    973400   2651.5051      6111.4172      4291.8534     -137163.25    
    973500   2322.9997     -9606.2472      4336.203      -137160.77    
    973600   2259.673      -2735.6617      4319.9575     -137166.55    
    973700   2155.6645     -702.23669      4266.6875     -137164.31    
    973800   2620.3897      6730.5742      4205.692      -137165.52    
    973900   2591.9534      8504.0074      4198.5148     -137164.36    
    974000   2537.5179      3930.471       4263.1806     -137167.16    
    974100   2277.7204     -2685.4334      4356.3762     -137163.88    
    974200   2543.7787     -1258.7508      4421.5806     -137165.06    
    974300   2482.3467     -3695.1578      4479.304      -137156.48    
    974400   2650.3536     -16073.457      4517.4189     -137159.99    
    974500   2505.9999     -3858.5465      4473.4754     -137157.36    
    974600   2365.2194     -907.44796      4378.699      -137157.21    
    974700   2358.3981      2474.9826      4257.3147     -137165.14    
    974800   2370.7801      7181.1228      4156.4032     -137167.18    
    974900   2484.3396      15467.673      4125.3777     -137164.3     
    975000   2694.4174      2282.5618      4187.6432     -137163.38    
    975100   2569.8702     -2102.7052      4290.8106     -137162.95    
    975200   2418.7412     -8910.0886      4385.6768     -137158.34    
    975300   2405.4572     -4048.3593      4411.8938     -137156.53    
    975400   2424.3846     -3304.9313      4399.3422     -137156.49    
    975500   2343.7937      249.13178      4355.9583     -137158.99    
    975600   2283.0652      841.52434      4313.3304     -137163.35    
    975700   2505.7279      2870.9274      4289.9725     -137163.92    
    975800   2558.8256      12493.644      4286.5525     -137161.06    
    975900   2480.6735      3241.7331      4326.3847     -137162.91    
    976000   2346.9935     -3080.5634      4371.638      -137162.24    
    976100   2364.2799     -7224.4642      4370.5587     -137161.04    
    976200   2411.7265     -972.2197       4319.7547     -137160.13    
    976300   2590.2307      3759.5658      4255.4268     -137164.05    
    976400   2533.7691      4529.5587      4222.079      -137168.34    
    976500   2201.3154     -1257.9223      4247.6394     -137165.03    
    976600   2306.112      -5183.4451      4272.1967     -137164.94    
    976700   2474.3218      2187.4258      4279.106      -137165.4     
    976800   2561.4874     -4854.9416      4296.3005     -137162.26    
    976900   2520.5978      12057.368      4316.9589     -137158.17    
    977000   2526.4359     -57.937181      4396.4862     -137158.28    
    977100   2218.1334     -7276.9865      4470.6672     -137157.09    
    977200   2222.686      -12039.134      4484.9134     -137156.97    
    977300   2654.2514     -7332.8389      4407.6874     -137161.04    
    977400   2606.9854      5465.0146      4297.8467     -137160.92    
    977500   2503.8123      16022.144      4247.4078     -137162.76    
    977600   2508.4197     -6255.6227      4284.3743     -137168.13    
    977700   2400.1063     -12396.269      4319.0844     -137163.91    
    977800   2624.8717      2174.585       4313.9167     -137158.29    
    977900   2554.3915      8626.7285      4314.2926     -137157.68    
    978000   2447.1604     -3365.4423      4344.6555     -137161.68    
    978100   2341.1419     -7883.0795      4357.8958     -137160.95    
    978200   2586.1513      107.76228      4350.9521     -137161.98    
    978300   2662.9522     -4136.7866      4352.6954     -137158.66    
    978400   2747.6941     -10843.827      4324.7469     -137163.13    
    978500   2585.5361      5386.2693      4280.9683     -137162.02    
    978600   2403.5709      8010.3672      4267.836      -137159.78    
    978700   2615.7746      1258.5678      4302.1899     -137164.19    
    978800   2558.5328     -2363.4361      4359.8458     -137161.66    
    978900   2326.8845      6689.9495      4407.5755     -137157.49    
    979000   2313.2406     -15220.471      4449.7474     -137158.37    
    979100   2635.7355     -8456.2812      4412.8214     -137160.06    
    979200   2503.5595      1655.9243      4348.6243     -137154.12    
    979300   2483.6458      9891.4875      4313.6293     -137158.63    
    979400   2376.4423     -182.05269      4318.098      -137162.09    
    979500   2358.5017      5934.2323      4311.2438     -137159.62    
    979600   2576.4888      9875.8272      4319.4041     -137161.52    
    979700   2421.3495      3860.888       4365.9001     -137157.2     
    979800   2294.7151     -7236.1167      4406.4476     -137154.84    
    979900   2418.2112     -7205.7988      4365.5004     -137159.23    
    980000   2592.395       5899.4568      4284.197      -137163.09    
    980100   2498.1444      4403.0169      4240.4599     -137160.32    
    980200   2512.9315      1986.4209      4232.954      -137166.57    
    980300   2357.593      -2236.8574      4253.6687     -137168.69    
    980400   2486.4811      3137.4404      4273.2716     -137170.17    
    980500   2369.1793     -6935.7714      4312.8278     -137160.76    
    980600   2454.6648      3937.3092      4334.431      -137160.38    
    980700   2537.0862      140.93568      4365.6599     -137161.1     
    980800   2450.4499     -1547.6177      4406.0595     -137158       
    980900   2472.1958      2499.662       4432.2738     -137159.3     
    981000   2323.64       -4532.5009      4435.3187     -137155.47    
    981100   2626.5171     -5897.5147      4382.2826     -137158.69    
    981200   2500.2395      10962.8        4301.8293     -137154.16    
    981300   2415.5197      12669.806      4270.6993     -137161.87    
    981400   2501.6818      6958.8656      4304.402      -137167.33    
    981500   2571.1835     -9059.4117      4381.78       -137166.18    
    981600   2545.0109     -3660.3032      4443.8763     -137159.59    
    981700   2523.7131     -8469.5368      4470.3409     -137153.88    
    981800   2576.8099     -9190.5815      4424.4079     -137154.32    
    981900   2372.3527     -570.58408      4328.7606     -137160.01    
    982000   2452.3982     -1178.0582      4248.1888     -137166.76    
    982100   2322.1044      11501.7        4192.2659     -137164.25    
    982200   2385.4459      9444.4419      4193.537      -137164.46    
    982300   2573.7119      11740.419      4248.9514     -137161.95    
    982400   2615.5244     -6628.5974      4343.3695     -137158.91    
    982500   2468.4928     -1753.1301      4408.4458     -137157.79    
    982600   2415.5666     -7683.8001      4437.6652     -137159.43    
    982700   2221.3023     -7087.6248      4403.6752     -137162.11    
    982800   2239.2076     -8573.0665      4328.9885     -137165.69    
    982900   2342.5792      10989.552      4231.7121     -137160.55    
    983000   2560.112       19595.538      4184.8115     -137162.69    
    983100   2674.9014      3982.8577      4231.6578     -137167.48    
    983200   2358.3089     -2665.586       4307.8476     -137164.81    
    983300   2389.3187     -11032.279      4355.1871     -137165.39    
    983400   2649.2829      7031.4805      4349.0895     -137161.2     
    983500   2627.5536      8474.1982      4360.9335     -137159.2     
    983600   2525.3134     -8426.446       4392.6592     -137161.61    
    983700   2374.9475     -6931.0642      4387.8999     -137160.82    
    983800   2455.628      -9295.1151      4324.5212     -137162.87    
    983900   2792.7991      8214.8719      4228.8039     -137165.11    
    984000   2479.1882      11374.618      4190.2496     -137163.17    
    984100   2379.5184      5782.0013      4221.6899     -137165.79    
    984200   2343.0109     -4526.9593      4287.8993     -137163.81    
    984300   2547.7773     -2035.8282      4326.8625     -137161.07    
    984400   2613.5346     -9105.4399      4334.3675     -137160.79    
    984500   2569.7264     -1449.4162      4300.099      -137161.81    
    984600   2470.7937      1572.9063      4272.9727     -137161.59    
    984700   2474.1538      3342.8235      4251.7185     -137169.21    
    984800   2290.7505     -1985.4459      4251.9521     -137169.52    
    984900   2351.6395      6156.6085      4233.9528     -137166.72    
    985000   2660.8239      5782.527       4225.9267     -137170.17    
    985100   2512.8723      8666.4759      4267.8254     -137163.52    
    985200   2440.0248     -8788.4558      4331.649      -137160.41    
    985300   2591.9823      5379.5464      4344.3493     -137161.71    
    985400   2767.8533     -7073.8805      4358.0396     -137159.82    
    985500   2472.5808      8498.9186      4373.2815     -137154.44    
    985600   2462.5364     -5081.6052      4438.0076     -137160.88    
    985700   2515.4937     -4812.6739      4489.1616     -137164.91    
    985800   2460.3355     -13756.5        4507.9861     -137160.49    
    985900   2714.4505     -8144.2957      4441.8961     -137156.79    
    986000   2690.1765      3815.1981      4311.1778     -137158.72    
    986100   2575.3062      11968.836      4205.6624     -137163.8     
    986200   2649.0034      1201.6266      4187.8544     -137169.33    
    986300   2511.0128      4220.9104      4231.999      -137166.59    
    986400   2540.632      -4314.4583      4321.6361     -137165.06    
    986500   2549.8688     -7793.4535      4401.8237     -137156.62    
    986600   2658.4615     -3127.0941      4439.8327     -137154.78    
    986700   2565.5565     -3506.7794      4461.2846     -137158.24    
    986800   2559.523      -10771.964      4461.5113     -137161.66    
    986900   2319.2966     -4074.3432      4409.4193     -137153.7     
    987000   2735.9949      4711.2945      4337.1104     -137160.53    
    987100   2705.0493      5099.1091      4315.4738     -137161.13    
    987200   2318.2745     -4579.7521      4331.8593     -137157.14    
    987300   2494.3888     -3434.4406      4326.6467     -137165.66    
    987400   2254.1671     -912.10759      4318.8721     -137165.32    
    987500   2238.8745     -754.61585      4305.6102     -137162.81    
    987600   2536.3269      1265.2664      4262.5064     -137161.96    
    987700   2722.9913      4188.1639      4224.2149     -137165.34    
    987800   2505.5872      1922.6451      4231.1625     -137166.67    
    987900   2377.5985     -110.20358      4266.5614     -137167       
    988000   2397.9404      209.9289       4312.507      -137163.49    
    988100   2508.9381      308.37426      4359.8723     -137161.11    
    988200   2425.0608      5530.9198      4414.2694     -137157.69    
    988300   2461.3691     -8037.5551      4460.4859     -137159       
    988400   2460.2726     -263.354        4448.7626     -137156.17    
    988500   2833.7882     -3913.2841      4417.9279     -137157.75    
    988600   2737.8364      3663.5466      4379.9138     -137159.28    
    988700   2554.2717      38.681764      4368.5503     -137161.22    
    988800   2458.6653     -4789.1561      4343.6741     -137161.4     
    988900   2790.0608     -17111.488      4288.3654     -137169.25    
    989000   2636.0172      11261.695      4225.7105     -137163.81    
    989100   2392.2567      8879.9975      4256.6401     -137164.81    
    989200   2139.1809     -6010.1502      4339.3095     -137161.26    
    989300   2367.8014     -9155.5228      4389.5106     -137159.17    
    989400   2614.4517     -6363.481       4384.8838     -137160.45    
    989500   2530.2376     -6803.7638      4350.456      -137155.68    
    989600   2679.8214     -3477.6383      4287.8992     -137161.78    
    989700   2389.3449     -989.12593      4218.5971     -137163.2     
    989800   2403.3305      17607.139      4160.8288     -137165.23    
    989900   2530.4425      8272.5471      4171.105      -137168.67    
    990000   2389.1891      3846.5414      4237.933      -137166.08    
    990100   2419.7485     -11121.836      4315.5462     -137160.28    
    990200   2613.2442      1065.9717      4352.356      -137157.38    
    990300   2552.0724     -2795.2717      4393.1282     -137156.56    
    990400   2407.9116     -8565.6078      4403.9039     -137159.62    
    990500   2550.3419     -3145.1877      4373.8682     -137165.34    
    990600   2483.388      -6757.1565      4332.5292     -137161.22    
    990700   2845.612       12757.362      4271.9304     -137159.65    
    990800   2759.3528      7825.2041      4304.0801     -137158.39    
    990900   2355.1199     -4223.5888      4402.0903     -137154.22    
    991000   2505.9583     -12998.194      4469.3077     -137158.63    
    991100   2481.3295      2317.7106      4459.2211     -137156.01    
    991200   2648.1586     -7357.8751      4418.986      -137157.56    
    991300   2599.5773      3450.8916      4341.5292     -137154.15    
    991400   2581.1038      4890.2531      4266.5427     -137163.39    
    991500   2383.041       10790.487      4244.7132     -137162.75    
    991600   2469.2578      2420.7257      4287.9927     -137166.28    
    991700   2413.2039      3629.27        4363.5048     -137161.61    
    991800   2600.4104     -3374.0641      4449.2807     -137157.4     
    991900   2681.2031     -5306.5904      4515.427      -137156.41    
    992000   2520.473      -20271.751      4538.9921     -137155.77    
    992100   2445.9217      2209.3087      4439.2317     -137156.63    
    992200   2678.5466      2107.4354      4300.4883     -137165.64    
    992300   2325.0961      6605.6389      4223.0454     -137166.43    
    992400   2203.1499      8357.7021      4195.1793     -137165.81    
    992500   2483.2557      11234.518      4203.1106     -137167.89    
    992600   2542.2697      883.19345      4261.4563     -137162.78    
    992700   2578.6122      4774.1469      4328.8391     -137160.89    
    992800   2582.2795     -13377.641      4410.2441     -137166.18    
    992900   2304.2704     -17445.142      4436.3503     -137163.43    
    993000   2497.169      -9093           4370.2457     -137161.53    
    993100   2728.4616      3764.2877      4275.0999     -137160.39    
    993200   2612.8277      10538.497      4211.9714     -137162.58    
    993300   2511.9277      9329.6626      4204.643      -137166.96    
    993400   2374.2327     -1009.0046      4269.2121     -137163.2     
    993500   2557.3162      4586.7572      4348.8543     -137161.13    
    993600   2534.8728     -4250.0959      4437.5915     -137157.58    
    993700   2465.6258     -9350.7743      4500.3832     -137157.22    
    993800   2637.879      -22216.371      4477.7702     -137163.36    
    993900   2439.4053      5121.6262      4354.6066     -137159.87    
    994000   2480.8272      9606.5771      4263.0555     -137166.95    
    994100   2252.7277      7931.337       4249.899      -137163.85    
    994200   2418.2505      1715.859       4282.917      -137162.53    
    994300   2630.7549      1551.0771      4326.4524     -137162.36    
    994400   2468.8554      1078.2503      4380.2277     -137158.85    
    994500   2556.5258     -5671.2498      4422.9914     -137161.66    
    994600   2301.0645     -3396.9626      4415.9212     -137154.23    
    994700   2662.6596      13117.016      4383.9176     -137153.47    
    994800   2617.7115     -1795.5871      4407.8819     -137156.88    
    994900   2419.604      -7080.9143      4418.8854     -137156.98    
    995000   2541.9513     -7340.0117      4364.9656     -137161.28    
    995100   2535.1847      4990.3603      4263.2033     -137162.25    
    995200   2505.9259      5927.5775      4207.912      -137164.89    
    995300   2235.2308      14224.728      4216.9104     -137163.16    
    995400   2392.7986     -2146.2647      4277.0456     -137165.05    
    995500   2478.9046     -4113.9459      4325.7234     -137157.8     
    995600   2527.3297     -7233.9369      4340.0818     -137157.71    
    995700   2466.224       7547.3016      4318.115      -137160.7     
    995800   2378.5947      5035.359       4331.1533     -137161.36    
    995900   2462.9649     -7499.0475      4354.6115     -137160.88    
    996000   2766.1587      7474.7194      4329.4511     -137158.02    
    996100   2519.5155      5902.7822      4347.3582     -137154.36    
    996200   2496.3723     -9084.4962      4395.5219     -137158.13    
    996300   2585.4516     -5137.4217      4382.253      -137162.24    
    996400   2480.349       2329.3001      4327.1358     -137160.91    
    996500   2766.4998     -5380.2851      4263.7809     -137169.94    
    996600   2645.9652      5539.6233      4188.2812     -137169.75    
    996700   2345.8201      13029.888      4167.926      -137163.42    
    996800   2492.7791      4155.3095      4210.2869     -137168.52    
    996900   2268.0135     -7414.1809      4281.4903     -137165.33    
    997000   2425.036      -2448.1855      4332.1436     -137161.96    
    997100   2569.8419      3393.0306      4367.0548     -137159.26    
    997200   2656.7636     -7339.2039      4399.0416     -137161.1     
    997300   2473.8904     -10737.135      4415.9934     -137157.8     
    997400   2458.4074     -9962.3453      4372.4272     -137162.98    
    997500   2400.2639      4007.6214      4277.5944     -137167.44    
    997600   2258.9799      9101.7232      4208.8596     -137167.5     
    997700   2479.3529      18468.053      4200.4247     -137167.43    
    997800   2784.9572     -7178.7441      4281.1113     -137167.9     
    997900   2594.5938     -4971.7285      4354.3206     -137164.76    
    998000   2318.7579     -9286.9322      4397.9145     -137158.89    
    998100   2657.7252     -6851.9214      4389.9445     -137162.42    
    998200   2591.6372      2973.9327      4356.0216     -137154.52    
    998300   2676.238      -6358.4288      4318.2736     -137160.68    
    998400   2527.4982     -385.78882      4259.8773     -137167.05    
    998500   2367.5707      6848.9627      4232.166      -137162.67    
    998600   2545.8098      7718.729       4251.2689     -137163.84    
    998700   2641.1535     -1949.6443      4305.8826     -137160.75    
    998800   2497.7731     -2202.3138      4345.9578     -137157.82    
    998900   2321.7359      361.593        4368.4689     -137163.38    
    999000   2223.936      -6242.4016      4374.0379     -137160.14    
    999100   2577.0947     -6878.0724      4322.4427     -137163.19    
    999200   2554.8962      8050.6279      4259.1732     -137161.09    
    999300   2585.3752      6740.15        4246.3531     -137165.4     
    999400   2442.1874     -942.21272      4276.4874     -137166.06    
    999500   2340.7184     -8978.0986      4300.0561     -137166.86    
    999600   2427.5318     -9088.5758      4279.0496     -137169.16    
    999700   2776.0982     -2241.9358      4223.5246     -137171.56    
    999800   2543.6638      19221.115      4188.1083     -137163.67    
    999900   2385.6085      3006.6032      4241.637      -137162.65    
   1000000   2467.3087     -2277.9216      4326.3023     -137164.6     
Loop time of 38131.6 on 8 procs for 1000000 steps with 216 atoms

Performance: 2.266 ns/day, 10.592 hours/ns, 26.225 timesteps/s, 5.665 katom-step/s
99.4% CPU use with 8 MPI tasks x 1 OpenMP threads

MPI task timing breakdown:
Section |  min time  |  avg time  |  max time  |%varavg| %total
---------------------------------------------------------------
Pair    | 32970      | 33146      | 33363      |  69.1 | 86.92
Neigh   | 5.6186     | 5.6525     | 5.6893     |   1.0 |  0.01
Comm    | 4684.1     | 4898.3     | 5070.4     | 175.8 | 12.85
Output  | 1.114      | 8.0684     | 56.138     | 639.6 |  0.02
Modify  | 24.429     | 69.69      | 79.553     | 207.4 |  0.18
Other   |            | 4.308      |            |       |  0.01

Nlocal:             27 ave          30 max          24 min
Histogram: 1 2 0 1 0 1 0 0 1 2
Nghost:        623.125 ave         635 max         600 min
Histogram: 1 0 0 0 1 1 0 2 1 2
Neighs:              0 ave           0 max           0 min
Histogram: 8 0 0 0 0 0 0 0 0 0
FullNghs:       2558.5 ave        2873 max        2207 min
Histogram: 1 1 0 1 1 1 0 0 1 2

Total # of neighbors = 20468
Ave neighs/atom = 94.759259
Neighbor list builds = 30215
Dangerous builds = 0
System init for write_data ...
Total wall time: 10:35:32
