LAMMPS (12 Jun 2025)
OMP_NUM_THREADS environment is not set. Defaulting to 1 thread. (src/comm.cpp:99)
  using 1 OpenMP thread(s) per MPI task
Reading data file ...
  orthogonal box = (-0.08237604 -0.08237604 -0.08237604) to (16.375376 16.375376 16.375376)
  2 by 2 by 2 MPI processor grid
  reading atoms ...
  216 atoms
  reading velocities ...
  216 velocities
  read_data CPU = 0.333 seconds
The scaling is : 2.85e-02.
There are 2 species.
Neighbor list info ...
  update: every = 1 steps, delay = 0 steps, check = yes
  max neighbors/atom: 2000, page size: 100000
  master list distance cutoff = 7.7
  ghost atom cutoff = 7.7
  binsize = 3.85, bins = 5 5 5
  1 neighbor lists, perpetual/occasional/extra = 1 0 0
  (1) pair mtp, perpetual
      attributes: full, newton on
      pair build: full/bin/atomonly
      stencil: full/bin/3d
      bin: standard
Setting up Verlet run ...
  Unit style    : metal
  Current step  : 0
  Time step     : 0.001
Per MPI rank memory allocation (min/avg/max) = 3.075 | 3.075 | 3.076 Mbytes
   Step          Temp          Press          Volume         PotEng    
         0   2583.5079     -9904.7174      4457.7073     -137156.54    
       100   2555.2065      2796.0975      4430.546      -137160.15    
       200   2296.6014     -8129.3616      4400.1612     -137159.01    
       300   2429.3223      7580.2229      4326.9079     -137160.85    
       400   2528.771       2477.1982      4275.2369     -137162.55    
       500   2553.9453      12371.47       4266.0071     -137162.84    
       600   2364.9579     -4768.1261      4325.7567     -137158.98    
       700   2489.5003     -11725.469      4377.2711     -137160.41    
       800   2714.2673     -203.72703      4392.61       -137158.65    
       900   2570.3192     -1950.9829      4408.9756     -137156.96    
      1000   2418.1432     -3477.5045      4417.3254     -137160.22    
      1100   2279.728      -3273.8519      4406.5589     -137156.61    
      1200   2571.3699     -4956.8538      4366.1887     -137161.83    
      1300   2511.5135      7400.343       4323.5414     -137159.28    
      1400   2425.1729     -2617.8681      4311.0689     -137160.73    
      1500   2310.0731     -2054.245       4279.1184     -137165.94    
      1600   2446.2954      9005.7965      4221.2512     -137168.41    
      1700   2625.4448      2470.2821      4196.1206     -137166.28    
      1800   2583.255       11497.495      4216.6007     -137163.32    
      1900   2361.83       -4529.3461      4299.5742     -137158.8     
      2000   2433.7868     -4086.0546      4367.2451     -137160.9     
      2100   2446.5009     -2829.6235      4409.5486     -137158.96    
      2200   2542.5967     -11084.49       4429.7118     -137158.62    
      2300   2560.7338      7722.0017      4415.7158     -137155.41    
      2400   2626.5286      4437.1023      4411.1376     -137158.68    
      2500   2370.8135     -477.11719      4434.4845     -137159.63    
      2600   2316.5564     -5028.07        4446.1076     -137158.99    
      2700   2593.4362     -6874.9142      4414.3531     -137162.12    
      2800   2585.0501      2013.6271      4355.5449     -137158.17    
      2900   2642.6411      8320.9421      4308.3075     -137157.23    
      3000   2539.6651      10757.475      4314.2055     -137163.4     
      3100   2395.099       3371.88        4365.628      -137165.83    
      3200   2269.3669     -8105.8377      4420.7913     -137158.56    
      3300   2418.4066      2423.7086      4447.6874     -137154.87    
      3400   2452.1301      2140.5844      4470.9837     -137153.85    
      3500   2487.854       3139.3337      4501.8236     -137153.43    
      3600   2558.1038     -9788.4444      4518.0123     -137155.62    
      3700   2405.5023     -6174.4891      4476.6642     -137157.25    
      3800   2259.752      -1496.2379      4389.5892     -137158.48    
      3900   2503.0969      7932.6264      4280.2768     -137162.13    
      4000   2701.3944      18414.823      4228.4698     -137160.56    
      4100   2642.4901      7160.5498      4264.4597     -137161.86    
      4200   2409.0194     -10897.216      4344.8794     -137163.49    
      4300   2489.3051     -6095.9618      4403.5168     -137163.03    
      4400   2568.2157      1452.7159      4417.3523     -137159.86    
      4500   2600.4105     -1902.0888      4420.7075     -137156.86    
      4600   2727.7656     -2083.9765      4415.266      -137156.68    
      4700   2504.8705      7192.7059      4410.4579     -137157.43    
      4800   2345.7882     -2250.1181      4437.7552     -137159.45    
      4900   2382.5937      4016.7967      4448.9089     -137160.02    
      5000   2575.5648     -3935.7346      4471.8668     -137159.54    
      5100   2694.592      -5873.2949      4479.7347     -137156.77    
      5200   2653.5271     -13188.978      4469.2376     -137159.09    
      5300   2489.483      -2959.782       4412.6934     -137165.58    
      5400   2472.872      -3360.9274      4353.7815     -137164.7     
      5500   2749.6053      2779.2099      4313.095      -137167       
      5600   2575.8699      8177.9072      4321.1034     -137162.16    
      5700   2270.1255      1335.9961      4394.9981     -137161.1     
      5800   2228.7689     -14544.76       4465.1031     -137163.04    
      5900   2544.0443      2875.0309      4451.9495     -137160.97    
      6000   2406.9828      9416.3543      4439.8412     -137152.68    
      6100   2535.4371     -4410.5087      4485.4195     -137154.47    
      6200   2446.8025     -13075.878      4513.6733     -137154.62    
      6300   2214.5936      4126.4997      4454.5449     -137154.31    
      6400   2506.5446      1148.1862      4371.8439     -137163.15    
      6500   2786.7932     -355.29655      4274.1624     -137162.05    
      6600   2731.9967      20914.792      4202.3179     -137161.23    
      6700   2507.9432      9706.7539      4263.9971     -137164.94    
      6800   2449.7988     -8542.944       4403.8711     -137164.43    
      6900   2367.5664     -10979.854      4501.7329     -137157.51    
      7000   2719.2824     -11006.74       4526.744      -137158.64    
      7100   2652.5204      1147.0594      4500.4011     -137157.62    
      7200   2435.7557     -3502.4386      4457.0374     -137157.91    
      7300   2632.1934     -3477.5681      4379.2519     -137165.14    
      7400   2486.0609      7051.0007      4311.6838     -137164.26    
      7500   2059.1827     -4080.5087      4290.9127     -137162.53    
      7600   2392.2021      1495.5591      4248.0536     -137166.95    
      7700   2448.6792      8783.3792      4220.0324     -137162.52    
      7800   2646.455       8391.5928      4259.86       -137164.69    
      7900   2528.4151     -550.08274      4363.2752     -137161.69    
      8000   2481.2533     -12168.319      4457.955      -137159.08    
      8100   2643.2083     -14963.942      4488.3892     -137155.2     
      8200   2761.7768      2884.1083      4457.8273     -137155.89    
      8300   2527.9998     -3025.5391      4435.6005     -137158.47    
      8400   2453.9363     -336.40662      4426.9176     -137159.35    
      8500   2480.5406     -3555.2319      4403.9317     -137159.81    
      8600   2614.1494     -9304.8542      4350.9247     -137162.26    
      8700   2533.8363      10075.257      4266.0794     -137162.99    
      8800   2322.5717      8794.3908      4230.7239     -137163.73    
      8900   2415.6043     -4042.6863      4243.4251     -137167.76    
      9000   2685.7723      2305.7459      4263.8597     -137166.53    
      9100   2507.9063     -3052.2287      4309.8716     -137158.99    
      9200   2537.5317      1613.7362      4348.9771     -137160.92    
      9300   2479.2891     -6840.998       4371.9505     -137162.02    
      9400   2333.381      -2584.2862      4346.446      -137158.01    
      9500   2617.0563      9717.9864      4307.4246     -137157.46    
      9600   2687.5477      9334.6429      4314.8697     -137159       
      9700   2360.1096     -2725.1436      4390.7091     -137157.99    
      9800   2400.4162     -7234.458       4468.2658     -137160.44    
      9900   2512.9714     -8563.6506      4487.6842     -137161.65    
     10000   2342.5975     -305.54668      4436.1945     -137155.49    
     10100   2605.5916      7695.4407      4356.5646     -137160.04    
     10200   2505.0548      7898.0597      4318.9434     -137158.61    
     10300   2504.3807      3648.3589      4322.407      -137161.57    
     10400   2457.4786      1035.3514      4352.1499     -137161.18    
     10500   2357.304       3356.93        4371.3725     -137158.64    
     10600   2390.526       6896.3141      4376.0707     -137156.26    
     10700   2620.0353      14659.502      4393.0462     -137153.92    
     10800   2738.1758     -6559.3528      4479.9889     -137158.36    
     10900   2191.4875     -1612.4057      4526.8018     -137149.93    
     11000   2537.4029     -4823.9792      4496.0537     -137158.1     
     11100   2569.3884     -6973.5653      4421.9851     -137156.85    
     11200   2691.6554      7798.8162      4298.6023     -137160.31    
     11300   2605.1346      217.12533      4206.1395     -137165.87    
     11400   2411.8955      14252.926      4147.9103     -137166.11    
     11500   2402.6125      9822.238       4153.0286     -137166.01    
     11600   2486.8378     -2994.3389      4207.7541     -137164.18    
     11700   2633.1387      708.58769      4270.2658     -137160.23    
     11800   2478.568       7279.7543      4351.7845     -137155.48    
     11900   2531.2713     -2220.0911      4424.8412     -137159.52    
     12000   2394.6027     -8202.6823      4442.1924     -137157.45    
     12100   2589.0527      137.1613       4398.8571     -137158.46    
     12200   2945.9847      760.93376      4365.6296     -137162.56    
     12300   2401.7308      706.52722      4377.1006     -137157.94    
     12400   2449.8577     -2372.0663      4390.5439     -137161.63    
     12500   2418.9567     -5478.0162      4374.4718     -137156.7     
     12600   2601.8156      10889.252      4329.3837     -137156.96    
     12700   2572.2685      7789.2787      4328.3975     -137160.28    
     12800   2340.5545      2388.2737      4343.6522     -137161.48    
     12900   2399.5123      6570.9791      4372.9499     -137161.56    
     13000   2593.6453     -8722.5135      4435.1441     -137162.22    
     13100   2521.5773     -3316.1302      4472.9754     -137156.35    
     13200   2472.3168     -3758.3217      4483.6723     -137151.57    
     13300   2792.9401     -3537.5346      4446.7687     -137154.5     
     13400   2681.7227      1670.68        4393.1316     -137156.68    
     13500   2451.7105      615.7253       4389.2132     -137158.59    
     13600   2493.7177     -2766.5553      4381.0365     -137161.01    
     13700   2483.6553      294.31664      4350.889      -137158.28    
     13800   2698.9149      4022.554       4335.6481     -137158.67    
     13900   2510.1797      5394.1938      4354.7248     -137155.7     
     14000   2225.2414     -1924.054       4394.5926     -137155.98    
     14100   2540.9456     -8171.3743      4405.1658     -137161.21    
     14200   2519.1703      9804.468       4382.7673     -137156.86    
     14300   2727.4862     -6097.7617      4386.7267     -137165.51    
     14400   2231.1125     -1653.8379      4373.4329     -137159.55    
     14500   2215.034      -7725.6195      4336.9951     -137160.74    
     14600   2650.1067      8173.8759      4274.2822     -137162.15    
     14700   2620.5348      7414.3541      4271.4954     -137160.03    
     14800   2440.2837     -7161.1177      4333.4717     -137162.41    
     14900   2315.208      -7352.7009      4392.933      -137158.44    
     15000   2513.0581      7259.9666      4417.1207     -137155.99    
     15100   2475.7041     -4964.4543      4442.9428     -137154.94    
     15200   2566.1175     -10048.568      4446.8011     -137158.06    
     15300   2387.6174      275.97766      4408.9224     -137159.31    
     15400   2472.9022      3385.1055      4330.4465     -137169.54    
     15500   2269.2869      5045.4753      4248.2856     -137163.74    
     15600   2590.2293      10179.006      4208.3109     -137166.02    
     15700   2622.1957     -2602.6208      4253.5617     -137164.89    
     15800   2395.3854      2815.9691      4331.9444     -137159.63    
     15900   2522.2525     -4203.8523      4431.6257     -137160.45    
     16000   2673.502       38.505505      4525.6514     -137156.77    
     16100   2566.9437     -3203.3141      4608.0075     -137150.11    
     16200   2330.663      -10147.033      4634.2988     -137150.18    
     16300   2412.5894     -12915.924      4558.6709     -137158.66    
     16400   2623.3357      4792.8667      4408.9215     -137162.58    
     16500   2651.1882      4210.1913      4288.8675     -137161       
     16600   2659.1471      10203.77       4240.236      -137165.51    
     16700   2348.0354     -3021.3501      4264.8469     -137165.34    
     16800   2467.4196      9827.5979      4287.184      -137167.51    
     16900   2594.6029     -3142.8661      4361.2583     -137165.38    
     17000   2553.6371      1448.2173      4424.6497     -137158.44    
     17100   2453.8206      784.48624      4464.3124     -137153.65    
     17200   2661.2223     -896.33724      4466.9738     -137158.52    
     17300   2231.7922      4177.1765      4446.5035     -137156.82    
     17400   2253.4136     -3971.7184      4421.6085     -137162.86    
     17500   2473.4859      5750.2228      4383.2968     -137160.71    
     17600   2581.4842     -6850.2406      4377.5972     -137156.67    
     17700   2625.1935      9412.8507      4339.1838     -137157.98    
     17800   2565.1806     -6085.6326      4330.3573     -137164.78    
     17900   2422.55       -1825.2002      4326.7903     -137165.11    
     18000   2392.7542      742.68377      4319.6902     -137161.2     
     18100   2544.4026      880.00624      4316.464      -137158.77    
     18200   2611.3669     -6542.6077      4341.7661     -137160.11    
     18300   2434.3964      4868.5609      4389.6526     -137159.3     
     18400   2345.0512     -3457.6928      4449.2897     -137157.78    
     18500   2604.3459     -8392.9178      4441.5262     -137160.13    
     18600   2792.031       9376.5034      4397.4785     -137155.49    
     18700   2676.3255     -1708.6043      4403.2638     -137158.52    
     18800   2616.6819     -5506.103       4422.6713     -137162.34    
     18900   2272.3414      13740.748      4418.5445     -137156.59    
     19000   2547.6265     -6890.0666      4431.2279     -137165.15    
     19100   2413.1653     -2321.3397      4429.3361     -137161.15    
     19200   2650.4241      4872.8097      4401.067      -137159.93    
     19300   2640.3348      10873.471      4387.5556     -137159.49    
     19400   2531.4382     -570.41547      4420.6644     -137164.13    
     19500   2359.1521     -6646.1394      4449.0699     -137160.84    
     19600   2411.5744     -7508.3315      4431.2879     -137157.95    
     19700   2669.8912     -1399.2666      4346.7311     -137162.52    
     19800   2677.1723      2827.1189      4271.0637     -137164.33    
     19900   2503.294       5635.7024      4246.8552     -137163.08    
     20000   2514.328      -759.25986      4272.2982     -137168.02    
     20100   2276.9193     -8232.3306      4320.9157     -137162.66    
     20200   2544.6216      8279.6016      4337.7151     -137155.98    
     20300   2548.8424      5345.7025      4387.9949     -137155.73    
     20400   2377.4761     -6149.7289      4449.6683     -137155.98    
     20500   2385.0285     -6256.1944      4457.6924     -137158.3     
     20600   2368.458      -95.268541      4415.8536     -137152.38    
     20700   2720.8933      4112.1687      4359.9742     -137155.34    
     20800   2825.4103      252.72375      4321.5992     -137162.81    
     20900   2560.6883      16696.822      4303.8504     -137161.73    
     21000   2494.9973     -2218.8556      4356.6076     -137164.46    
     21100   2394.7067     -6849.1229      4426.3813     -137160.35    
     21200   2411.5798     -4355.0938      4472.3981     -137151.46    
     21300   2540.2423     -7356.5229      4463.0788     -137152.88    
     21400   2548.3904      9208.1756      4408.8914     -137154.3     
     21500   2500.1108     -1697.1009      4367.6647     -137159.72    
     21600   2350.727       5747.4139      4325.3374     -137160.06    
     21700   2619.9431      1387.4645      4309.4777     -137167.5     
     21800   2743.1933      10774.704      4352.8278     -137161.97    
     21900   2572.9222     -5890.5507      4481.6646     -137152.65    
     22000   2402.3454     -7893.1802      4588.6174     -137150.04    
     22100   2507.8371     -11439.551      4617.4529     -137154.18    
     22200   2498.4267     -8751.9873      4543.4357     -137156.21    
     22300   2496.8465     -5237.2167      4422.8768     -137157.74    
     22400   2677.3032     -4325.843       4305.4939     -137165.35    
     22500   2452.1709      7986.1875      4209.2713     -137166.22    
     22600   2410.7976      8137.4841      4175.1279     -137167.86    
     22700   2546.1084      204.48622      4209.5572     -137167.34    
     22800   2711.3602      6736.4056      4264.7854     -137161.07    
     22900   2667.789       2552.6998      4340.763      -137158.15    
     23000   2602.4385     -11408.114      4406.6759     -137160.77    
     23100   2527.1582     -3270.4322      4422.6689     -137161.04    
     23200   2357.2649     -2910.6808      4394.6047     -137159.65    
     23300   2418.4228      6837.114       4335.2247     -137162.72    
     23400   2554.9474      3245.6556      4292.5399     -137166.4     
     23500   2401.659       10546.412      4282.9499     -137159.5     
     23600   2546.4891      11936.909      4332.3352     -137156.47    
     23700   2570.9524     -6688.5083      4424.1437     -137153.89    
     23800   2569.4163     -9738.2761      4469.3379     -137157.03    
     23900   2358.0233      393.7756       4450.4604     -137161.15    
     24000   2379.7056      3369.7658      4401.8644     -137162.21    
     24100   2336.0239     -4929.0337      4376.3364     -137157.11    
     24200   2524.2906      5939.1186      4339.0671     -137157.98    
     24300   2568.8304      13960.057      4324.9368     -137159.21    
     24400   2449.3256     -6694.3569      4374.5932     -137161.08    
     24500   2118.4999     -5256.7818      4386.5668     -137161.69    
     24600   2442.2415      1397.0218      4343.7102     -137167.26    
     24700   2612.8045      1986.0457      4316.4661     -137167.75    
     24800   2472.1511      531.99713      4357.4958     -137159.75    
     24900   2680.896      -9875.2596      4389.5105     -137160.78    
     25000   2553.15        290.14561      4366.4327     -137155.95    
     25100   2398.8186     -1526.8131      4332.083      -137160.33    
     25200   2467.3642     -995.30818      4307.636      -137168.01    
     25300   2431.2861      2718.3853      4295.372      -137168.77    
     25400   2448.6048     -37.335537      4289.4004     -137164.41    
     25500   2670.8806      4050.4333      4292.9094     -137162.71    
     25600   2535.3987     -4726.1724      4313.1106     -137161.11    
     25700   2464.1497     -7752.5165      4312.6836     -137162.55    
     25800   2441.5451      2527.8799      4283.0127     -137162.56    
     25900   2733.3951      9734.448       4251.0089     -137163.83    
     26000   2749.3432      3255.7327      4276.0815     -137157.18    
     26100   2574.8126     -6896.7087      4315.8706     -137159.57    
     26200   2452.9947     -1670.1738      4331.3671     -137161.99    
     26300   2318.5912      5619.4715      4329.8721     -137158.84    
     26400   2577.9496     -6002.2866      4325.2676     -137165.51    
     26500   2455.2377      7627.4556      4296.0533     -137163.22    
     26600   2330.2967      749.18932      4296.3237     -137165.48    
     26700   2236.1967      8204.5524      4325.0416     -137164.01    
     26800   2551.4706     -9867.8283      4383.6412     -137163.36    
     26900   2588.2958     -2322.93        4398.6584     -137159.4     
     27000   2719.7246      3466.456       4410.0558     -137161.59    
     27100   2426.6431     -5100.7023      4464.7582     -137160.59    
     27200   2328.5321     -6581.1564      4473.1567     -137160.96    
     27300   2363.2909     -2928.4124      4406.291      -137158.62    
     27400   2479.4442      10414.808      4308.6775     -137158.76    
     27500   2643.9852      8095.0878      4260.877      -137165.66    
     27600   2491.6614      3350.1262      4277.973      -137165.77    
     27700   2530.167      -9041.8258      4342.5606     -137165.57    
     27800   2510.8335     -7043.0294      4385.5222     -137155.32    
     27900   2738.109       8398.4209      4387.4773     -137155.97    
     28000   2773.1789     -17399.684      4419.0048     -137162.84    
     28100   2433.9992     -5049.9785      4377.2834     -137159.75    
     28200   2596.5365      10104.659      4300.7786     -137164.95    
     28300   2478.3414      11605.256      4274.2594     -137162.33    
     28400   2609.9448      8463.3589      4316.5444     -137165.05    
     28500   2421.5984     -9127.0879      4409.5753     -137156.58    
     28600   2572.5403     -8592.6704      4467.377      -137155.14    
     28700   2567.8258      5685.9017      4464.7245     -137153.21    
     28800   2307.727       730.54265      4445.9262     -137153.11    
     28900   2377.7909     -7160.514       4401.0693     -137160.89    
     29000   2505.6304     -840.67424      4321.69       -137163.11    
     29100   2594.1         6511.3819      4258.7899     -137163.88    
     29200   2511.9783      7945.0427      4256.6799     -137163       
     29300   2469.0936      4999.8605      4317.6854     -137162.05    
     29400   2515.5835     -8140.2213      4420.8092     -137160.99    
     29500   2454.3105     -8514.3796      4470.3503     -137154.51    
     29600   2628.658       6114.2455      4458.979      -137152.74    
     29700   2531.1274     -7509.017       4453.4314     -137156.19    
     29800   2484.5641      2935.4488      4415.2616     -137157.49    
     29900   2443.6883     -5427.6882      4375.7902     -137156.9     
     30000   2609.4119      5701.3879      4313.6701     -137160.04    
     30100   2708.5278      930.7353       4288.6226     -137159.55    
     30200   2601.1296      1507.3218      4271.3869     -137165.28    
     30300   2556.6734     -6678.9049      4261.9556     -137170.12    
     30400   2219.9265      8944.4662      4251.7826     -137161.75    
     30500   2369.7446      10595.927      4274.2094     -137159.52    
     30600   2685.0946     -11908.332      4335.6033     -137162.05    
     30700   2617.6036      2039.1086      4375.8164     -137162.39    
     30800   2351.7077     -5705.7251      4430.2382     -137157.89    
     30900   2542.9042     -8166.064       4456.9845     -137159.83    
     31000   2703.3102     -13621.097      4455.5949     -137157.86    
     31100   2373.0525     -655.44118      4388.2254     -137156.16    
     31200   2407.6678      4074.0211      4293.2244     -137164.98    
     31300   2443.8914      15428.923      4241.7162     -137165.94    
     31400   2453.5617      1843.3723      4271.2847     -137162.48    
     31500   2602.3179      4359.9391      4320.9904     -137160.39    
     31600   2678.8328      1725.3739      4409.455      -137161.08    
     31700   2412.2606     -15070.852      4531.806      -137158.89    
     31800   2094.5973     -12734.042      4598.6448     -137154.95    
     31900   2319.632      -7133.9894      4559.8889     -137152.16    
     32000   2592.4067     -408.06328      4429.728      -137155.89    
     32100   2667.933       18091.572      4278.325      -137162.04    
     32200   2379.6638      8553.815       4227.2798     -137161.53    
     32300   2368.1542      9766.1835      4236.0592     -137161.52    
     32400   2602.1991      4041.5829      4313.1362     -137161.68    
     32500   2626.7814     -11426.77       4440.3123     -137158.97    
     32600   2370.0417     -11148.923      4521.3574     -137150.98    
     32700   2503.0169     -1621.1933      4529.4574     -137154.23    
     32800   2437.2467     -176.52859      4512.7126     -137154.74    
     32900   2383.6138     -5386.3942      4473.5389     -137157.45    
     33000   2416.5769      1115.3984      4397.8026     -137163.26    
     33100   2480.1866     -3946.5644      4343.5977     -137164.38    
     33200   2641.1908     -1437.9186      4281.6385     -137163.01    
     33300   2668.8883      19474.623      4239.5241     -137160.09    
     33400   2501.2028      766.62115      4294.9301     -137163.46    
     33500   2332.694       141.45166      4380.9254     -137165.12    
     33600   2360.7956     -12843.272      4453.8405     -137161.83    
     33700   2568.9102     -119.76018      4467.4154     -137160.99    
     33800   2512.6461     -3953.0602      4464.4882     -137157.47    
     33900   2587.6082      2403.6531      4423.912      -137158.26    
     34000   2569.0736      844.6841       4380.9946     -137159.15    
     34100   2455.5941      2135.6404      4348.3881     -137163.53    
     34200   2278.2094     -1987.1303      4313.1387     -137163.22    
     34300   2488.4604      7015.82        4254.9234     -137164.53    
     34400   2699.2241      6159.8413      4223.3446     -137164.23    
     34500   2647.6401      18676.022      4255.6848     -137165.75    
     34600   2365.4188     -5093.3636      4379.6865     -137160.69    
     34700   2325.6982     -11546.729      4472.4682     -137155.61    
     34800   2492.0304     -5248.1207      4471.888      -137155.44    
     34900   2645.6013     -192.25183      4430.3238     -137160.42    
     35000   2390.5044      5343.7305      4404.9608     -137159.48    
     35100   2540.3784     -6168.2276      4401.389      -137164.55    
     35200   2445.5901     -4041.6179      4384.686      -137160.2     
     35300   2460.2198      16659.279      4350.9132     -137159.17    
     35400   2613.883       3770.0399      4361.408      -137160.94    
     35500   2758.3886     -2027.5037      4390.6428     -137161.97    
     35600   2557.9893     -7824.9133      4431.9595     -137157.61    
     35700   2464.8403     -10812.884      4447.3697     -137157.5     
     35800   2432.7856      6550.3991      4415.9732     -137153.86    
     35900   2716.9855     -5088.2529      4399.4076     -137157.34    
     36000   2484.1197      1561.7853      4386.0412     -137158.5     
     36100   2459.9271     -1727.6557      4388.3685     -137162.99    
     36200   2421.7664      801.98482      4384.1081     -137160.09    
     36300   2483.8182      7541.8355      4383.4278     -137157.63    
     36400   2450.9736      6758.815       4405.0199     -137156.69    
     36500   2484.4277      6033.7032      4434.6353     -137160.94    
     36600   2462.244      -14846.821      4467.8372     -137158.93    
     36700   2602.4701     -882.89399      4441.7233     -137157.73    
     36800   2537.8931     -2485.6858      4405.6489     -137155.87    
     36900   2548.5147      7760.7145      4360.8255     -137158.07    
     37000   2282.2864     -1800.4817      4357.9236     -137161.83    
     37100   2308.5228      2008.7608      4345.4644     -137165.37    
     37200   2475.8942     -1029.8929      4308.2525     -137163.76    
     37300   2552.4165      9930.4924      4269.8216     -137160.1     
     37400   2699.0188      1239.0362      4287.0702     -137164.63    
     37500   2492.4969     -11951.39       4341.5195     -137162.56    
     37600   2609.0454     -6743.9043      4377.743      -137165.83    
     37700   2476.9645      1232.4928      4365.874      -137162.26    
     37800   2521.2534     -2809.2975      4339.0614     -137162.84    
     37900   2505.6797      3926.0054      4308.4011     -137160.33    
     38000   2586.4429      6683.3556      4284.8749     -137163.39    
     38100   2323.1342      6529.8943      4303.4005     -137161.82    
     38200   2184.4287     -9377.8004      4331.0556     -137159.87    
     38300   2633.018       6070.8713      4305.3589     -137162.75    
     38400   2552.8528      9475.0287      4311.8293     -137159.07    
     38500   2387.4329     -3967.2045      4362.3955     -137157.67    
     38600   2588.4996     -12310.904      4392.5443     -137163.94    
     38700   2492.2591     -3701.8232      4380.0889     -137160.95    
     38800   2460.3357      13306.812      4360.4336     -137155.83    
     38900   2711.4076     -6387.5459      4392.1784     -137158.2     
     39000   2583.5677     -6367.5129      4415.9354     -137159.42    
     39100   2457.2209      2314.8524      4406.4811     -137162.21    
     39200   2396.2982      2339.1694      4394.5157     -137160.62    
     39300   2403.8662     -1270.2548      4389.5947     -137158.37    
     39400   2678.413       7761.7096      4396.0311     -137160.19    
     39500   2743.2371      3127.1231      4443.3626     -137151.52    
     39600   2621.209      -26.871005      4487.764      -137153.38    
     39700   2390.2154     -9510.3798      4515.5958     -137153.19    
     39800   2684.8546     -1448.5037      4461.3005     -137161.05    
     39900   2535.0449      368.17281      4379.2874     -137159.95    
     40000   2337.5265      3492.4306      4317.9464     -137162.2     
     40100   2393.6195      1992.3943      4285.5667     -137166.91    
     40200   2483.4062     -29.72078       4294.7398     -137163.87    
     40300   2484.2209      7137.8161      4321.0575     -137158.64    
     40400   2634.1971      1234.2189      4376.224      -137164.57    
     40500   2351.6966     -6088.7171      4452.1919     -137159.93    
     40600   2301.4174     -4874.422       4503.4114     -137152.53    
     40700   2779.8003     -18214.812      4503.4887     -137159.02    
     40800   2593.4476     -11512.966      4428.1543     -137157.26    
     40900   2479.424       6365.6774      4302.6322     -137159.39    
     41000   2580.106       4413.9405      4217.0551     -137166.52    
     41100   2385.5462      9618.6898      4200.8243     -137166.06    
     41200   2367.7403      53.15155       4222.9725     -137165.68    
     41300   2640.7386      8035.723       4240.2219     -137163.09    
     41400   2597.1237      3397.9219      4287.3685     -137161.52    
     41500   2431.8105      4011.7005      4365.4068     -137163.34    
     41600   2473.113      -12670.145      4443.541      -137165.57    
     41700   2354.2949     -252.92177      4460.9466     -137155.07    
     41800   2582.6347     -9192.0877      4441.2802     -137156.79    
     41900   2549.0497      3433.3912      4391.2004     -137158.29    
     42000   2369.681       5373.3883      4360.8938     -137156.65    
     42100   2467.2439     -1439.0285      4352.9682     -137157.59    
     42200   2815.6004      2190.6522      4366.8625     -137158.98    
     42300   2709.0174     -11418.873      4427.0346     -137157.52    
     42400   2370.4585     -5270.9967      4428.244      -137156.94    
     42500   2488.1775      6505.4761      4370.246      -137161.01    
     42600   2289.2491      12115.238      4333.3227     -137154       
     42700   2474.2304      12521.454      4365.5557     -137152.38    
     42800   2786.0129     -12631.478      4454.0258     -137154.89    
     42900   2647.7498     -6472.4897      4494.8505     -137153.81    
     43000   2403.784      -14254.537      4461.4669     -137159.18    
     43100   2386.0207     -2158.1973      4344.0611     -137159.72    
     43200   2581.1317      10359.243      4239.7717     -137161.36    
     43300   2557.3025      7464.4181      4212.3179     -137162.81    
     43400   2410.3876     -480.22249      4250.0882     -137165.6     
     43500   2332.6529     -5341.6567      4291.7937     -137165.59    
     43600   2450.3606      2372.6627      4316.8525     -137160.48    
     43700   2537.4198     -2201.3118      4361.9125     -137156.42    
     43800   2639.7792     -4930.0329      4408.7011     -137159.67    
     43900   2381.6382      3573.2517      4445.4327     -137156.84    
     44000   2268.2703     -12494.722      4473.1853     -137158.51    
     44100   2443.777      -2175.6089      4441.8206     -137157.92    
     44200   2666.1671      3944.8871      4401.098      -137156.51    
     44300   2621.6822     -3011.328       4378.6176     -137160.52    
     44400   2357.1644     -1326.8768      4375.2381     -137158.18    
     44500   2463.5207     -4415.1758      4378.9461     -137160.59    
     44600   2511.9444      7814.3431      4364.4053     -137154.55    
     44700   2675.4699      9153.5891      4373.6025     -137151.76    
     44800   2647.6742      401.31669      4422.3161     -137157.59    
     44900   2499.4038      1400.9174      4478.0491     -137155.87    
     45000   2582.4003     -924.8479       4527.064      -137159.53    
     45100   2373.4674     -13910.824      4551.0567     -137156.95    
     45200   2311.8155     -5022.5923      4496.7724     -137154.06    
     45300   2750.1392      12643.142      4387.3409     -137157.15    
     45400   2564.1899      8902.7945      4306.8668     -137155.68    
     45500   2592.8526      9866.212       4256.9802     -137162.67    
     45600   2419.6713      9682.1187      4268.9477     -137160.1     
     45700   2522.3626      996.46696      4331.6713     -137161.76    
     45800   2575.3843     -6446.0528      4418.4996     -137160.51    
     45900   2687.3259     -9284.6814      4518.0029     -137153.92    
     46000   2852.1833     -11417.134      4571.9349     -137155.14    
     46100   2596.5991     -13206.733      4561.2821     -137154.65    
     46200   2605.5056     -3980.6705      4484.6427     -137157.81    
     46300   2663.3884      8859.4702      4382.4731     -137162.8     
     46400   2398.0099      5962.8316      4319.2657     -137160.01    
     46500   2395.5323      2877.6015      4269.7936     -137161       
     46600   2673.1111     -1694.4434      4242.9428     -137168.12    
     46700   2408.109       5302.5547      4262.6639     -137162.99    
     46800   2414.8157     -2546.3367      4312.0898     -137161.31    
     46900   2667.4622      1360.1202      4363.816      -137155.67    
     47000   2505.1214      2165.7499      4453.5778     -137152.77    
     47100   2377.5121     -8027.2466      4531.1175     -137153.14    
     47200   2605.4916     -11199.427      4524.2685     -137160.69    
     47300   2489.8159     -11581.346      4451.5939     -137158.09    
     47400   2589.3072      3939.0395      4327.3161     -137160.79    
     47500   2374.6174      15258.283      4233.0525     -137159.11    
     47600   2370.5873      3788.6107      4221.3558     -137164.63    
     47700   2244.7388      11937.007      4248.2132     -137161.55    
     47800   2505.545      -497.77535      4302.8625     -137158.67    
     47900   2543.4302     -9070.4722      4345.3181     -137156.91    
     48000   2554.4504      2837.5139      4357.9582     -137159.96    
     48100   2508.9331     -3416.6637      4397.8808     -137163.48    
     48200   2362.7767     -8855.3039      4441.6713     -137163.7     
     48300   2311.3125     -7926.5268      4430.4191     -137165       
     48400   2465.485       3677.3354      4358.188      -137160.73    
     48500   2604.2904      12814.84       4310.6563     -137158.7     
     48600   2642.0151      3488.0789      4355.2429     -137159.62    
     48700   2379.2207     -3897.149       4449.412      -137158.4     
     48800   2354.0603     -8649.0991      4505.9341     -137159.53    
     48900   2688.9702      2689.588       4497.2495     -137158.33    
     49000   2657.4078      1687.0907      4474.8795     -137156.22    
     49100   2690.313      -6275.1136      4455.7674     -137163.02    
     49200   2436.3213      3680.6838      4410.1073     -137160.99    
     49300   2305.9997     -5555.8649      4366.2643     -137157.5     
     49400   2635.7835      13202.648      4304.1203     -137161.02    
     49500   2851.1282      7763.584       4289.3867     -137157.89    
     49600   2633.2972      6615.6242      4325.3454     -137159.47    
     49700   2451.3863     -3296.798       4392.2908     -137162.15    
     49800   2346.8756     -3627.4221      4426.2178     -137157.98    
     49900   2446.015       2659.1808      4442.7689     -137154.28    
     50000   2700.4305     -9906.2914      4445.1306     -137158.08    
     50100   2494.1343     -5756.1434      4389.3296     -137157.6     
     50200   2352.9197      6396.0355      4318.688      -137161.91    
     50300   2206.9559      454.38001      4259.0555     -137158.36    
     50400   2562.7975      10335.141      4212.2424     -137164.38    
     50500   2536.5849      12617.092      4237.6045     -137163.42    
     50600   2460.474       3332.0558      4315.2954     -137164.44    
     50700   2329.235      -9450.5702      4420.4438     -137164.05    
     50800   2574.9032     -15413.177      4495.6578     -137162.33    
     50900   2699.6642     -15357.148      4482.9309     -137159.1     
     51000   2673.2985     -769.43621      4397.275      -137158.99    
     51100   2459.5618      10675.053      4298.2518     -137161.01    
     51200   2380.1115      206.62862      4249.8774     -137163.24    
     51300   2411.3885      16716.17       4239.303      -137161.8     
     51400   2561.5742     -3157.8177      4291.8137     -137161.92    
     51500   2588.7782      1701.1912      4362.8983     -137161.1     
     51600   2364.0614     -3882.2867      4437.3051     -137155.85    
     51700   2403.4683     -5726.9426      4483.7014     -137154.67    
     51800   2617.3347     -18526.139      4475.8125     -137156.87    
     51900   2569.5514      12278.623      4390.9482     -137155.81    
     52000   2261.1913      1488.8152      4331.6876     -137159.18    
     52100   2495.022       2374.4124      4287.8725     -137166.67    
     52200   2474.4104      660.66391      4261.5381     -137164.65    
     52300   2650.8878      550.25356      4249.8209     -137166.74    
     52400   2422.7158      14486.622      4276.67       -137160.44    
     52500   2456.3069     -5408.3191      4359.203      -137158.78    
     52600   2633.1126     -5171.7957      4410.6516     -137158.77    
     52700   2720.3425     -14290.433      4442.7944     -137158.82    
     52800   2519.4816      6120.0544      4426.5155     -137158.72    
     52900   2251.5695     -1284.4034      4421.8796     -137158.97    
     53000   2344.0442      4854.5774      4408.7923     -137158.76    
     53100   2583.4209     -164.02298      4380.0673     -137162.19    
     53200   2458.8107      8200.3967      4334.9383     -137160.24    
     53300   2395.8654      7255.8632      4312.8345     -137160.5     
     53400   2450.4302      5774.1494      4319.5084     -137163.07    
     53500   2524.2472     -4945.0885      4372.5842     -137162.81    
     53600   2731.1034      8728.035       4430.8878     -137156.65    
     53700   2564.0042     -8997.591       4520.2665     -137154.12    
     53800   2476.4204     -11105.17       4562.5137     -137156.04    
     53900   2420.5573     -19726.498      4533.4468     -137156.94    
     54000   2650.4404      1448.8547      4419.4511     -137156.68    
     54100   2974.2185      8308.219       4321.9503     -137158.35    
     54200   2645.9406      8600.3522      4324.0155     -137160.12    
     54300   2408.6507     -11951.641      4408.3086     -137158.11    
     54400   2530.6269     -17870.121      4429.8391     -137161.55    
     54500   2619.4589     -1303.4322      4375.5786     -137160.16    
     54600   2629.0445      12883.107      4348.9542     -137157.44    
     54700   2464.3861      3528.3585      4376.9129     -137161.97    
     54800   2349.7175     -10263.068      4410.3314     -137162.38    
     54900   2385.1532     -3162.8094      4394.9935     -137158.97    
     55000   2520.3265     -735.25756      4367.6791     -137158.08    
     55100   2614.3229      5016.3276      4348.6603     -137160.15    
     55200   2565.6574      1279.7334      4357.3752     -137162.42    
     55300   2451.1294     -8387.9503      4375.8831     -137161.92    
     55400   2469.2003     -4237.5172      4338.0666     -137161.77    
     55500   2647.4855      11618.528      4269.862      -137162.16    
     55600   2469.2859      11018.022      4258.2489     -137157.78    
     55700   2305.8159     -9006.0587      4291.3324     -137161.91    
     55800   2286.4977     -9736.8267      4295.8768     -137159.5     
     55900   2541.3576      12951.992      4265.6164     -137162.62    
     56000   2619.9719     -7339.049       4286.3778     -137165.81    
     56100   2459.3534      1825.8505      4305.3715     -137163.91    
     56200   2142.2455      2165.2954      4347.3894     -137158.13    
     56300   2562.0906      459.53089      4393.1664     -137159.63    
     56400   2566.3262     -7469.0308      4433.6195     -137154.64    
     56500   2466.8267      2146.4889      4436.6357     -137152.57    
     56600   2478.6145     -5023.5578      4425.2922     -137159.35    
     56700   2369.4185     -5730.5661      4391.64       -137160.53    
     56800   2590.2929     -961.13367      4336.9683     -137162.61    
     56900   2726.9268      10251.619      4278.4752     -137156.67    
     57000   2604.6006     -2204.4207      4244.516      -137161.6     
     57100   2439.1445      12139          4233.8189     -137160.78    
     57200   2491.0475      182.80156      4303.9952     -137163.76    
     57300   2542.8604     -17188.408      4398.7733     -137163.6     
     57400   2604.5411     -8634.9773      4403.5885     -137158.73    
     57500   2689.3419      7480.5182      4366.9939     -137161.13    
     57600   2363.6175     -8595.6654      4369.441      -137161.81    
     57700   2516.2785     -3985.506       4352.8768     -137165.38    
     57800   2535.1785     -3297.8071      4349.8658     -137161.33    
     57900   2607.6178      524.60694      4340.3172     -137158.79    
     58000   2751.7516      2605.4244      4319.3822     -137161.79    
     58100   2379.7733      60.274081      4333.431      -137162.03    
     58200   2304.5002     -6493.6462      4365.1323     -137161.3     
     58300   2503.7229      2893.1638      4357.6962     -137160.36    
     58400   2526.8574      13784.698      4373.3333     -137157       
     58500   2408.0869     -7837.5113      4432.9296     -137153.9     
     58600   2690.2123     -2298.3034      4434.5935     -137162.73    
     58700   2190.7947     -11689.891      4411.2138     -137159.56    
     58800   2288.6094     -1695.5444      4320.6011     -137159.87    
     58900   2663.8301      19460.059      4223.2225     -137162.91    
     59000   2734.1251      625.66744      4222.5306     -137167.79    
     59100   2505.3846     -6434.8574      4266.1973     -137168.06    
     59200   2331.7747     -577.18158      4297.7708     -137161.56    
     59300   2545.069      -1895.0334      4310.3214     -137162.72    
     59400   2552.0559      8233.6568      4328.8375     -137161.09    
     59500   2434.5987     -7678.7614      4381.626      -137159.7     
     59600   2586.0121     -2894.7004      4398.5564     -137164.18    
     59700   2524.9485     -13332.166      4412.5048     -137157.7     
     59800   2767.7003      12532.052      4366.0402     -137153.01    
     59900   2756.9987      2494.6883      4356.9009     -137160.54    
     60000   2510.8133     -8633.6262      4389.065      -137160.09    
     60100   2412.5743      19.081221      4407.9994     -137159.28    
     60200   2379.6901      312.77221      4424.4241     -137156.22    
     60300   2677.3699     -2125.6736      4436.9213     -137158.33    
     60400   2677.9986     -3836.026       4427.8544     -137157.47    
     60500   2402.6544     -1647.2989      4376.8415     -137158.79    
     60600   2286.8913      3298.0374      4287.8164     -137158.62    
     60700   2635.6783      12963.54       4190.3425     -137164.05    
     60800   2703.6879      15264.588      4173.6132     -137163.67    
     60900   2503.4722     -521.26507      4255.2261     -137164.96    
     61000   2275.1083     -17203.02       4338.7944     -137162.77    
     61100   2391.0141      11940.288      4342.5155     -137161.11    
     61200   2674.4995     -1968.5801      4386.4066     -137162.24    
     61300   2617.509      -5571.6258      4436.268      -137162.55    
     61400   2399.8404     -7395.4704      4450.142      -137160.78    
     61500   2476.3355     -5474.1572      4421.0746     -137162.16    
     61600   2481.9861      2820.9511      4365.2876     -137160.37    
     61700   2568.0884      10393.701      4336.0671     -137161.14    
     61800   2563.3206     -5944.444       4368.7182     -137162       
     61900   2499.8742      1530.1947      4416.2681     -137159.96    
     62000   2213.4249     -1324.1726      4465.3901     -137150.71    
     62100   2451.998      -2430.7547      4471.5951     -137154.07    
     62200   2665.4354      1364.5295      4429.9793     -137160.37    
     62300   2382.756      -4154.0428      4406.2311     -137156.78    
     62400   2238.1977      1187.2108      4359.4035     -137158.69    
     62500   2320.413      -687.81754      4288.483      -137163.82    
     62600   2552.0746      5743.7594      4220.7079     -137164.3     
     62700   2694.5928      20728.456      4207.0329     -137162.98    
     62800   2536.8778     -3274.9429      4320.8568     -137163.89    
     62900   2297.4052     -19748.029      4456.1555     -137159.79    
     63000   2551.9406      4511.9131      4486.0815     -137156.23    
     63100   2640.5623     -6088.1761      4505.5843     -137155.08    
     63200   2610.7758     -13339.961      4479.1887     -137158.24    
     63300   2364.9513     -1182.9838      4381.1328     -137156.07    
     63400   2636.5535      8870.64        4273.8755     -137161.93    
     63500   2729.5055      3836.597       4240.1629     -137161.7     
     63600   2455.1173     -2621.9317      4245.1814     -137160.58    
     63700   2318.2921      3954.2338      4247.9358     -137161.82    
     63800   2420.7225      9625.0861      4289.4004     -137161.25    
     63900   2498.0795      11563.598      4366.9235     -137157.8     
     64000   2801.9714     -6443.2484      4457.649      -137158.08    
     64100   2672.0019     -2471.4477      4492.4198     -137149.42    
     64200   2544.94       -7383.193       4498.6453     -137156.17    
     64300   2307.293      -2795.8357      4468.4462     -137153.26    
     64400   2635.7254      1212.9503      4406.7143     -137158.76    
     64500   2622.2855      699.54939      4349.7726     -137163.16    
     64600   2380.5618      6070.0915      4316.492      -137163.28    
     64700   2316.8051      5970.3974      4316.4736     -137159.26    
     64800   2486.924      -1018.4141      4343.1085     -137159.46    
     64900   2535.2592      4092.0045      4371.8828     -137158.45    
     65000   2417.6433     -8222.9424      4406.564      -137156.82    
     65100   2506.3334     -12471.712      4399.8872     -137159.09    
     65200   2806.1438      10681.212      4350.4757     -137159.5     
     65300   2675.5399      6211.6535      4358.9732     -137157.89    
     65400   2370.3119     -2848.3676      4411.0123     -137158.6     
     65500   2437.8878     -898.74184      4435.7074     -137161.98    
     65600   2491.4199      1312.2923      4448.2743     -137158.94    
     65700   2592.9458      677.78257      4468.5728     -137154.88    
     65800   2589.2488      148.95665      4490.9944     -137153.63    
     65900   2358.8079     -2051.8842      4495.3497     -137159       
     66000   2219.713      -2415.2877      4461.4159     -137157.26    
     66100   2614.6082      1381.7887      4404.408      -137164.04    
     66200   2380.2184      13899.448      4354.0608     -137157.04    
     66300   2430.2456      11060.529      4344.174      -137161.57    
     66400   2302.6867     -9218.5444      4377.387      -137163.99    
     66500   2581.3967     -10708.468      4379.7237     -137167.95    
     66600   2461.5724     -2088.1834      4350.8498     -137156.59    
     66700   2626.7086     -1332.098       4307.4425     -137159.77    
     66800   2469.4786      12660.268      4270.3869     -137159.97    
     66900   2435.8913      7265.9443      4281.3775     -137164.11    
     67000   2424.4974     -5137.2334      4317.5152     -137163.19    
     67100   2370.1266     -51.912985      4327.7543     -137158.98    
     67200   2592.7034     -4400.9495      4328.9556     -137162.87    
     67300   2616.7203     -1296.6494      4325.1116     -137163.31    
     67400   2350.6683     -8832.0475      4317.8296     -137163.25    
     67500   2274.2736      9678.6769      4291.1334     -137164.56    
     67600   2492.9876      741.3026       4324.3016     -137161.47    
     67700   2529.2303     -694.5652       4381.648      -137158.86    
     67800   2509.1925      7.4170713      4434.2651     -137157.75    
     67900   2563.9711     -10769.546      4477.0843     -137158.44    
     68000   2647.2391     -2431.2321      4492.3006     -137158.3     
     68100   2379.6797     -13017.94       4474.6608     -137154.08    
     68200   2431.5938     -1354.5511      4369.3799     -137161.02    
     68300   2490.7698      4973.3151      4258.3562     -137166.66    
     68400   2334.9723      16559.965      4195.7928     -137165.66    
     68500   2362.3161      10513.349      4206.1314     -137165       
     68600   2653.2634     -435.86389      4267.6079     -137163.79    
     68700   2533.9842     -7533.9402      4363.0583     -137158.61    
     68800   2582.7946     -7621.7598      4445.1352     -137158.3     
     68900   2351.6817      2400.252       4477.0473     -137152.88    
     69000   2579.0991     -12098.93       4500.1738     -137158.26    
     69100   2678.7506      1283.3435      4497.5941     -137156.39    
     69200   2624.671      -7365.4293      4489.4896     -137156.47    
     69300   2390.5243     -8498.7314      4443.4691     -137157.01    
     69400   2513.3172      2862.2126      4344.46       -137164.05    
     69500   2228.7305      10135.753      4257.92       -137161.86    
     69600   2169.8917      9911.1634      4201.2984     -137165.33    
     69700   2455.2054      12219.648      4194.4274     -137166.31    
     69800   2479.5028      7739.982       4266.0905     -137160.7     
     69900   2593.9967     -3748.2782      4385.7431     -137161.35    
     70000   2540.586      -171.94117      4473.83       -137156.88    
     70100   2698.414      -6445.8378      4503.4034     -137157.86    
     70200   2635.701      -2656.711       4480.3027     -137153.63    
     70300   2494.1833     -74.800428      4423.2711     -137156.66    
     70400   2486.1298     -12425.157      4369.2709     -137162.4     
     70500   2496.0749     -206.38131      4289.0201     -137163.29    
     70600   2580.576       12157.17       4219.4709     -137163.65    
     70700   2628.2413      7553.124       4218.967      -137162.24    
     70800   2569.486       251.26966      4269.7377     -137162.08    
     70900   2388.5417     -12745.265      4325.797      -137163.83    
     71000   2267.5257      4727.6977      4332.6587     -137158.99    
     71100   2699.2989     -1008.255       4357.0893     -137162.51    
     71200   2640.7829     -803.94566      4408.0916     -137161.39    
     71300   2326.2692     -4547.4169      4466.2327     -137154.79    
     71400   2521.241      -8047.92        4491.3893     -137155.7     
     71500   2818.6844      1544.8554      4467.0827     -137156.14    
     71600   2649.6571     -1138.1156      4445.4062     -137156.72    
     71700   2576.1669      190.68359      4433.3972     -137158.7     
     71800   2549.6592     -7154.4002      4408.1121     -137160.61    
     71900   2532.3515     -5525.8356      4358.7585     -137162.86    
     72000   2350.7921     -3085.0161      4305.7719     -137161.36    
     72100   2631.8608      2105.8473      4276.4536     -137168.02    
     72200   2534.6518      5219.6053      4288.3285     -137160.95    
     72300   2562.5684     -987.43041      4318.6784     -137159.07    
     72400   2499.823      -4401.2911      4347.1127     -137156.57    
     72500   2482.8738     -10165.98       4329.2918     -137161.78    
     72600   2408.2304     -4809.3013      4266.409      -137166.86    
     72700   2486.2143      7099.0751      4196.7474     -137169.25    
     72800   2550.9168      1482.6569      4179.2634     -137165.98    
     72900   2807.319       12535.465      4200.4733     -137162.95    
     73000   2607.1663      3584.4019      4305.6124     -137162.06    
     73100   2398.9788     -3862.7505      4425.5958     -137158.55    
     73200   2527.123      -15374.148      4482.3488     -137160.63    
     73300   2541.4622     -5775.7746      4456.7441     -137159.21    
     73400   2666.9263     -2727.2498      4422.0843     -137158.85    
     73500   2690.4621     -572.33792      4390.9277     -137157.73    
     73600   2451.029      -4145.4854      4364.2808     -137158.39    
     73700   2338.8603      2409.7633      4324.6723     -137159.98    
     73800   2558.5773     -4567.9156      4304.9874     -137162.18    
     73900   2659.6481      9806.4971      4311.1301     -137160.74    
     74000   2408.7272     -7079.0259      4374.2712     -137158.05    
     74100   2277.75       -1396.1362      4389.2576     -137159.91    
     74200   2479.7409     -3293.0581      4367.2856     -137161.45    
     74300   2576.158       10004.593      4340.454      -137158.3     
     74400   2588.6228     -4184.2357      4356.2879     -137159.61    
     74500   2391.3828     -2567.5779      4376.8618     -137164.11    
     74600   2324.3509     -4677.9031      4393.7872     -137164.96    
     74700   2405.8313     -4477.5402      4380.4484     -137161.11    
     74800   2379.6716      5238.9442      4326.4389     -137156.32    
     74900   2660.2299      4480.7162      4284.2052     -137162.6     
     75000   2456.0129      2513.7402      4272.6152     -137162.98    
     75100   2230.6209      2247.0375      4290.5119     -137162.88    
     75200   2317.1251      399.69465      4344.6311     -137161.6     
     75300   2259.307      -9177.5205      4420.3394     -137154.8     
     75400   2482.6585     -8471.4198      4443.7466     -137156.09    
     75500   2685.0667      4836.4379      4410.2056     -137159.41    
     75600   2427.9857      2334.0024      4390.8622     -137159.31    
     75700   2271.9612      6115.4501      4368.5288     -137160       
     75800   2332.2405     -1600.1267      4341.4616     -137160.6     
     75900   2546.1197      766.90108      4299.4214     -137161.83    
     76000   2664.7978      6403.8414      4272.8925     -137164.79    
     76100   2467.2099      169.45916      4287.5777     -137162.26    
     76200   2428.2312      155.22179      4315.0464     -137162.24    
     76300   2571.1117      637.05771      4350.7181     -137164.65    
     76400   2676.7137     -8849.189       4398.8972     -137157.32    
     76500   2677.0114      5.5969654      4415.286      -137157.06    
     76600   2500.7002     -4338.189       4429.7609     -137160.69    
     76700   2604.1207     -10111.508      4410.2892     -137165.95    
     76800   2568.3739      1149.8757      4347.033      -137163.96    
     76900   2523.0708      11455.87       4274.8624     -137161.63    
     77000   2518.1809     -2507.281       4241.8884     -137164.47    
     77100   2294.3297      4987.3904      4240.7151     -137163.28    
     77200   2520.4408     -8358.7268      4254.2759     -137168.85    
     77300   2524.5228      21452.315      4256.541      -137162.04    
     77400   2672.7494      6008.7394      4362.9273     -137160.92    
     77500   2307.8455     -13299.837      4540.5368     -137151.78    
     77600   2451.4892     -7513.3778      4650.7157     -137152.67    
     77700   2294.1229     -10363.313      4659.446      -137145.66    
     77800   2546.6244     -1201.7953      4555.4299     -137152.76    
     77900   2496.1445      618.87838      4445.0573     -137155.06    
     78000   2580.5551      3147.0356      4367.9493     -137163.21    
     78100   2469.8699      3528.9398      4329.4553     -137162.68    
     78200   2528.8623      4615.4262      4336.7909     -137163.07    
     78300   2559.8715     -2776.9743      4351.4289     -137161.22    
     78400   2608.304      -90.29939       4339.8299     -137160.48    
     78500   2546.6725     -5251.2546      4329.9459     -137161.15    
     78600   2574.5861     -50.589099      4285.5096     -137169.52    
     78700   2413.1271     -4755.5361      4266.0133     -137168.57    
     78800   2393.3768      1614.7633      4251.5689     -137164.38    
     78900   2511.7245      20387.046      4254.1916     -137161.66    
     79000   2425.5895     -1168.9502      4342.7027     -137159.38    
     79100   2467.124      -9521.3256      4428.6078     -137158.26    
     79200   2475.0012     -2884.3233      4451.0992     -137155.08    
     79300   2688.4962      1086.456       4437.8323     -137154.21    
     79400   2653.8888     -240.49719      4414.8232     -137154.63    
     79500   2401.095       3790.7554      4386.3833     -137158.35    
     79600   2354.992       5253.2615      4346.7702     -137158.34    
     79700   2567.8455      2745.5324      4318.8926     -137163.27    
     79800   2318.2814     -900.6394       4308.0474     -137161.4     
     79900   2140.7535     -854.03953      4281.495      -137162.11    
     80000   2332.9441      11657.586      4221.3766     -137162.42    
     80100   2785.7571      18519.6        4225.81       -137166.97    
     80200   2436.715      -9779.876       4345.9602     -137160.91    
     80300   2299.0173     -732.04641      4435.5698     -137156.38    
     80400   2630.1451     -10092.801      4492.0027     -137156.66    
     80500   2680.0583     -6270.0587      4524.3845     -137155.12    
     80600   2648.0255     -4709.0784      4532.3902     -137158.4     
     80700   2488.8567     -5242.2773      4489.1271     -137159.06    
     80800   2358.5052     -8247.7181      4418.4596     -137155.9     
     80900   2652.3436     -2921.7586      4323.081      -137162.19    
     81000   2509.5791      11734.874      4228.0727     -137161.62    
     81100   2402.8162     -197.30265      4175.891      -137169.73    
     81200   2292.4912      14067.462      4174.7475     -137167.13    
     81300   2444.0355      6159.2101      4259.454      -137166.33    
     81400   2416.6552     -3867.7183      4385.4761     -137158.48    
     81500   2545.3806     -11391.381      4466.8896     -137155.94    
     81600   2513.981       1086.9357      4478.4726     -137154.5     
     81700   2431.3199     -9586.2318      4436.733      -137155.88    
     81800   2349.5621      11079.856      4339.9462     -137162.86    
     81900   2386.794       5208.7335      4312.9697     -137167.6     
     82000   2461.838      -4674.1999      4309.6401     -137166.68    
     82100   2343.1108      4161.0128      4291.828      -137157.6     
     82200   2501.9853      10723.909      4286.3852     -137160.84    
     82300   2463.6624      4379.6675      4349.7832     -137160.15    
     82400   2547.1771     -2972.9585      4437.0415     -137158.19    
     82500   2710.2562     -4442.9893      4501.5022     -137153.27    
     82600   2636.0302     -1125.3377      4527.5807     -137149.4     
     82700   2449.3726     -3476.3621      4496.779      -137154.75    
     82800   2467.63        361.81455      4434.4987     -137157.57    
     82900   2773.4222     -9048.7264      4376.5981     -137164.24    
     83000   2499.5725      7729.5127      4307.7769     -137157.95    
     83100   2427.6077      2817.7006      4275.1701     -137162.66    
     83200   2387.9325     -909.53935      4269.0179     -137165.55    
     83300   2455.7819      3443.9678      4260.1709     -137161.84    
     83400   2571.0466     -10805.471      4247.166      -137158.41    
     83500   2629.9087      7369.0964      4212.1517     -137162.45    
     83600   2399.2418      5414.7322      4217.5806     -137162.43    
     83700   2275.7194      2824.4556      4255.5287     -137159.42    
     83800   2613.6197      4494.6301      4292.1545     -137160.92    
     83900   2625.1378      118.72715      4339.2069     -137160.61    
     84000   2549.53       -8474.4903      4386.734      -137161.57    
     84100   2417.8507     -8070.5763      4403.1292     -137158.72    
     84200   2521.467      -4127.3148      4395.761      -137160.39    
     84300   2635.3346      5855.536       4387.7524     -137158.5     
     84400   2679.5058     -9946.0977      4414.1532     -137153.94    
     84500   2575.9931     -2007.5047      4416.1031     -137155.87    
     84600   2308.788       7225.357       4379.699      -137157.96    
     84700   2429.2742      680.57626      4342.9745     -137160.42    
     84800   2455.5954      4150.3841      4307.811      -137158.6     
     84900   2741.9893      5762.1233      4303.1395     -137160.76    
     85000   2672.3858     -3197.3945      4343.9883     -137159.28    
     85100   2449.68       -7628.6409      4376.5097     -137162.47    
     85200   2490.5808     -2404.4675      4363.622      -137162.36    
     85300   2554.3398     -4586.6899      4329.3977     -137159.91    
     85400   2567.7579      13047.811      4281.3224     -137158.31    
     85500   2684.4593      3187.9165      4307.4072     -137158.93    
     85600   2527.8492     -3721.8758      4369.9295     -137158.66    
     85700   2414.4588     -12141.416      4399.6669     -137160.45    
     85800   2489.6454     -4514.5622      4380.4884     -137159.96    
     85900   2714.2239      11897.738      4372.4533     -137159.86    
     86000   2599.1839     -4669.8066      4459.0026     -137157.22    
     86100   2345.6372     -18173.377      4558.9036     -137159.67    
     86200   2350.1342     -8042.9245      4546.6178     -137157.7     
     86300   2762.8308      6348.4868      4443.3471     -137162.78    
     86400   2516.5098      1187.3286      4362.9355     -137158.62    
     86500   2558.747       9494.1622      4319.8531     -137162.57    
     86600   2399.5795     -462.41816      4333.7666     -137165.31    
     86700   2141.051      -3921.9622      4350.4142     -137163.62    
     86800   2491.1882     -91.207489      4328.8739     -137162.02    
     86900   2553.5436      2249.2104      4322.5053     -137160.19    
     87000   2520.1626      4453.9365      4347.7586     -137161.26    
     87100   2434.4402     -8753.8355      4386.2548     -137162.32    
     87200   2155.9184     -9854.461       4369.486      -137154.6     
     87300   2462.4112      8769.2668      4282.0777     -137154.85    
     87400   2680.1766      8862.0262      4227.4542     -137160.03    
     87500   2502.9679      6843.2902      4237.5297     -137163.11    
     87600   2399.4667     -33.549126      4289.803      -137161.21    
     87700   2384.4883     -3996.6396      4341.408      -137159.25    
     87800   2610.7437      4760.1854      4371.6067     -137159.73    
     87900   2673.3236     -4100.4819      4416.9351     -137154.81    
     88000   2569.4407     -8322.0571      4436.8513     -137158.33    
     88100   2254.6963      2886.9115      4419.1497     -137156.15    
     88200   2575.1007      537.50249      4387.9008     -137162.81    
     88300   2749.1066     -4718.685       4373.2029     -137164.36    
     88400   2430.5522      1173.5288      4370.2183     -137156.11    
     88500   2268.2126     -1124.4309      4364.3054     -137158.44    
     88600   2320.7776      165.27856      4346.3392     -137161.9     
     88700   2661.1281      5413.5977      4338.5193     -137162.03    
     88800   2636.6015     -2013.7033      4374.209      -137160.21    
     88900   2475.0516     -9017.074       4420.3184     -137158.77    
     89000   2519.8116     -16376.319      4432.4737     -137161.22    
     89100   2497.7694     -3088.6593      4372.9104     -137160.64    
     89200   2427.3795      6685.1303      4279.9966     -137158.76    
     89300   2652.2724      6380.5503      4213.5862     -137165.6     
     89400   2412.5106      19806.486      4221.4087     -137165.76    
     89500   2151.3418     -3867.5323      4330.3568     -137161.14    
     89600   2476.8958     -3980.9256      4418.4853     -137161.5     
     89700   2402.9531     -641.53196      4471.2545     -137155.46    
     89800   2522.0684     -7623.5744      4477.9917     -137157.52    
     89900   2622.7969      6213.6817      4425.4391     -137158.35    
     90000   2665.7195      3113.7381      4385.5203     -137156.23    
     90100   2656.6637     -3571.4165      4355.3042     -137163.26    
     90200   2532.6033      1417.8892      4307.3044     -137167.52    
     90300   2585.0885      676.7741       4277.5197     -137169.13    
     90400   2450.8764     -2307.1321      4268.6748     -137163.74    
     90500   2718.5163      4403.7924      4260.1158     -137163.96    
     90600   2674.0833      8173.7785      4289.384      -137160.19    
     90700   2330.0466     -2942.7744      4350.967      -137159.84    
     90800   2464.3938     -6362.3584      4377.7471     -137165.01    
     90900   2393.8629     -2175.1266      4362.3789     -137160.49    
     91000   2581.182       7551.692       4319.2419     -137161.16    
     91100   2525.7929      6136.9982      4286.5326     -137160.43    
     91200   2557.5556      6736.9427      4287.2024     -137164.23    
     91300   2405.7035     -4549.5188      4326.7294     -137159.79    
     91400   2492.3325      3656.9194      4330.1595     -137159.99    
     91500   2657.7245      1532.1393      4341.8925     -137161.78    
     91600   2445.9848     -9128.7781      4376.9686     -137159.7     
     91700   2404.9712     -7282.7073      4375.081      -137167.24    
     91800   2288.7709      10916.479      4349.3199     -137164.15    
     91900   2544.6313      3812.2936      4356.691      -137163.85    
     92000   2588.1559      1001.7573      4374.3025     -137162.63    
     92100   2429.191      -1646.5502      4404.9722     -137157.08    
     92200   2513.5509      1619.7207      4415.6664     -137157.62    
     92300   2623.9284     -2537.0656      4420.8686     -137156.23    
     92400   2733.6206      854.49878      4419.7099     -137158.65    
     92500   2440.7924      5393.2714      4418.085      -137160.32    
     92600   2268.0197      2750.5932      4430.8707     -137159.74    
     92700   2384.0463     -3955.2081      4456.1778     -137158.79    
     92800   2673.0577     -41.246997      4458.1214     -137160.41    
     92900   2407.9978      1258.291       4448.2155     -137154.79    
     93000   2380.6286     -4946.5265      4418.3208     -137154.47    
     93100   2502.8241      12146.63       4367.3541     -137156.03    
     93200   2554.6326     -6812.6961      4373.4445     -137159.48    
     93300   2342.2788     -14240.73       4360.439      -137161.61    
     93400   2176.7705     -4254.7866      4281.9976     -137167.47    
     93500   2370.8471      8994.543       4181.2443     -137169.61    
     93600   2386.8148      12633.499      4120.7501     -137164.84    
     93700   2379.7225      21166.019      4129.9372     -137162.34    
     93800   2691.8197      3206.1359      4244.6432     -137166.81    
     93900   2515.2064     -8773.9832      4379.6715     -137160.66    
     94000   2340.6673     -12518.829      4431.7885     -137156.57    
     94100   2715.8044     -10061.608      4400.8607     -137162.58    
     94200   2699.15        10699.8        4350.331      -137159.07    
     94300   2406.9476      5395.3122      4351.7974     -137157.72    
     94400   2445.15       -4533.1736      4369.9377     -137164.28    
     94500   2280.5238      4282.5623      4355.6379     -137158.25    
     94600   2584.775       4598.7114      4339.8186     -137163.14    
     94700   2484.1854      8333.5846      4370.8247     -137160.33    
     94800   2449.4356     -8915.0532      4434.2384     -137157.42    
     94900   2585.2084     -6417.6689      4438.9811     -137155.29    
     95000   2815.559       976.45837      4410.6311     -137155.45    
     95100   2625.7192      7897.092       4397.8706     -137156.04    
     95200   2504.8396     -3201.5614      4428.0532     -137160.73    
     95300   2425.6491     -4162.2055      4458.9075     -137160.24    
     95400   2421.5237      865.95729      4458.2811     -137156.57    
     95500   2766.5977      114.4299       4455.0542     -137159.66    
     95600   2514.6145      1568.1487      4479.2678     -137155.61    
     95700   2405.5341     -6004.0268      4492.6964     -137163.21    
     95800   2245.9782     -14848.974      4456.6282     -137159.78    
     95900   2598.1986     -269.05232      4343.0433     -137163.56    
     96000   2520.1921      13768.298      4232.0873     -137160.13    
     96100   2442.9482      9079.7328      4193.2462     -137161.97    
     96200   2258.7036      941.65764      4227.8493     -137162.54    
     96300   2308.8043     -4916.2517      4277.9632     -137165.24    
     96400   2468.3979      6541.8306      4301.7031     -137160.15    
     96500   2659.4337     -4527.9214      4348.5924     -137159.16    
     96600   2668.505      -5536.6716      4399.551      -137159.91    
     96700   2427.2206     -8917.911       4417.8726     -137160.26    
     96800   2307.1504     -4060.5677      4387.4218     -137159.84    
     96900   2417.4761      2915.0897      4340.6659     -137158.03    
     97000   2798.5296      6248.5874      4325.1415     -137160.64    
     97100   2617.0802     -3117.7621      4361.8605     -137159.71    
     97200   2287.8708     -4744.4571      4393.0692     -137154.93    
     97300   2411.499      -4038.2068      4386.0558     -137157.01    
     97400   2710.371      -2117.3507      4349.458      -137160.71    
     97500   2629.8182      6777.0207      4302.717      -137161.59    
     97600   2464.0996     -9652.6028      4282.491      -137166.16    
     97700   2385.2049      2917.5059      4267.4002     -137163.22    
     97800   2587.6892      526.82476      4296.8229     -137163.77    
     97900   2567.5268     -1316.7778      4339.3407     -137163.59    
     98000   2414.0973     -8662.3353      4397.4763     -137164.23    
     98100   2268.4177     -8118.8073      4410.1974     -137167.57    
     98200   2349.2574      2014.3496      4340.0193     -137165.3     
     98300   2628.758       10218.062      4257.3077     -137165.16    
     98400   2506.1441      13857.916      4252.6084     -137162.49    
     98500   2351.1         2589.5341      4330.5926     -137159.61    
     98600   2602.5178     -5903.9753      4402.2064     -137160.8     
     98700   2790.3131     -3938.7424      4426.6318     -137160.33    
     98800   2405.1176     -451.3934       4412.1418     -137156.26    
     98900   2412.9638     -7913.1772      4386.0912     -137161.68    
     99000   2521.6964      689.42412      4323.859      -137163.98    
     99100   2577.2011      7100.8605      4258.9307     -137164.77    
     99200   2479.0016      10329.819      4249.6972     -137164.56    
     99300   2163.1312     -259.02926      4284.3674     -137162.07    
     99400   2483.1836     -5096.194       4312.2502     -137168.74    
     99500   2457.2164     -567.43906      4310.5539     -137158.66    
     99600   2549.6205      4042.7064      4285.6456     -137160.42    
     99700   2501.8641      5662.0907      4268.7687     -137163.08    
     99800   2314.9706      5044.3299      4304.3196     -137160.6     
     99900   2472.2984     -4934.7436      4380.0008     -137163.2     
    100000   2411.2242      965.05937      4425.407      -137153.83    
    100100   2698.7407     -4144.4446      4433.1612     -137156.92    
    100200   2455.9347     -2403.7784      4407.4048     -137155.67    
    100300   2486.6198      2937.4804      4361.4015     -137161.91    
    100400   2442.4135     -315.83944      4291.8858     -137162.81    
    100500   2444.3647      14591.042      4216.2104     -137161.49    
    100600   2739.2053      14631.216      4210.9826     -137164.23    
    100700   2669.6952     -1824.2995      4292.0247     -137165.11    
    100800   2256.8058     -6858.3953      4403.4061     -137158.2     
    100900   2490.7622     -16208.241      4471.5129     -137158.74    
    101000   2624.8458      1148.9357      4453.2729     -137156.37    
    101100   2690.6039     -2268.455       4402.08       -137160.45    
    101200   2400.5774      2751.3942      4345.0421     -137158.15    
    101300   2503.8629      14195.549      4322.6055     -137163.59    
    101400   2438.479      -5993.2785      4370.7681     -137163.99    
    101500   2265.4919     -11912.902      4372.7243     -137162.4     
    101600   2552.3651     -1908.0802      4295.7383     -137165.32    
    101700   2626.5704      5952.3134      4226.4737     -137161.66    
    101800   2743.5498      413.12991      4196.009      -137167.6     
    101900   2402.0706      6463.117       4207.357      -137166.28    
    102000   2295.5856      10918.394      4268.2182     -137164.52    
    102100   2421.9128     -4033.2161      4368.1439     -137163.62    
    102200   2492.8005     -16442.179      4450.929      -137160.25    
    102300   2538.8934     -3765.1785      4440.9642     -137158.13    
    102400   2517.2034      7759.077       4362.6776     -137158.01    
    102500   2554.1778     -9278.9716      4301.1504     -137163.08    
    102600   2317.9972      1482.2383      4238.5754     -137165.05    
    102700   2446.2695      7628.7255      4197.9097     -137169.08    
    102800   2453.0227      10920.397      4212.0129     -137163.29    
    102900   2626.5709      7837.3822      4300.9731     -137157.78    
    103000   2693.8808     -9898.3876      4454.2872     -137162.14    
    103100   2265.9001     -16255.601      4548.78       -137154.01    
    103200   2516.756      -8724.8713      4529.7122     -137156.48    
    103300   2704.2976      9960.5589      4427.2346     -137155.79    
    103400   2917.0567      8887.1003      4367.204      -137160.81    
    103500   2468.7557     -4783.3229      4365.7264     -137161.9     
    103600   2396.5294     -2445.1193      4318.9122     -137164.26    
    103700   2484.4854      17025.086      4243.4477     -137163.95    
    103800   2564.5806      1041.8055      4238.3533     -137162.14    
    103900   2598.63        9988.4734      4279.2038     -137162.92    
    104000   2343.7903     -4975.858       4365.4186     -137163.22    
    104100   2306.2546     -8564.6364      4420.7377     -137161.47    
    104200   2666.8618     -9292.5267      4398.7137     -137161.51    
    104300   2656.8603      4586.2675      4335.7948     -137161.66    
    104400   2465.786      -3347.1574      4322.3439     -137162.07    
    104500   2535.1351     -604.10326      4299.919      -137167.77    
    104600   2313.5509      13517.625      4288.8309     -137162.18    
    104700   2698.4736      4368.4839      4337.2228     -137162.09    
    104800   2643.6474      2873.4841      4414.1511     -137157.88    
    104900   2360.7863     -426.0529       4504.6853     -137153.12    
    105000   2476.3812     -21633.986      4557.9808     -137154.84    
    105100   2737.6052     -6857.9633      4504.6467     -137154.05    
    105200   2749.2006     -2396.5104      4412.7466     -137154.74    
    105300   2516.2396      1693.6068      4294.3087     -137158.75    
    105400   2438.1608      17134.61       4206.6257     -137160.56    
    105500   2313.6356      11689.441      4222.135      -137162.4     
    105600   2379.2281     -4663.2783      4298.8452     -137163.44    
    105700   2702.3961     -3453.8988      4349.1702     -137163.53    
    105800   2578.3968     -2952.5535      4384.4602     -137159.39    
    105900   2398.478      -14230.273      4395.5007     -137157.01    
    106000   2586.9495      2334.0495      4344.945      -137161.37    
    106100   2342.8895      12676.574      4307.1863     -137158.07    
    106200   2310.4866      2445.6442      4324.2075     -137169.07    
    106300   2189.2863     -2077.8984      4366.0275     -137163.7     
    106400   2528.7337     -127.5941       4391.8377     -137164.72    
    106500   2491.5275     -161.37508      4420.0453     -137158.07    
    106600   2448.6075      2144.1368      4440.1435     -137154.08    
    106700   2588.0783     -15651.438      4440.1338     -137160.3     
    106800   2281.1402     -5520.0596      4385.3268     -137159.68    
    106900   2555.0572      3150.2935      4325.1195     -137169.91    
    107000   2286.407       8141.8353      4302.0157     -137160.82    
    107100   2511.1261      12186.574      4314.4708     -137156.87    
    107200   2581.9164      2335.5769      4351.7792     -137158.31    
    107300   2401.4162      9413.9343      4381.4977     -137159.84    
    107400   2238.6976     -8995.2256      4414.5095     -137159.01    
    107500   2473.9196     -956.17682      4397.6279     -137161.65    
    107600   2570.9866      1410.9795      4359.4466     -137162.31    
    107700   2436.5668      1830.4077      4335.3651     -137158.37    
    107800   2552.4432     -4436.06        4315.4289     -137162.16    
    107900   2472.2012      4048.6378      4288.5516     -137165.43    
    108000   2128.6963     -1322.3204      4279.014      -137163.02    
    108100   2494.5795     -5120.136       4262.2231     -137166.8     
    108200   2560.0653      8813.4047      4254.3807     -137164.79    
    108300   2489.9595      6302.3501      4310.2014     -137163.85    
    108400   2393.307      -2298.4404      4399.7578     -137160.29    
    108500   2390.1761     -4369.4587      4457.2305     -137148.7     
    108600   2559.7015      7145.4914      4464.3927     -137150.96    
    108700   2632.0564     -6076.462       4467.7203     -137155.27    
    108800   2500.4558     -1224.0251      4447.0358     -137158.58    
    108900   2499.8149     -5140.7947      4427.6819     -137165.42    
    109000   2373.1939     -82.336181      4396.8446     -137161.93    
    109100   2490.9779      4994.9745      4363.5767     -137161.45    
    109200   2640.1125     -11164.556      4350.4326     -137161.96    
    109300   2636.6273      2022.6063      4327.107      -137162.16    
    109400   2235.6696     -4522.1698      4335.5071     -137162.8     
    109500   2307.1516      194.88328      4332.5691     -137164.2     
    109600   2583.2605     -1943.1754      4321.2041     -137164.73    
    109700   2532.3659      5787.1377      4326.5512     -137160.89    
    109800   2501.6713      4477.502       4375.7186     -137158.11    
    109900   2415.0317     -1035.2959      4437.3799     -137151.81    
    110000   2652.8397      3586.3989      4479.963      -137152.53    
    110100   2441.3858     -1757.0826      4529.8223     -137152.51    
    110200   2354.273      -7013.8477      4528.5703     -137156.9     
    110300   2545.6588      1.3505095      4451.1344     -137161.85    
    110400   2428.6211      7003.2679      4371.8712     -137158.49    
    110500   2402.475       3007.5715      4326.5379     -137161.27    
    110600   2219.2196      3670.8226      4300.2154     -137163.65    
    110700   2463.9305      1888.9576      4282.5766     -137167.06    
    110800   2552.2401      2909.6707      4309.4326     -137161.36    
    110900   2668.461      -3943.5623      4351.1643     -137163.57    
    111000   2483.2777      3125.8632      4383.118      -137159.61    
    111100   2481.2399     -1461.483       4415.0123     -137157.97    
    111200   2681.0269     -8995.5909      4422.3306     -137155.96    
    111300   2739.8435      4013.5836      4400.1908     -137156.24    
    111400   2408.6444     -62.848326      4399.7898     -137156.85    
    111500   2517.5562     -8082.0724      4392.6972     -137162.13    
    111600   2305.5514      6054.6843      4350.8676     -137156.16    
    111700   2763.7741      2121.5985      4322.6033     -137162.34    
    111800   2717.0605      6875.803       4326.6646     -137162.74    
    111900   2307.5556     -268.05075      4365.9907     -137163.47    
    112000   2287.4177     -2753.142       4381.2696     -137162.64    
    112100   2419.9439     -1551.8107      4374.0815     -137159.09    
    112200   2633.6749     -2735.8782      4361.7492     -137159.65    
    112300   2432.814       10455.385      4335.9304     -137156.87    
    112400   2497.9786     -375.60605      4364.0017     -137162.93    
    112500   2258.1642     -3204.7308      4403.5906     -137163.03    
    112600   2167.4303     -4417.7682      4381.1214     -137166.06    
    112700   2338.2832      14073.307      4316.6303     -137162.77    
    112800   2646.9246      9017.1247      4305.8169     -137164.74    
    112900   2509.2545     -274.29589      4337.3086     -137161.42    
    113000   2343.951      -2088.0025      4356.3904     -137159.83    
    113100   2394.3799     -8865.9897      4357.5299     -137166.47    
    113200   2238.1008     -9804.6713      4304.1735     -137164.75    
    113300   2629.3899      10496.403      4197.5487     -137164.8     
    113400   2602.2418      16753.926      4148.1764     -137164.36    
    113500   2385.7009      4478.2466      4205.128      -137165.1     
    113600   2269.587      -3646.9089      4305.3782     -137163.22    
    113700   2444.3251      2999.995       4383.631      -137160.27    
    113800   2478.4789     -6306.9518      4434.4283     -137156.89    
    113900   2502.9693      783.53411      4412.9649     -137156.67    
    114000   2492.8921      8730.4667      4375.3928     -137156.69    
    114100   2370.7443      3166.6825      4372.5687     -137158.36    
    114200   2286.7363     -6835.2371      4370.2866     -137162.29    
    114300   2426.3995      3799.9709      4315.896      -137165.67    
    114400   2619.0797      9876.1793      4288.3105     -137160.29    
    114500   2684.552       6190.377       4330.7427     -137160.44    
    114600   2418.0316     -3662.7918      4397.8287     -137157.92    
    114700   2357.385      -6723.0767      4412.299      -137158.72    
    114800   2394.9954     -3340.8841      4385.1018     -137158.24    
    114900   2545.5937      213.80567      4323.553      -137161.48    
    115000   2359.8165      15945.593      4269.6157     -137158.92    
    115100   2476.3387      2897.8029      4291.8993     -137162.6     
    115200   2663.5971     -2514.7061      4349.444      -137164.13    
    115300   2748.2076      11302.344      4424.839      -137157.04    
    115400   2738.2979     -17146.058      4546.6962     -137158.54    
    115500   2469.0611     -18800.136      4602.5375     -137158.74    
    115600   2468.7661     -12313.634      4561.2203     -137159.55    
    115700   2603.3254     -9957.3966      4463.4537     -137161.86    
    115800   2565.9179      16836.965      4353.4967     -137159.87    
    115900   2586.8534     -8377.2376      4326.6223     -137164.26    
    116000   2372.284      -1544.3492      4307.2239     -137166.39    
    116100   2631.0132     -3305.575       4301.8561     -137170.3     
    116200   2727.3862     -3192.0075      4305.8182     -137166.96    
    116300   2574.1264     -2793.1771      4304.3195     -137164.24    
    116400   2552.7658     -1474.0106      4289.1274     -137163.21    
    116500   2530.1493      6588.3754      4287.353      -137159.73    
    116600   2722.5989     -2170.7093      4353.8305     -137160.48    
    116700   2647.3        -5795.3454      4432.822      -137155.96    
    116800   2434.9821     -14914.047      4464.9669     -137156.46    
    116900   2429.5476     -6294.3649      4419.2214     -137160.87    
    117000   2489.1174      1229.4445      4346.8016     -137161.54    
    117100   2606.9162      12982.047      4293.8756     -137157.36    
    117200   2658.045      -290.81691      4303.8372     -137159.49    
    117300   2364.6203      3034.6926      4338.4705     -137160.21    
    117400   2374.0639     -3202.0462      4364.8215     -137161.82    
    117500   2484.4899     -265.62279      4356.4564     -137161.88    
    117600   2671.8752      9765.8445      4350.5908     -137159.92    
    117700   2756.6769     -7314.9973      4381.7997     -137155.98    
    117800   2762.9205     -3341.2425      4396.2304     -137157.31    
    117900   2478.1371     -3775.311       4411.6087     -137160.06    
    118000   2407.5419     -7309.179       4403.7199     -137162.12    
    118100   2483.6525      4467.1238      4347.3546     -137163.18    
    118200   2586.2421      8120.7282      4295.427      -137162.19    
    118300   2632.5877      10699.319      4291.9394     -137165.04    
    118400   2297.3094     -9947.4735      4340.8667     -137163.53    
    118500   2420.7876     -5828.7038      4352.0498     -137163.14    
    118600   2680.6878      7493.552       4335.5805     -137163.96    
    118700   2561.76        1201.7224      4378.7737     -137161.78    
    118800   2428.289      -11669.056      4439.252      -137159.2     
    118900   2568.5915     -688.75694      4432.4702     -137160.23    
    119000   2929.4948     -2703.8085      4420.4209     -137160.59    
    119100   2734.1738      582.8506       4452.3443     -137159.21    
    119200   2209.9666     -15067.827      4503.5049     -137151.69    
    119300   2342.731       6143.6122      4448.1584     -137152.99    
    119400   2661.8962      14131.011      4341.0508     -137158.21    
    119500   2572.6862     -2798.4652      4280.4602     -137160.65    
    119600   2510.1961      1808.8332      4266.6824     -137166.95    
    119700   2259.6556     -1925.2926      4277.8402     -137159.82    
    119800   2356.0525      10167.189      4289.0101     -137157.14    
    119900   2531.0861      4540.7192      4343.0396     -137158.65    
    120000   2477.3822     -8325.7003      4432.1527     -137158.88    
    120100   2529.7478     -9916.8772      4493.8663     -137160.93    
    120200   2522.4319     -6490.4091      4511.4605     -137155.3     
    120300   2758.4554     -8746.4388      4472.0338     -137157.94    
    120400   2687.2718      3155.5639      4383.6116     -137162.89    
    120500   2354.9467      8651.248       4323.0654     -137159.53    
    120600   2522.7502     -6735.7359      4305.8269     -137162.99    
    120700   2668.4839      2886.7883      4271.8652     -137164.69    
    120800   2524.4933      4353.4794      4280.4446     -137159.6     
    120900   2503.5259     -3752.4411      4329.8256     -137160.44    
    121000   2523.6207     -7815.0326      4390.2583     -137164.82    
    121100   2383.2621     -4647.2615      4446.6755     -137161.41    
    121200   2461.2384     -1237.8442      4454.7495     -137154.84    
    121300   2787.0071     -8865.4343      4449.4534     -137160.06    
    121400   2572.363       363.9248       4432.1228     -137160.55    
    121500   2463.3851     -11477.355      4400.0989     -137161.68    
    121600   2566.3465      10683.756      4313.2941     -137163.56    
    121700   2599.6271      8087.768       4263.214      -137162.96    
    121800   2448.5217      8746.8963      4251.7431     -137165.79    
    121900   2188.1707      1987.2927      4287.993      -137164.04    
    122000   2263.3305      2454.4861      4342.5801     -137159.32    
    122100   2513.7006     -914.4131       4402.6416     -137159.72    
    122200   2510.9821     -4349.14        4428.1042     -137157.34    
    122300   2746.244      -4780.4368      4419.8499     -137162.55    
    122400   2637.6322     -5117.9451      4419.2177     -137165.38    
    122500   2291.3803     -5280.045       4415.6087     -137162.04    
    122600   2421.357       3001.3306      4365.2663     -137162.62    
    122700   2539.8468      11740.549      4314.9769     -137160.41    
    122800   2587.1671      11484.715      4324.865      -137161.36    
    122900   2507.132      -1486.3618      4369.0393     -137160.82    
    123000   2443.9463     -2506.9752      4384.1719     -137160.14    
    123100   2459.4414     -1551.3372      4374.4138     -137160.92    
    123200   2463.9376     -2843.719       4377.1736     -137158.89    
    123300   2616.571       7384.9047      4374.2087     -137159.58    
    123400   2545.5285      6030.4587      4389.573      -137162.1     
    123500   2310.4493     -2454.9605      4427.7753     -137161.22    
    123600   2287.629      -5263.2687      4440.5529     -137157.65    
    123700   2636.4562      6847.6339      4407.4075     -137157.49    
    123800   2333.5776      12381.547      4395.0269     -137153.26    
    123900   2391.9711      2123.1176      4418.5023     -137158.11    
    124000   2422.2622     -9561.7852      4442.9052     -137157.45    
    124100   2761.5254      4687.9391      4435.617      -137159.08    
    124200   2426.5677     -32.671358      4424.6407     -137152.63    
    124300   2384.1219     -833.80929      4409.5836     -137160.85    
    124400   2277.2981     -7104.7137      4414.5015     -137161.96    
    124500   2390.014       1497.6284      4395.1601     -137161.69    
    124600   2532.3436      3326.0472      4365.5795     -137160.78    
    124700   2590.1111     -848.78974      4357.9103     -137161.89    
    124800   2416.2816     -704.14982      4365.541      -137162.44    
    124900   2231.6355     -8049.6668      4373.1269     -137162.36    
    125000   2549.411      -8167.7737      4351.7164     -137165.01    
    125100   2720.7974      8512.1775      4327.4757     -137162.51    
    125200   2522.0321     -5645.3667      4366.7785     -137160.03    
    125300   2526.303      -10667.701      4378.2678     -137163.47    
    125400   2578.9973      2947.1216      4343.4758     -137162.9     
    125500   2747.9981      7880.4495      4355.1952     -137158.46    
    125600   2562.5968     -1017.7109      4434.8285     -137154.68    
    125700   2511.1578     -15467.864      4520.5712     -137158.8     
    125800   2282.4074     -6424.0766      4522.3115     -137158.26    
    125900   2276.3681     -4792.1299      4439.6359     -137161.69    
    126000   2549.1667     -6550.6246      4301.1156     -137162.42    
    126100   2651.2189      15579.268      4178.7061     -137159.11    
    126200   2727.2021      5877.1767      4157.724      -137165.27    
    126300   2398.3097      13930.115      4197.088      -137164.02    
    126400   2511.1207      622.50153      4281.9433     -137166.55    
    126500   2411.5982     -5968.0769      4354.5749     -137161.56    
    126600   2543.032      -2440.0167      4411.9118     -137157.99    
    126700   2793.3764     -2053.4082      4455.8122     -137158.03    
    126800   2789.8015     -6315.6441      4452.3824     -137162.75    
    126900   2524.3753     -9213.856       4433.7706     -137159.91    
    127000   2515.7183     -1399.4364      4386.2696     -137161.96    
    127100   2543.8655      2646.2705      4341.3601     -137161.89    
    127200   2577.5017      8890.4002      4336.1602     -137161.3     
    127300   2516.8868      3070.1514      4384.328      -137162.09    
    127400   2365.4472     -16395.383      4423.7444     -137160.29    
    127500   2632.9444      3526.7348      4370.7864     -137162.65    
    127600   2603.5436      3596.2809      4315.4198     -137157.26    
    127700   2464.1505      5989.9684      4304.967      -137159.4     
    127800   2328.8969     -5105.5522      4330.6774     -137163.55    
    127900   2374.9127      10968.418      4347.128      -137162.18    
    128000   2521.7935     -8902.8937      4401.8509     -137160.8     
    128100   2659.2061     -7051.1015      4422.9799     -137161.47    
    128200   2635.5844     -4893.97        4433.7911     -137162.4     
    128300   2221.263      -4759.523       4447.1929     -137160.8     
    128400   2192.2081     -12327.972      4408.4825     -137162.57    
    128500   2516.885      -595.53448      4301.5361     -137165.4     
    128600   2642.1025      5435.9548      4227.2408     -137164.59    
    128700   2461.9089      12113.338      4235.8792     -137160.26    
    128800   2317.6156     -364.11222      4308.285      -137162.95    
    128900   2117.7587      2660.0097      4355.5279     -137161.18    
    129000   2478.8461     -12762.768      4366.3552     -137162.33    
    129100   2516.5004     -1311.7846      4325.8518     -137161.07    
    129200   2548.0951      9401.3664      4281.4366     -137162.71    
    129300   2411.9147      5070.3858      4274.6052     -137163.5     
    129400   2342.7589     -4151.8561      4282.4918     -137163.97    
    129500   2457.2596      13222.354      4263.9713     -137162.44    
    129600   2601.8678      6116.3152      4293.0958     -137159.8     
    129700   2480.7385      574.8209       4361.6496     -137159.56    
    129800   2400.3028     -9224.3242      4414.0153     -137161.04    
    129900   2318.5736      827.92033      4412.3704     -137158.37    
    130000   2450.387       6561.9872      4389.4691     -137154.87    
    130100   2499.157       11250.842      4387.4855     -137153.47    
    130200   2495.6612     -3086.0598      4426.5283     -137157.03    
    130300   2307.9243     -8547.5711      4438.6539     -137158.03    
    130400   2281.9208      4759.7838      4366.3359     -137154.92    
    130500   2870.0713      11297.202      4267.2423     -137160.23    
    130600   2750.2419      16469.226      4257.0676     -137160.15    
    130700   2420.8814     -2156.8873      4374.7211     -137156.96    
    130800   2419.5249     -13126.095      4489.2583     -137158.11    
    130900   2603.5291     -10990.684      4510.9986     -137159.87    
    131000   2642.2912     -1615.6937      4467.3769     -137156.52    
    131100   2639.9074      5464.4394      4404.7122     -137162.11    
    131200   2347.4422      616.10814      4370.9457     -137161.63    
    131300   2461.0933     -261.02888      4344.188      -137164.05    
    131400   2568.3819      2505.4961      4310.3225     -137160.29    
    131500   2673.9486      6186.516       4283.2262     -137160.13    
    131600   2561.237      -163.90103      4275.8057     -137160.86    
    131700   2711.5698     -3246.1634      4267.8844     -137166.74    
    131800   2541.2948      1743.5101      4299.4023     -137165       
    131900   2259.4304     -5166.9617      4355.4775     -137161.93    
    132000   2400.8927      4743.247       4374.4988     -137161.6     
    132100   2733.7885     -1950.1879      4416.2153     -137160.82    
    132200   2587.5758     -8482.7127      4456.5644     -137161.49    
    132300   2396.962       8300.1616      4451.7647     -137160.19    
    132400   2467.2436     -13018.438      4438.5057     -137161       
    132500   2701.3117      228.22497      4385.8358     -137158.01    
    132600   2618.0546      11363.021      4351.8224     -137156.64    
    132700   2535.5503     -7715.5364      4347.9392     -137159.86    
    132800   2577.7887     -4283.585       4312.3745     -137162.98    
    132900   2372.8864      8319.9476      4269.7474     -137160.55    
    133000   2339.3         6702.8594      4251.1366     -137163.62    
    133100   2287.5504      5150.1326      4272.6138     -137164.72    
    133200   2481.7176      7025.4242      4319.9132     -137163.56    
    133300   2579.0827     -2006.3829      4390.4514     -137160.24    
    133400   2460.3044     -2951.801       4450.6311     -137155.78    
    133500   2508.3204     -5614.2175      4466.0426     -137154.91    
    133600   2573.4937      11852.595      4422.0329     -137157.04    
    133700   2654.7878     -1783.515       4398.5389     -137166.03    
    133800   2241.2844      2085.7827      4371.3368     -137161.13    
    133900   2492.0157     -1372.559       4337.1058     -137164.33    
    134000   2694.8397      4037.8856      4288.7622     -137164.32    
    134100   2484.6588      3726.6335      4276.9229     -137161.27    
    134200   2338.7143      5218.6295      4321.151      -137159.26    
    134300   2461.1924      6711.8162      4416.2634     -137160.47    
    134400   2576.5441     -4794.1445      4554.6069     -137159.92    
    134500   2454.9949     -15201.931      4657.307      -137153.39    
    134600   2674.7734     -6727.542       4641.434      -137147.92    
    134700   2636.2141     -352.97929      4545.589      -137148.88    
    134800   2568.4353      7009.041       4453.5211     -137155.47    
    134900   2590.1732      4183.0018      4421.8798     -137159.74    
    135000   2454.4236     -1040.6114      4433.813      -137159.65    
    135100   2443.959      -5352.3203      4451.5848     -137160.41    
    135200   2653.361       4187.7308      4431.5651     -137155.75    
    135300   2678.916      -1526.8323      4393.9665     -137155.78    
    135400   2550.3072      2999.9876      4363.2153     -137160.17    
    135500   2613.9545     -2956.4926      4342.4059     -137166.85    
    135600   2542.5181     -3137.7345      4305.6234     -137168.38    
    135700   2578.9326      4489.8819      4275.3016     -137168.2     
    135800   2644.112       4272.6161      4271.4365     -137164.76    
    135900   2769.4904      9913.0586      4309.7542     -137163.24    
    136000   2436.8005     -6519.466       4411.2206     -137158.65    
    136100   2254.6689     -1362.1258      4483.3581     -137157.01    
    136200   2582.8065     -6169.055       4512.1694     -137158.22    
    136300   2581.1093     -12432.228      4482.2568     -137153.54    
    136400   2653.3679     -1302.3156      4404.2695     -137157.55    
    136500   2552.96        8752.9824      4338.5297     -137160.44    
    136600   2528.89        7805.5984      4318.9366     -137164.02    
    136700   2439.0398     -228.07916      4354.2982     -137162.4     
    136800   2530.842      -2504.2508      4403.0928     -137161.48    
    136900   2570.5501     -4504.1272      4438.355      -137155.59    
    137000   2784.0469      1.4980785      4449.0239     -137152.34    
    137100   2696.9837     -2368.8261      4450.976      -137157.61    
    137200   2598.9935     -4040.3144      4456.3783     -137159.01    
    137300   2431.1597      6869.1346      4420.1072     -137160.27    
    137400   2481.1426      241.50464      4372.0415     -137163.65    
    137500   2464.1409      2634.2078      4314.4134     -137159.61    
    137600   2730.4385      15111.354      4270.8634     -137160.21    
    137700   2478.3269     -969.31245      4316.791      -137159.97    
    137800   2250.5279     -4549.9747      4387.4495     -137160.59    
    137900   2511.2732     -75.948738      4420.0711     -137164.27    
    138000   2506.1162     -6560.3184      4430.107      -137159.69    
    138100   2662.8571     -1893.9352      4403.2329     -137159.76    
    138200   2477.0959      5457.0921      4353.2467     -137156.64    
    138300   2540.1256     -1069.8133      4324.2973     -137161.12    
    138400   2620.1998     -4778.4197      4323.6197     -137163.67    
    138500   2498.1056     -5660.5185      4346.6622     -137160.7     
    138600   2536.8525     -1666.2462      4350.3724     -137161.74    
    138700   2532.1291     -537.73034      4336.8371     -137161.95    
    138800   2386.4511      1750.0913      4320.5296     -137160.77    
    138900   2458.8145      3378.4046      4307.9042     -137163.51    
    139000   2557.2452      61.360818      4310.5546     -137162.72    
    139100   2768.3951      1638.3595      4345.7061     -137161.29    
    139200   2521.6806     -1129.3278      4425.6698     -137155.46    
    139300   2312.3189     -16060.322      4481.5523     -137157.25    
    139400   2195.7699     -7728.4722      4433.3206     -137157.95    
    139500   2725.1086      11831.721      4328.4382     -137160.49    
    139600   2782.1339     -1551.7399      4301.6189     -137162.71    
    139700   2462.9779     -3673.9149      4310.3068     -137162.36    
    139800   2487.9044     -7033.7028      4301.0471     -137164.95    
    139900   2562.0675      6060.9966      4276.1886     -137164.22    
    140000   2675.5764      7152.415       4301.8465     -137161.3     
    140100   2497.3049      5744.3428      4382.0182     -137153.2     
    140200   2709.8179     -14592.699      4489.4181     -137155.71    
    140300   2610.8737     -398.51069      4536.2185     -137150.72    
    140400   2617.9212     -16140.883      4562.9696     -137152.76    
    140500   2353.7979     -3195.5453      4491.2558     -137153.85    
    140600   2477.0573     -2933.8933      4357.8148     -137160.62    
    140700   2494.5725      11800.685      4218.5591     -137163.5     
    140800   2322.2083      3325.6985      4167.9585     -137168.83    
    140900   2257.9526      10432.775      4173.438      -137167.38    
    141000   2437.1866      826.43843      4234.3039     -137166.82    
    141100   2541.8062     -6757.4906      4315.6524     -137164.71    
    141200   2572.237      -2212.1321      4376.0606     -137162.03    
    141300   2562.4893     -10706.499      4411.6377     -137161.51    
    141400   2357.4766     -4338.8475      4386.4548     -137162.25    
    141500   2272.6239     -1080.2994      4326.324      -137165.52    
    141600   2484.8192      9432.8704      4262.5639     -137165.64    
    141700   2437.9599      13298.251      4255.8529     -137159.9     
    141800   2590.4403     -6861.9827      4298.4558     -137165.83    
    141900   2416.7224      1810.5756      4309.0473     -137161.95    
    142000   2430.0475      3599.507       4315.2287     -137159.41    
    142100   2669.3817      335.72669      4326.9786     -137160.21    
    142200   2684.3676      6548.3146      4343.6415     -137154.93    
    142300   2530.3445     -3337.8446      4393.4596     -137160.8     
    142400   2388.7358     -9331.4771      4442.7415     -137158.73    
    142500   2530.1357     -2680.9942      4433.6704     -137158.13    
    142600   2609.156      -3544.672       4377.9975     -137157.2     
    142700   2797.1391      8088.6913      4313.3079     -137161.97    
    142800   2340.3776     -737.94099      4321.2882     -137161.06    
    142900   2303.729      -8016.2936      4339.5847     -137161.71    
    143000   2478.0952     -1144.7958      4311.3714     -137160.87    
    143100   2777.8939      6087.0805      4279.1089     -137165.45    
    143200   2441.4459     -2498.1534      4293.2882     -137160.8     
    143300   2468.6862      3876.0511      4316.0638     -137165.84    
    143400   2057.3528     -1921.8716      4342.4595     -137164.71    
    143500   2354.1056     -1361.1603      4344.267      -137167.96    
    143600   2299.5857      6872.1151      4344.9881     -137159.78    
    143700   2408.5937      7128.0476      4370.4181     -137156.39    
    143800   2540.1811     -5257.5517      4414.9896     -137156.65    
    143900   2413.4545     -2305.3898      4431.7747     -137155.7     
    144000   2371.9555     -5592.7141      4411.4583     -137161.62    
    144100   2105.1748      4826.6697      4372.107      -137158.49    
    144200   2428.5636      8281.0594      4339.8858     -137157.74    
    144300   2638.2233     -1248.8218      4347.2092     -137157.86    
    144400   2374.6998      7533.0788      4369.4554     -137156.59    
    144500   2362.4176      8215.8494      4406.2345     -137161.18    
    144600   2358.9438     -3548.1054      4462.557      -137158.29    
    144700   2684.5232      702.62696      4484.5338     -137159.39    
    144800   2630.4417     -7519.0398      4494.866      -137157.99    
    144900   2513.203      -7047.79        4483.6779     -137155.79    
    145000   2477.5802      2100.5916      4435.1216     -137154.25    
    145100   2487.744       5306.9323      4366.4899     -137156.7     
    145200   2384.9308      4056.4777      4317.9316     -137163.19    
    145300   2461.5894     -1373.1471      4294.503      -137167.26    
    145400   2568.5538     -515.68848      4261.9231     -137167.48    
    145500   2556.9287      3721.1988      4223.0584     -137164.25    
    145600   2476.2048      8684.8288      4222.2372     -137160.09    
    145700   2567.5983      1824.3056      4295.614      -137167.28    
    145800   2228.926      -13304.905      4417.7167     -137163.01    
    145900   2497.4933     -14700.034      4457.7247     -137164.02    
    146000   2427.6581      11034.571      4410.9397     -137156.32    
    146100   2539.5893     -1985.458       4362.3485     -137159.53    
    146200   2457.7431      1528.9692      4304.7385     -137160.77    
    146300   2354.8527      362.01404      4280.9926     -137164.22    
    146400   2320.282      -9146.5722      4278.8493     -137165.73    
    146500   2416.8217      20087.509      4262.0787     -137159.95    
    146600   2561.6706      1667.4641      4333.186      -137159.49    
    146700   2402.7237     -9214.4791      4434.4286     -137157.96    
    146800   2475.7479     -4254.7756      4492.1252     -137159.02    
    146900   2634.3305     -2717.1615      4510.3091     -137155.18    
    147000   2769.8924     -10379.341      4514.5816     -137154.19    
    147100   2599.2362     -9668.9017      4479.9221     -137157.2     
    147200   2476.7133     -5446.7077      4422.5518     -137159.53    
    147300   2481.478       10263.875      4367.532      -137159.41    
    147400   2513.0871      1642.1293      4352.5099     -137160.04    
    147500   2416.2068      8207.8982      4355.548      -137162.63    
    147600   2250.5858     -11130.486      4388.0307     -137163.94    
    147700   2405.8174     -4177.2025      4370.3011     -137162.29    
    147800   2486.0168      12778.691      4321.4405     -137159.35    
    147900   2476.6304     -51.30936       4311.4696     -137160       
    148000   2393.8556     -485.63443      4300.762      -137159.29    
    148100   2611.2287      1744.5518      4300.7744     -137163.92    
    148200   2771.4125      5264.7574      4321.0971     -137162.46    
    148300   2574.1187     -5902.0014      4377.8372     -137155.04    
    148400   2504.5937     -14515.932      4420.6578     -137155.79    
    148500   2495.2913      1082.0965      4407.493      -137162.52    
    148600   2315.8196      4181.494       4412.4197     -137161       
    148700   2442.1382     -2626.4059      4434.4363     -137159.76    
    148800   2642.8552     -9.578737       4445.9111     -137155.39    
    148900   2572.9683     -3200.3076      4454.4634     -137155.61    
    149000   2466.5051     -7450.2017      4434.3673     -137157.1     
    149100   2538.3006     -2989.6585      4347.647      -137162.16    
    149200   2491.5757      16613.187      4240.5687     -137162.7     
    149300   2474.2054      5626.8998      4203.9317     -137171.06    
    149400   2313.1243      3332.5598      4210.6604     -137171.45    
    149500   2387.6024      3899.8768      4256.8019     -137166.62    
    149600   2334.6063     -3833.9811      4334.2485     -137158.97    
    149700   2609.9103     -3002.6851      4378.2376     -137161.25    
    149800   2533.8831      2468.6952      4395.2621     -137158       
    149900   2342.7374     -10608.673      4420.0075     -137157.53    
    150000   2247.9128     -6464.5606      4387.3376     -137162.02    
    150100   2378.7225      14404.228      4304.2156     -137161.59    
    150200   2693.4345      10176.764      4282.4433     -137161.14    
    150300   2605.9844     -3450.5875      4331.4335     -137162.11    
    150400   2423.4404     -14037.163      4373.2504     -137161.25    
    150500   2395.969       1844.8755      4344.0423     -137159.57    
    150600   2594.232       9447.5352      4326.7201     -137155.27    
    150700   2740.5479     -1012.7224      4362.327      -137155.94    
    150800   2611.3384     -12893.705      4399.2367     -137157.18    
    150900   2510.9675     -7032.4073      4395.2326     -137157.56    
    151000   2476.3375      12098.251      4360.9129     -137159.23    
    151100   2402.7358     -7473.7699      4354.9655     -137161.76    
    151200   2236.5821     -288.59526      4302.008      -137164.05    
    151300   2490.4085      11753.795      4256.8345     -137164.64    
    151400   2624.4568      7805.6885      4287.1922     -137160.59    
    151500   2417.2929     -4811.0606      4376.2091     -137154.84    
    151600   2423.3755     -6858.4382      4452.8115     -137154.01    
    151700   2590.9886     -7242.9219      4457.3486     -137155.35    
    151800   2739.5103      9861.6819      4404.3326     -137154.44    
    151900   2741.8926     -7646.3033      4367.8096     -137164.74    
    152000   2320.967       12291.705      4294.0602     -137157.78    
    152100   2611.644      -4793.098       4236.6799     -137163.78    
    152200   2631.1244     -941.70944      4188.4659     -137165.06    
    152300   2444.7734      9305.7468      4167.1726     -137166.51    
    152400   2365.2403     -1937.8608      4205.6774     -137168.88    
    152500   2474.4788     -29.809341      4272.9245     -137165.88    
    152600   2501.6584     -884.83075      4372.0887     -137159.74    
    152700   2329.7346     -7228.273       4475.3368     -137152.03    
    152800   2736.4146     -8810.0118      4537.4007     -137158.19    
    152900   2605.1262     -6924.7242      4566.8823     -137154.53    
    153000   2435.8492     -17001.691      4539.015      -137158.04    
    153100   2464.0444     -1085.7314      4428.1116     -137164.65    
    153200   2399.1813      9808.4657      4326.9958     -137160.79    
    153300   2514.7433      4404.4339      4276.4061     -137159.9     
    153400   2419.6215      18223.105      4258.654      -137154.08    
    153500   2821.8424      2013.8021      4303.1227     -137163.5     
    153600   2337.2383      3706.8914      4371.8984     -137157.23    
    153700   2524.0906     -24983.492      4423.0718     -137165.34    
    153800   2377.6892      2516.2366      4373.3347     -137160.06    
    153900   2627.1168      4751.107       4304.941      -137160.73    
    154000   2765.9876      10848.078      4242.858      -137165.64    
    154100   2388.2446      1277.1235      4236.2374     -137166.58    
    154200   2288.8779      6352.0861      4254.9295     -137162.89    
    154300   2480.2211      5379.8782      4303.5234     -137161.05    
    154400   2440.1104     -485.62961      4370.6295     -137155.36    
    154500   2541.7772      2313.0056      4420.2645     -137156.65    
    154600   2345.4825     -3710.5947      4467.7347     -137153.67    
    154700   2313.8218     -13561.463      4460.3198     -137158.14    
    154800   2456.4531     -2269.2446      4365.6099     -137165.21    
    154900   2524.4787      2058.8047      4280.7048     -137164.55    
    155000   2654.9553      13865.236      4222.1042     -137161.88    
    155100   2478.6398      17986.305      4234.9224     -137159.06    
    155200   2313.2597     -1266.9324      4325.8509     -137164.17    
    155300   2375.72       -11771.878      4404.9945     -137163.43    
    155400   2478.033      -4820.9254      4414.712      -137161.11    
    155500   2518.3024     -1668.0277      4405.3916     -137159.92    
    155600   2613.9671     -2855.8037      4373.5106     -137162.53    
    155700   2623.7512      7606.8632      4361.9848     -137161.59    
    155800   2389.4949     -6029.257       4407.6561     -137159.41    
    155900   2389.2082     -7159.5506      4419.157      -137161.62    
    156000   2516.9988     -1196.6985      4373.7823     -137161.15    
    156100   2620.4803      13015.471      4337.0068     -137158.88    
    156200   2530.4194      4487.7957      4371.181      -137159.97    
    156300   2182.9355     -10879.007      4419.0009     -137159.57    
    156400   2489.1592     -8255.1053      4392.7561     -137165.98    
    156500   2540.5545      12558.371      4339.1078     -137163.01    
    156600   2502.176      -2435.8415      4345.0928     -137161.93    
    156700   2447.9484     -2442.0252      4358.2315     -137162.93    
    156800   2454.1855     -13765.584      4349.9305     -137163.35    
    156900   2653.2003      7684.7775      4289.543      -137161.16    
    157000   2711.4497      8859.3798      4272.2444     -137160.98    
    157100   2548.4685     -365.31065      4308.039      -137163.47    
    157200   2459.4646     -4195.8121      4349.112      -137165.58    
    157300   2427.0379     -3117.7247      4365.1403     -137163.04    
    157400   2599.478      -4740.3249      4369.8273     -137164.38    
    157500   2494.8562     -4303.5103      4376.938      -137160.81    
    157600   2610.3449     -5652.0393      4370.825      -137164.27    
    157700   2377.9631     -4814.6294      4351.7465     -137163.23    
    157800   2161.9907      22.448601      4333.2788     -137161.72    
    157900   2480.8676      1081.5829      4313.3866     -137161.57    
    158000   2696.9932      5324.0991      4314.0738     -137162.7     
    158100   2424.8486     -2354.5176      4378.0769     -137158.31    
    158200   2268.3297     -2530.9503      4431.3179     -137156.86    
    158300   2449.0399     -7527.462       4441.1671     -137158.39    
    158400   2787.817      -1674.4768      4402.357      -137158.88    
    158500   2736.6103      4424.9089      4358.9453     -137161.01    
    158600   2440.6668     -1009.487       4347.9085     -137160.27    
    158700   2580.8352      1923.9278      4316.5951     -137164.57    
    158800   2583.8575      14841.927      4313.3328     -137164.6     
    158900   2567.0172     -11797.851      4381.8141     -137167.4     
    159000   2157.7087     -2632.0172      4410.7179     -137158.11    
    159100   2593.4121     -764.81843      4376.2887     -137160.9     
    159200   2718.3338     -131.67749      4329.5401     -137162.25    
    159300   2533.7696      4497.2835      4309.3349     -137163.41    
    159400   2353.6246      12067.003      4322.5222     -137163.28    
    159500   2279.0767     -4988.528       4382.4712     -137159.38    
    159600   2527.2033     -8055.5193      4425.7994     -137161.24    
    159700   2529.1245     -7043.5319      4432.2093     -137159.71    
    159800   2602.908       1399.072       4393.4482     -137162.06    
    159900   2309.9711     -3387.7107      4327.5845     -137159.9     
    160000   2388.0201      11936.146      4241.0426     -137165.45    
    160100   2365.5036      3210.405       4209.3014     -137165.81    
    160200   2445.8244      12141.307      4229.2117     -137161.52    
    160300   2569.7998      4234.1821      4332.8204     -137160.11    
    160400   2456.7393     -5184.373       4451.8527     -137155.35    
    160500   2558.5808     -10813.199      4511.6494     -137156.7     
    160600   2373.2439     -2932.7117      4468.743      -137153.35    
    160700   2472.5208     -4852.7903      4376.9564     -137157.84    
    160800   2599.0002     -2433.9055      4288.6687     -137163.72    
    160900   2304.3307      11433.944      4229.0507     -137160.35    
    161000   2457.0147     -17.61071       4211.1098     -137169.15    
    161100   2414.4069      3841.3561      4214.6725     -137166.77    
    161200   2670.5376      10542.487      4245.1612     -137164.52    
    161300   2653.4961      1140.9124      4337.9496     -137163.18    
    161400   2334.836      -3866.5209      4434.0655     -137157.42    
    161500   2601.7178     -1371.387       4465.7494     -137159.17    
    161600   2771.2772      4727.0973      4456.0283     -137155.35    
    161700   2544.6392      1747.3592      4455.5191     -137156.06    
    161800   2434.1938     -1533.3991      4452.2904     -137157.34    
    161900   2530.3577     -10342.733      4434.9732     -137159.01    
    162000   2602.5168      5954.973       4364.0596     -137158.26    
    162100   2547.3022      8473.5484      4320.1249     -137160.95    
    162200   2375.1617     -826.89725      4325.5155     -137164.36    
    162300   2346.9618      5959.316       4323.3969     -137161.97    
    162400   2502.1018      725.28419      4330.0414     -137159.4     
    162500   2515.6596      11575.202      4338.4346     -137158.34    
    162600   2519.5277      1907.0933      4401.4105     -137159.75    
    162700   2468.3014     -9942.1896      4464.6275     -137159.07    
    162800   2589.8849     -4992.6238      4471.5088     -137160.41    
    162900   2514.9404     -1425.0584      4456.6203     -137157.23    
    163000   2535.2397     -14410.437      4429.8998     -137157.93    
    163100   2477.5004      5780.6665      4325.5954     -137159.37    
    163200   2455.7132      4548.7261      4255.4955     -137162.63    
    163300   2215.2227      10496.293      4217.2514     -137166.28    
    163400   2315.5514      1277.3534      4215.6828     -137169.92    
    163500   2332.2302      9976.8966      4241.1918     -137164.42    
    163600   2361.6069      1360.6582      4305.9876     -137158.03    
    163700   2518.3515      553.30801      4381.1146     -137156.35    
    163800   2438.3022     -1071.3428      4452.759      -137150.64    
    163900   2692.6801     -4130.4475      4495.8741     -137154.28    
    164000   2381.4518     -4712.4044      4497.9418     -137155.72    
    164100   2207.5242     -4855.4763      4466.2016     -137154.34    
    164200   2504.0614     -2113.2451      4401.5607     -137159.09    
    164300   2488.2927      4343.9862      4323.911      -137156.85    
    164400   2391.0383      8213.6352      4251.0067     -137157.66    
    164500   2366.5537      2083.5388      4214.0893     -137164.58    
    164600   2412.54        1214.0068      4210.3804     -137164.58    
    164700   2584.9152      4544.0986      4235.6215     -137164.2     
    164800   2798.3535      2465.5167      4303.4271     -137162.99    
    164900   2819.0882     -1761.1323      4386.7243     -137155.52    
    165000   2512.6439     -3238.799       4447.2536     -137155.18    
    165100   2441.0539     -10134.023      4473.2067     -137158.47    
    165200   2547.934      -2254.4474      4438.666      -137160.42    
    165300   2547.0694      7935.5927      4393.6569     -137159.02    
    165400   2567.3112     -6830.3813      4381.3965     -137164.32    
    165500   2289.5869     -9373.001       4349.5576     -137164.17    
    165600   2348.5662      10257.415      4289.9122     -137164.95    
    165700   2647.3793      9266.7455      4290.3818     -137162.75    
    165800   2537.4359      5990.4245      4358.0433     -137158.1     
    165900   2545.4451     -4520.6844      4454.7784     -137157.89    
    166000   2434.7002     -125.69202      4500.4533     -137155.13    
    166100   2480.0607     -4922.7022      4501.6549     -137158.15    
    166200   2327.5186     -737.78981      4457.4723     -137158.18    
    166300   2383.5922     -3240.5453      4377.26       -137160.2     
    166400   2562.0573      2803.6118      4281.8792     -137157.16    
    166500   2830.103       12718.141      4232.7792     -137163.06    
    166600   2387.4562      6300.3006      4267.1985     -137159.02    
    166700   2436.5816     -2315.0163      4341.472      -137161.27    
    166800   2420.0148     -6713.8196      4375.7178     -137159.16    
    166900   2679.9221      5839.2512      4365.3315     -137160       
    167000   2695.3838      3865.4571      4389.2111     -137158.6     
    167100   2281.5144     -9469.8618      4436.046      -137156.59    
    167200   2256.4069      863.53968      4396.2268     -137157.86    
    167300   2464.8367      12395.809      4340.0686     -137158.03    
    167400   2649.041       657.3386       4342.9791     -137162.28    
    167500   2487.0133     -5418.6635      4344.316      -137159.7     
    167600   2634.1358      2911.8279      4310.8247     -137167.47    
    167700   2294.0977     -9773.2464      4285.2626     -137165.86    
    167800   2407.8923      6268.2025      4227.9288     -137169.41    
    167900   2659.3136      6935.1528      4220.5903     -137163.41    
    168000   2685.5406     -8586.4394      4266.5607     -137163.7     
    168100   2464.6483     -6224.8418      4302.025      -137161.61    
    168200   2382.5359      2724.8713      4310.9216     -137162.05    
    168300   2421.5729      4154.1487      4321.8726     -137159.7     
    168400   2673.4437      9240.2425      4343.3465     -137158.79    
    168500   2542.9103     -2786.1612      4436.4491     -137158.43    
    168600   2320.6961     -10423.79       4540.1583     -137158.98    
    168700   2399.4302     -15866.772      4540.9761     -137159.25    
    168800   2491.3755     -2997.6277      4422.4704     -137159.03    
    168900   2506.708       10246.997      4305.3508     -137156.8     
    169000   2711.9815     -58.288563      4243.7863     -137163.71    
    169100   2387.7276      6122.8714      4246.0694     -137162.92    
    169200   2425.7038     -5299.5044      4280.1347     -137164.9     
    169300   2489.2007     -7082.2469      4291.1187     -137163.24    
    169400   2878.305       4352.7266      4299.8055     -137164.77    
    169500   2711.6897      3598.312       4363.477      -137153.61    
    169600   2369.3045     -7209.0763      4436.2816     -137155.67    
    169700   2335.9668     -3771.9365      4462.9169     -137158.31    
    169800   2545.2505      3456.2515      4425.5184     -137161.3     
    169900   2610.5866      7633.9231      4385.2648     -137158.8     
    170000   2688.1328      4053.9365      4389.877      -137160.17    
    170100   2442.975      -10840.251      4399.9066     -137161.77    
    170200   2286.6261      2589.8076      4343.2367     -137160.57    
    170300   2468.1348      4552.3434      4293.1865     -137161.5     
    170400   2566.0861      4296.8638      4284.3823     -137161.41    
    170500   2715.4155      4425.022       4298.6879     -137165.86    
    170600   2383.415       725.0794       4333.1029     -137160.35    
    170700   2441.5806     -1028.5506      4371.6901     -137161.26    
    170800   2421.4861     -6859.3136      4392.778      -137158.17    
    170900   2484.2631     -2398.4833      4359.5393     -137158.51    
    171000   2552.5885      13040.752      4291.5861     -137160.76    
    171100   2529.3738      4759.1665      4249.8139     -137163.51    
    171200   2443.9693      4526.4734      4245.9239     -137168.63    
    171300   1992.9113     -2317.9077      4279.0322     -137162.52    
    171400   2402.1138     -4310.7096      4284.9992     -137165.95    
    171500   2505.4654      2721.7752      4261.6293     -137164.58    
    171600   2573.4148      12744.102      4262.1696     -137162.57    
    171700   2532.9618      2829.3478      4327.9487     -137160.79    
    171800   2654.285      -6251.4148      4394.8941     -137161.07    
    171900   2758.9503     -7600.0557      4427.9441     -137159.34    
    172000   2677.0153     -11911.29       4425.8822     -137160.1     
    172100   2433.7556      3538.7027      4390.173      -137163.49    
    172200   2426.597      -3178.8979      4377.7327     -137163.28    
    172300   2417.4168      4222.9182      4363.2376     -137158.4     
    172400   2660.4057     -506.27586      4360.0569     -137161.09    
    172500   2367.2775      7056.1159      4364.711      -137156.14    
    172600   2164.0513     -11437.184      4384.7899     -137159.1     
    172700   2473.1881      3126.3704      4325.4639     -137164.68    
    172800   2684.5082      14519.3        4264.8748     -137164.7     
    172900   2471.9546     -2805.9246      4274.0459     -137160.63    
    173000   2230.686       4395.9723      4267.1583     -137164.78    
    173100   2305.9887      9975.721       4260.2749     -137166.03    
    173200   2370.9352      8601.3657      4302.5968     -137162.87    
    173300   2358.251       1678.6842      4381.2052     -137157.46    
    173400   2480.5219     -5129.697       4445.9781     -137155.43    
    173500   2662.686      -13267.811      4455.5046     -137158.21    
    173600   2518.9041      5049.833       4397.4013     -137156.94    
    173700   2255.8648      5361.2074      4349.3638     -137159.92    
    173800   2294.5468      8614.486       4312.4856     -137160.92    
    173900   2534.5215     -1632.3332      4300.0234     -137162.96    
    174000   2512.0718      7994.4711      4310.6127     -137159.98    
    174100   2545.9103     -5967.3965      4383.1472     -137158.82    
    174200   2413.7231     -8191.4094      4422.0382     -137158.89    
    174300   2237.6258     -1064.6609      4411.4728     -137156.9     
    174400   2536.3049      222.66788      4363.0145     -137159.99    
    174500   2699.1786      9300.5559      4315.9806     -137158.85    
    174600   2550.8076      336.35704      4320.4628     -137159.62    
    174700   2497.9009     -6354.0592      4314.5751     -137168.38    
    174800   2224.5024      10364.244      4275.5362     -137161.64    
    174900   2414.9189      5365.6753      4259.4674     -137159.47    
    175000   2558.5003      18723.696      4271.7438     -137160.14    
    175100   2402.1371     -9248.1861      4359.606      -137158.23    
    175200   2559.6285     -7721.1494      4408.8238     -137161.77    
    175300   2571.2417     -3288.7317      4420.9651     -137154.88    
    175400   2695.8584     -3818.3744      4411.1075     -137155.72    
    175500   2573.8569     -5809.4558      4383.3105     -137160.43    
    175600   2444.9646      5098.6918      4328.7302     -137162.6     
    175700   2435.6794      4190.8161      4282.3698     -137162.9     
    175800   2492.5004      5675.3359      4274.7469     -137162.49    
    175900   2694.2833      5684.1639      4319.8657     -137159.47    
    176000   2715.8938      738.31328      4423.405      -137157.92    
    176100   2456.554      -5332.0477      4517.2423     -137154.27    
    176200   2438.8501     -7253.4149      4539.1497     -137154.28    
    176300   2607.4825     -6468.6591      4489.6002     -137158.94    
    176400   2514.291      -7145.2747      4396.4357     -137158.77    
    176500   2314.7915      7260.2429      4299.5251     -137161.86    
    176600   2237.6906      12032.553      4259.3509     -137162.53    
    176700   2378.221      -1671.2965      4273.7799     -137161.3     
    176800   2549.7232     -1167.9784      4275.9785     -137162.75    
    176900   2495.9992      3389.5018      4283.8305     -137160.11    
    177000   2376.8692      5242.6985      4316.0143     -137157.58    
    177100   2347.8264     -2626.272       4334.1399     -137160.71    
    177200   2408.7233     -4633.7652      4319.6127     -137163.68    
    177300   2557.5258      16817.035      4307.8061     -137162.14    
    177400   2705.5238      1434.4926      4359.6248     -137163.45    
    177500   2490.5353     -11166.408      4416.2556     -137161.2     
    177600   2396.3178     -12622.617      4435.1478     -137164.17    
    177700   2198.323       569.92045      4403.3745     -137159.32    
    177800   2761.6442     -13941.787      4355.6663     -137164.71    
    177900   2652.6168      8607.9184      4291.167      -137163.06    
    178000   2564.853       8104.1808      4300.773      -137166.91    
    178100   2228.8679     -6522.4469      4343.432      -137161.24    
    178200   2459.9109     -486.63693      4342.1061     -137163.39    
    178300   2448.0496      3894.8601      4328.1465     -137161.1     
    178400   2642.6123      2886.2504      4327.7537     -137163.79    
    178500   2640.2713     -550.05245      4349.271      -137163.57    
    178600   2386.8813     -2274.9752      4381.5978     -137160.49    
    178700   2295.5198     -6767.9619      4379.1415     -137164.64    
    178800   2294.801       7002.7304      4345.276      -137163.39    
    178900   2420.4874     -1789.4808      4332.4896     -137156.86    
    179000   2367.0478      14239.759      4303.262      -137153.88    
    179100   2584.7479      4403.2616      4326.7468     -137163.07    
    179200   2329.0656     -2761.9087      4374.3774     -137162.77    
    179300   2359.3794     -6007.5598      4413.4387     -137160.35    
    179400   2351.6881     -4371.4295      4404.2906     -137156.49    
    179500   2590.4329      8241.5367      4371.7326     -137161.43    
    179600   2405.5482      836.25814      4392.5587     -137158.79    
    179700   2464.8287     -10378.146      4406.1314     -137163.69    
    179800   2525.9887      1193.538       4381.3983     -137164.3     
    179900   2619.1871     -1178.1516      4369.302      -137160.14    
    180000   2670.1716      4102.6381      4357.6709     -137160.68    
    180100   2443.3488     -4629.2825      4356.1575     -137161.08    
    180200   2318.9064     -3816.812       4323.6984     -137162.99    
    180300   2454.5919      15482.734      4253.4495     -137164.09    
    180400   2758.7742      7940.7035      4242.1213     -137159.82    
    180500   2553.3053     -3464.5453      4308.3189     -137157.44    
    180600   2372.6198     -8044.7811      4411.8492     -137158.71    
    180700   2338.7472     -6504.7841      4491.4215     -137158.74    
    180800   2573.871      -7427.1813      4504.0819     -137159.73    
    180900   2766.6529     -443.92879      4455.5629     -137157.49    
    181000   2729.1889     -5018.4263      4399.4281     -137161.28    
    181100   2510.5907     -3511.8953      4338.145      -137165.47    
    181200   2457.536       4100.4869      4280.4925     -137163.51    
    181300   2423.3564      5618.3622      4262.3432     -137159.24    
    181400   2646.13        4254.4696      4292.107      -137161       
    181500   2357.355       3260.9468      4353.1525     -137155.18    
    181600   2411.2348     -2325.2796      4404.9812     -137159.5     
    181700   2290.929      -10283.442      4405.4703     -137159.19    
    181800   2549.4405      1600.5823      4347.2466     -137160.36    
    181900   2785.7223      9487.3718      4288.7086     -137161.86    
    182000   2586.7597      11133.843      4296.5638     -137161.51    
    182100   2441.86       -17080.152      4377.4945     -137162.52    
    182200   2478.2902     -4412.9366      4397.0809     -137162.58    
    182300   2433.676       2384.4393      4384.9535     -137159.1     
    182400   2487.6334     -872.1802       4370.3078     -137157.44    
    182500   2636.0808      4214.9271      4329.1183     -137164.82    
    182600   2254.0858      1278.7894      4323.4183     -137163.44    
    182700   2579.9407     -5070.0953      4335.8149     -137168.56    
    182800   2592.2671     -268.81355      4354.4398     -137164.41    
    182900   2444.6789     -2939.5114      4374.9895     -137158.5     
    183000   2622.8707     -6386.5383      4375.1866     -137158.5     
    183100   2816.3758      12161.211      4350.8466     -137156.97    
    183200   2726.6799      193.88981      4363.5518     -137162.54    
    183300   2517.2158     -2582.5637      4403.1171     -137163.24    
    183400   2479.86       -13626.234      4462.8262     -137161.08    
    183500   2614.8871     -11370.598      4479.7682     -137158.22    
    183600   2586.1232     -8979.3244      4432.6868     -137156.66    
    183700   2458.7166      12022.583      4326.8158     -137157.68    
    183800   2381.9355     -380.03097      4255.2758     -137166.78    
    183900   2421.0001      10525.472      4208.4738     -137169.12    
    184000   2419.083       15263.036      4219.9609     -137162.67    
    184100   2512.6519      8146.0886      4322.2894     -137160.56    
    184200   2504.1936     -10460.605      4452.8068     -137158.03    
    184300   2653.9424     -23587.864      4519.001      -137157.24    
    184400   2904.9914     -625.7143       4473.4642     -137155.72    
    184500   2703.9577     -777.57307      4416.7505     -137154.45    
    184600   2418.1032      1584.4954      4368.0223     -137155.56    
    184700   2545.4601      539.55884      4320.4526     -137160.63    
    184800   2458.8783      107.01821      4289.7341     -137161.08    
    184900   2379.5408      2486.0853      4299.5766     -137160.69    
    185000   2693.6174      7050.7593      4329.151      -137161.74    
    185100   2498.3739     -340.00691      4385.6673     -137153.12    
    185200   2437.3625     -6675.718       4425.7334     -137154.7     
    185300   2543.596      -11630.87       4419.4989     -137161.51    
    185400   2340.949      -1580.9623      4357.2163     -137166.62    
    185500   2367.307       2635.0873      4293.4218     -137168.24    
    185600   2435.2551      1683.3446      4279.3687     -137163.75    
    185700   2424.3619     -1522.3207      4287.6556     -137159.15    
    185800   2587.0856     -2449.0037      4275.786      -137160.32    
    185900   2643.421       9761.0154      4256.7924     -137161.43    
    186000   2277.4304      6442.5361      4292.0637     -137159.81    
    186100   2342.4015     -4518.1147      4353.9644     -137164.6     
    186200   2408.3904      4825.78        4380.3748     -137161.52    
    186300   2567.1414     -2997.8475      4405.0958     -137162.32    
    186400   2477.254       10209.994      4429.5111     -137157.84    
    186500   2431.5534      2351.5549      4480.2165     -137155.65    
    186600   2563.9344     -4331.9706      4521.9819     -137156.63    
    186700   2601.2966     -1626.7695      4515.4233     -137152.77    
    186800   2919.485      -7385.3661      4495.0457     -137161.08    
    186900   2497.3569     -6733.9534      4466.8305     -137160.02    
    187000   2530.8918     -6420.0837      4414.7066     -137162.46    
    187100   2560.1881     -1152.0428      4357.5016     -137162.12    
    187200   2609.1591      1672.0853      4324.6271     -137161.83    
    187300   2656.2113      5857.0964      4327.7685     -137163.32    
    187400   2508.4108     -12518.17       4376.2035     -137165.29    
    187500   2342.1827     -4723.0348      4404.5563     -137163.3     
    187600   2446.5878      5115.6963      4419.8224     -137158.82    
    187700   2497.046       7034.4144      4424.8941     -137155.41    
    187800   2557.8978     -2967.6309      4443.9429     -137159.67    
    187900   2484.6266     -5008.3581      4465.0021     -137159.39    
    188000   2542.003      -8131.4194      4459.5942     -137158.01    
    188100   2598.8559      5752.3796      4407.3251     -137155.82    
    188200   2678.2449     -3486.1237      4362.8204     -137160.72    
    188300   2722.7905      8141.8118      4327.4289     -137165.64    
    188400   2415.2871      2200.1869      4321.4786     -137162.47    
    188500   2534.2803      5574.992       4311.8782     -137167.9     
    188600   2259.6458      5572.5724      4311.5518     -137161.04    
    188700   2572.4203      3432.3456      4331.2086     -137163.74    
    188800   2647.1283      2744.4987      4386.0198     -137159.19    
    188900   2467.5009     -6338.2136      4460.9139     -137156.98    
    189000   2494.3042     -11890.703      4508.1277     -137159.9     
    189100   2572.7812     -5151.541       4511.5731     -137159.51    
    189200   2565.1551      1148.6022      4481.8274     -137149.39    
    189300   2614.967       15635.744      4431.1109     -137153.2     
    189400   2453.7902      3299.8147      4444.2564     -137158.35    
    189500   2308.6724      1247.004       4476.3335     -137155.93    
    189600   2520.7677     -1360.363       4489.7259     -137156.79    
    189700   2622.3137      4847.7154      4499.2353     -137155.86    
    189800   2491.0151     -3472.0836      4510.5634     -137159.8     
    189900   2202.5894     -11701.176      4485.4836     -137158.63    
    190000   2380.0366      4744.884       4356.5183     -137160.52    
    190100   2541.4715      7153.6311      4232.7903     -137160.64    
    190200   2472.1575      19952.053      4183.1001     -137160.47    
    190300   2311.3672     -2968.8305      4244.9548     -137163.61    
    190400   2185.3242     -7541.3163      4303.0721     -137163.18    
    190500   2606.7137     -6037.0801      4299.1417     -137162.99    
    190600   2682.3685      3051.0058      4264.5219     -137162.21    
    190700   2415.7522     -770.73731      4252.7243     -137159.83    
    190800   2337.0182      9004.9531      4256.5871     -137160.93    
    190900   2532.9774     -315.02721      4292.3168     -137165.95    
    191000   2484.3181      6340.6845      4347.2926     -137161.39    
    191100   2633.4201     -15825.075      4426.6384     -137162.26    
    191200   2413.4096      3266.6498      4448.0705     -137151.93    
    191300   2694.307      -1936.7037      4442.0062     -137154.61    
    191400   2747.7208     -5962.6487      4407.7523     -137162.57    
    191500   2530.3637      1234.1465      4373.1003     -137165.32    
    191600   2390.1139      2551.9659      4346.2203     -137161.29    
    191700   2570.7357     -5594.4104      4320.1465     -137162.9     
    191800   2592.1753      1354.3416      4284.7977     -137161.89    
    191900   2561.5269     -900.20704      4262.5828     -137161.55    
    192000   2386.4123     -750.37716      4248.7092     -137163.56    
    192100   2363.1411      13808.639      4251.8267     -137166.02    
    192200   2659.3534     -3197.7753      4292.3523     -137169.24    
    192300   2630.6154     -2761.2946      4329.8284     -137161.12    
    192400   2608.3495      184.93733      4352.7381     -137160.17    
    192500   2481.1183      724.02681      4371.8421     -137158.95    
    192600   2432.6742      4206.7525      4401.1858     -137156.49    
    192700   2571.9682      5103.5811      4439.8719     -137159.31    
    192800   2363.3872     -14217.548      4504.7507     -137153.12    
    192900   2724.0967     -14506.215      4498.5776     -137157.21    
    193000   2725.2556      7587.8727      4411.8721     -137154.6     
    193100   2530.6962     -729.65039      4338.2599     -137157.04    
    193200   2565.7029     -1632.4551      4278.4791     -137165.33    
    193300   2452.212       9346.8439      4236.9435     -137162.23    
    193400   2499.008       9128.9686      4234.9464     -137162.84    
    193500   2411.8706      4162.5107      4295.6306     -137163.23    
    193600   2403.0705     -12070.069      4397.9338     -137163.78    
    193700   2542.2508     -8844.8136      4446.5166     -137159.65    
    193800   2568.7652     -8039.9258      4453.0631     -137155.22    
    193900   2782.3765     -890.64315      4423.4691     -137163.54    
    194000   2370.1543     -5267.9613      4394.7323     -137159.64    
    194100   2478.5801      4507.3306      4341.1134     -137162.8     
    194200   2488.4195      2402.7298      4271.5145     -137162.6     
    194300   2618.2895      10198.985      4238.2911     -137165.25    
    194400   2609.2796     -2931.8747      4304.7346     -137165.92    
    194500   2477.864      -7857.5659      4389.9529     -137161.63    
    194600   2609.0615     -9201.1307      4439.8218     -137159.34    
    194700   2458.6407     -9130.6788      4439.6036     -137153.44    
    194800   2517.158      -10144.742      4366.8475     -137159.46    
    194900   2530.9151      13363.956      4238.8926     -137167.58    
    195000   2323.4904      7333.1867      4199.2387     -137166.45    
    195100   2360.5041      2680.3202      4214.9038     -137165.09    
    195200   2347.2936      1931.2209      4239.8478     -137160.73    
    195300   2442.5657      1370.5018      4280.9999     -137160.48    
    195400   2532.2161      9994.2388      4351.7026     -137161.59    
    195500   2373.0107     -8691.8056      4456.128      -137160.54    
    195600   2236.0915     -13865.78       4506.0112     -137158.2     
    195700   2489.7536     -1.5138109      4455.9092     -137156.02    
    195800   2627.4446      7010.7974      4390.018      -137155.48    
    195900   2601.7879     -774.48593      4374.5284     -137159.74    
    196000   2572.1328      9223.1866      4384.2019     -137163.99    
    196100   2560.0948     -3767.3101      4437.6432     -137163.95    
    196200   2487.4589      2048.6472      4480.1432     -137154.3     
    196300   2508.0516     -4370.7494      4501.7834     -137147.56    
    196400   2732.3978     -15421.865      4466.4431     -137158.6     
    196500   2457.4304      1453.7608      4357.6029     -137158.34    
    196600   2634.228       3156.062       4265.3468     -137166.03    
    196700   2443.3766      11473.249      4239.8551     -137165.72    
    196800   2277.9131     -8327.8632      4285.2513     -137164.4     
    196900   2595.6952     -390.81233      4302.2814     -137161.17    
    197000   2603.2796      5055.5382      4317.7795     -137159.91    
    197100   2552.8443     -6350.0629      4356.2102     -137163.12    
    197200   2383.0383     -8136.7376      4374.192      -137160.65    
    197300   2634.8288      6585.4485      4365.259      -137162.3     
    197400   2672.002      -5438.1106      4394.4801     -137161.1     
    197500   2158.5367     -4131.0698      4398.8506     -137152.73    
    197600   2376.8677     -6069.7613      4328.0414     -137162.96    
    197700   2496.9418      22874.274      4244.9888     -137159.66    
    197800   2765.5101      5895.6476      4277.1848     -137161.35    
    197900   2363.3412     -1838.6129      4353.1769     -137158.44    
    198000   2300.7664     -9424.0126      4395.1755     -137159.69    
    198100   2406.4633     -55.621906      4415.3339     -137158       
    198200   2479.1182     -3222.8636      4458.8529     -137153.55    
    198300   2665.4507     -11782.758      4483.0388     -137155.63    
    198400   2565.4426     -1869.0956      4481.634      -137155.26    
    198500   2296.2369     -11548.842      4460.7321     -137156.98    
    198600   2382.9873     -1958.1903      4381.0064     -137161.75    
    198700   2492.2379     -227.30435      4274.7303     -137161.3     
    198800   2869.2697      14925.011      4187.1679     -137165.78    
    198900   2927.2944      7219.2856      4203.6816     -137165.29    
    199000   2379.6071      967.20491      4293.6465     -137161.15    
    199100   2421.3011     -10100.239      4381.6807     -137165.1     
    199200   2372.8046     -6782.5687      4410.4111     -137159.07    
    199300   2602.9461      6518.2302      4397.5421     -137158.89    
    199400   2660.2982      3028.8579      4427.7695     -137158.9     
    199500   2397.4341     -10609.958      4467.5613     -137158.95    
    199600   2316.2022     -12179.364      4437.8699     -137161.57    
    199700   2605.0954      8928.1505      4328.1393     -137161.92    
    199800   2797.9971      11983.298      4278.6243     -137160.82    
    199900   2324.4344      9496.8378      4318.7725     -137156.21    
    200000   2493.143      -1542.7257      4380.3614     -137163.64    
    200100   2363.8003     -8078.5776      4409.5553     -137158.42    
    200200   2667.6558     -2620.1518      4378.1191     -137157.71    
    200300   2588.5031      1032.122       4340.6606     -137156.03    
    200400   2734.0281     -3584.0306      4353.0538     -137163.69    
    200500   2338.8272     -2245.7065      4393.516      -137156.36    
    200600   2415.0748     -1720.279       4417.505      -137156.65    
    200700   2579.7947      62.230234      4422.0895     -137158.23    
    200800   2436.4974      2936.6909      4409.956      -137155.31    
    200900   2342.988       1635.6745      4379.6972     -137157.02    
    201000   2212.9948     -10282.482      4329.41       -137164.25    
    201100   2310.9475      5647.9433      4240.6525     -137164.27    
    201200   2671.9049      491.16976      4187.3177     -137166.76    
    201300   2596.5168      9873.4964      4175.1285     -137164.36    
    201400   2175.1748     -1256.0947      4226.1982     -137157.79    
    201500   2381.2526      786.56508      4274.3372     -137165.22    
    201600   2361.288       12339.272      4331.1988     -137161.39    
    201700   2528.8232      334.35576      4429.7709     -137158.33    
    201800   2507.4415     -10478.98       4489.4465     -137155.92    
    201900   2451.7752     -7033.2224      4458.8899     -137157.58    
    202000   2423.233      -4453.8778      4370.3653     -137165.04    
    202100   2216.1177      8705.2329      4263.0495     -137162.65    
    202200   2558.5579      10592.645      4206.6232     -137166.32    
    202300   2524.4336      8998.2256      4226.6777     -137163.94    
    202400   2419.8354      142.28748      4303.9583     -137156.65    
    202500   2860.0263      3855.4891      4391.3994     -137157.15    
    202600   2636.2879     -6990.6257      4468.4267     -137157.4     
    202700   2387.9787     -3805.7168      4482.4835     -137157.28    
    202800   2215.3929      1755.1332      4457.1766     -137152.9     
    202900   2661.7182      7945.4412      4409.1424     -137158.33    
    203000   2587.8597     -420.38712      4371.8083     -137153.37    
    203100   2377.2644      10583.266      4329.1573     -137154.5     
    203200   2518.1062      1729.0283      4326.3746     -137165.59    
    203300   2457.6542     -3075.9556      4336.6641     -137162.93    
    203400   2561.4738     -12135.577      4312.2637     -137162.49    
    203500   2729.4976      12669.852      4249.0519     -137164.05    
    203600   2417.6147      3106.0107      4263.5586     -137161.05    
    203700   2223.2234      6914.1024      4322.9785     -137162.12    
    203800   2353.8045     -8359.4747      4423.0762     -137162.11    
    203900   2359.9185     -8537.5432      4501.4182     -137156.53    
    204000   2467.8204     -13020.679      4524.1519     -137155.15    
    204100   2545.5565     -10232.213      4458.6242     -137154.07    
    204200   2570.7044      7576.7243      4331.3316     -137156.46    
    204300   2410.3235      5123.6638      4247.9346     -137162.01    
    204400   2437.4007      11245.612      4215.6274     -137164.73    
    204500   2499.2935     -2225.4169      4259.6885     -137164.19    
    204600   2645.7602      3868.2663      4326.1548     -137162.97    
    204700   2419.7958      4752.4004      4384.0786     -137155.03    
    204800   2752.3581      10951.746      4431.7125     -137153.36    
    204900   2677.4782     -4113.8162      4480.7834     -137152.06    
    205000   2427.2279     -2472.6884      4491.9391     -137153.56    
    205100   2539.5277      5289.159       4474.9397     -137158.45    
    205200   2570.789      -3359.9086      4475.4258     -137158.6     
    205300   2544.1012     -3148.1437      4455.6518     -137154.58    
    205400   2864.2063     -5869.0055      4420.8473     -137155.43    
    205500   2663.4647      2666.2938      4388.8735     -137154.65    
    205600   2558.1303     -8375.1897      4362.3984     -137161.12    
    205700   2577.4315      9329.0306      4314.0105     -137164.46    
    205800   2379.5427     -12076.773      4292.2466     -137162.41    
    205900   2513.3009      7647.1274      4224.7098     -137164.35    
    206000   2623.1831      17093.745      4171.1482     -137160.55    
    206100   2838.4218      10544.903      4201.6        -137163.55    
    206200   2566.3089     -5055.293       4311.6136     -137167.55    
    206300   2227.4376     -4692.8027      4400.8726     -137159.72    
    206400   2474.3091     -3907.8267      4436.5871     -137158.62    
    206500   2609.8657     -5081.8076      4452.0734     -137158.54    
    206600   2546.2455     -2910.1924      4445.8195     -137157.84    
    206700   2528.4092     -4074.332       4413.8115     -137162.67    
    206800   2193.4909     -2013.7237      4358.946      -137160.9     
    206900   2485.0177      2573.3761      4307.2432     -137165.19    
    207000   2378.142       5096.9329      4274.5829     -137158.49    
    207100   2632.2723      10932.06       4275.8064     -137164.83    
    207200   2597.0578      3005.2149      4327.644      -137167.74    
    207300   2414.6716     -3740.9133      4398.3007     -137163.49    
    207400   2475.8305      2915.4711      4439.5226     -137155.82    
    207500   2794.4954      2033.2197      4457.4088     -137158.88    
    207600   2407.2364      12819.586      4460.9729     -137154.46    
    207700   2387.7814     -7177.977       4478.9284     -137156.38    
    207800   2444.0079     -5216.8615      4457.6692     -137154.78    
    207900   2773.2836      1500.5984      4418.1528     -137154.7     
    208000   2842.5435     -4172.4671      4405.6078     -137156.26    
    208100   2358.1482      4160.6279      4417.6016     -137154.64    
    208200   2409.8803      1926.8881      4442.5839     -137156.41    
    208300   2491.2338     -6825.4881      4465.6226     -137156.02    
    208400   2629.3088      1724.029       4467.0319     -137156.08    
    208500   2579.8442     -5530.2536      4466.2241     -137156.76    
    208600   2303.1893     -5059.2775      4428.2139     -137158.51    
    208700   2460.9256     -8187.7397      4335.0091     -137164.73    
    208800   2488.4829      4458.1839      4212.4482     -137162.19    
    208900   2811.7464      18728.954      4157.9921     -137164.84    
    209000   2726.5147      8231.6872      4225.5494     -137163.97    
    209100   2315.1135     -16277.047      4338.3909     -137161.81    
    209200   2267.5498     -1906.3592      4357.6127     -137159.63    
    209300   2593.4053      842.29122      4328.1856     -137161.64    
    209400   2534.8148      4337.5239      4310.2743     -137157.81    
    209500   2582.6902     -3616.3647      4309.5144     -137160.47    
    209600   2331.3971     -5812.834       4300.4238     -137161.66    
    209700   2394.9606     -12701.309      4272.1339     -137168.29    
    209800   2547.3555      16565.259      4199.6859     -137166.66    
    209900   2610.8635      17997.432      4223.8572     -137165.24    
    210000   2378.1085      4690.2425      4361.926      -137159.91    
    210100   2321.6205     -243.39074      4500.0913     -137156.19    
    210200   2408.5711     -4132.5831      4593.7135     -137150.73    
    210300   2605.7034     -3327.4672      4612.7949     -137154.29    
    210400   2500.7309     -962.64485      4576.9486     -137153.74    
    210500   2429.3364     -4388.925       4488.2056     -137158.09    
    210600   2310.3813     -1839.2839      4363.6081     -137159.7     
    210700   2526.5897      3396.7954      4257.0468     -137162.45    
    210800   2922.7166      10459.096      4213.3344     -137162.59    
    210900   2641.1303     -152.59425      4258.0016     -137160       
    211000   2510.9826     -656.43852      4317.1596     -137163.23    
    211100   2369.5728      4930.9642      4391.6104     -137159.51    
    211200   2419.1097     -6289.0152      4465.5468     -137153.69    
    211300   2618.7355     -5338.5529      4485.1656     -137155.43    
    211400   2432.8335     -4189.4828      4472.1612     -137154.38    
    211500   2451.8828      5370.84        4431.2322     -137157.9     
    211600   2292.6533     -5038.0867      4411.6988     -137159.95    
    211700   2243.1891     -4933.3806      4381.9977     -137165.96    
    211800   2332.8734      757.20525      4355.4515     -137162.69    
    211900   2519.5044     -1423.1642      4346.2454     -137161.3     
    212000   2611.3157     -4440.1114      4318.7768     -137162.09    
    212100   2556.8346      8428.3007      4267.1201     -137160.52    
    212200   2458.6877     -2049.7008      4268.6839     -137161.9     
    212300   2257.832      -3368.9431      4295.171      -137161.42    
    212400   2391.1648      12496.767      4305.0576     -137159.25    
    212500   2559.1567      6125.4873      4358.0426     -137156.29    
    212600   2544.8398     -6070.7888      4426.8782     -137159.01    
    212700   2515.9918     -8607.8399      4450.0149     -137161.64    
    212800   2563.8277     -11262.716      4443.16       -137160.91    
    212900   2696.0585      1639.6933      4411.7651     -137156.35    
    213000   2546.9455      6937.7187      4371.3844     -137151.79    
    213100   2346.8391     -8960.1899      4334.3566     -137158.5     
    213200   2391.4401      7291.1135      4258.9822     -137162.17    
    213300   2519.3723      6802.6943      4225.5002     -137163.75    
    213400   2673.7659      9222.5838      4261.9865     -137162.67    
    213500   2726.8822     -1340.6087      4378.0801     -137160       
    213600   2447.3932     -15553.168      4525.407      -137159.3     
    213700   2300.3515     -11800.498      4587.6939     -137159.56    
    213800   2334.0613     -12548.606      4533.4727     -137156.24    
    213900   2623.8395      672.64998      4407.6031     -137160.63    
    214000   2557.6424      9013.2383      4308.6854     -137159.38    
    214100   2516.2179      8804.9178      4257.2096     -137165.88    
    214200   2429.5587     -2454.7653      4268.2262     -137166.34    
    214300   2386.7317      5233.5569      4297.0546     -137163.72    
    214400   2509.6888     -4083.9053      4350.8408     -137163.18    
    214500   2404.1428     -2631.1906      4409.1258     -137157.53    
    214600   2541.4727      3177.4647      4449.3826     -137158.29    
    214700   2617.7311     -5689.8638      4445.5304     -137161.48    
    214800   2417.7038     -3910.5241      4405.4157     -137160.84    
    214900   2341.1735      7829.5567      4354.358      -137164.33    
    215000   2439.3416      786.44595      4334.4587     -137166.62    
    215100   2592.6295      843.29385      4326.9235     -137161.39    
    215200   2543.8646      6818.9645      4316.0502     -137158.54    
    215300   2527.3814     -2926.4384      4321.9255     -137163.57    
    215400   2325.8555     -3869.828       4336.0181     -137162.29    
    215500   2417.7984     -2542.7981      4344.6105     -137161.91    
    215600   2411.7469     -372.73773      4337.3326     -137159.46    
    215700   2467.1941      2460.5755      4320.5661     -137159.77    
    215800   2496.7402     -4574.0773      4312.6636     -137159.97    
    215900   2577.3827      9778.7179      4307.5797     -137160.61    
    216000   2256.7012      10297.459      4351.2068     -137156.59    
    216100   2234.4117     -6589.991       4436.6686     -137155.18    
    216200   2596.3832     -554.36304      4495.2499     -137155.75    
    216300   2491.5176     -14222.427      4522.7327     -137151.63    
    216400   2580.4125      2412.8232      4465.3949     -137157.77    
    216500   2372.4477      2599.5623      4411.5798     -137157.89    
    216600   2447.0287     -7441.7964      4373.1141     -137165.02    
    216700   2110.5741     -6241.5471      4303.5953     -137165.35    
    216800   2325.7266      8755.0233      4215.0758     -137166.4     
    216900   2419.1617      10563.719      4192.5893     -137162.7     
    217000   2388.5862      17874.232      4241.2988     -137159.99    
    217100   2460.1402     -12234.56       4364.3163     -137156.72    
    217200   2527.7334      2723.8807      4429.542      -137153.17    
    217300   2590.5036     -7509.0886      4444.3591     -137157.24    
    217400   2473.3624      1375.9698      4411.6161     -137157.76    
    217500   2454.3697      1887.3527      4396.7375     -137159.06    
    217600   2560.1551      1705.1672      4388.511      -137163.04    
    217700   2499.9053     -1518.4341      4390.3075     -137159.08    
    217800   2644.4335      575.96647      4365.8826     -137157.24    
    217900   2669.0318      2598.9013      4346.6177     -137158.88    
    218000   2498.7694     -5419.7681      4365.2378     -137163.45    
    218100   2579.1662     -4467.0638      4365.3117     -137165.91    
    218200   2472.2113      5778.5163      4349.1879     -137161.39    
    218300   2646.5681     -5094.7023      4367.6176     -137161.7     
    218400   2905.3026     -7678.1627      4392.3892     -137160.32    
    218500   2788.0279     -11895.956      4413.124      -137160.49    
    218600   2491.1607     -2898.311       4388.651      -137161.32    
    218700   2523.4305      7592.9658      4341.1494     -137162.23    
    218800   2501.3976      7134.471       4327.4063     -137162.27    
    218900   2384.976       2270.7886      4358.3151     -137162       
    219000   2334.6632     -7093.873       4403.3029     -137162.26    
    219100   2471.9753      7430.9932      4423.0898     -137156.73    
    219200   2613.8488     -2231.384       4462.4354     -137155.94    
    219300   2532.7934     -4781.1153      4490.7021     -137154.65    
    219400   2609.2385     -12999.032      4486.6805     -137159.45    
    219500   2267.3268      3928.634       4454.2958     -137154.53    
    219600   2351.969      -7679.3744      4421.5408     -137161.16    
    219700   2291.213      -1228.1498      4368.7915     -137157.42    
    219800   2639.927       6539.3166      4331.9388     -137157.68    
    219900   2592.2918      9679.1029      4341.3021     -137157.75    
    220000   2512.5883     -10889.454      4375.9135     -137160.53    
    220100   2379.844      -4724.0337      4361.528      -137157.57    
    220200   2442.9348      9479.0488      4321.11       -137158.8     
    220300   2566.2613      5699.2802      4326.8523     -137161.15    
    220400   2296.1931      2861.1377      4373.6121     -137156.5     
    220500   2520.937      -11216.861      4413.7437     -137162.3     
    220600   2579.3824     -1415.105       4407.1496     -137158.59    
    220700   2582.3693      1077.5579      4385.7733     -137154.36    
    220800   2657.0305     -4265.4614      4357.9042     -137160.72    
    220900   2589.1045     -1975.4081      4326.801      -137168.02    
    221000   2408.0389      1191.2273      4304.2686     -137163.27    
    221100   2460.4429      7303.6893      4295.3044     -137160.2     
    221200   2681.4933      4772.0386      4332.7456     -137160.33    
    221300   2530.0525     -3780.6113      4398.1819     -137156.47    
    221400   2297.0697     -17062.345      4431.4455     -137159.66    
    221500   2436.6718      1759.6828      4376.1348     -137164.07    
    221600   2510.9894      11857.253      4316.1791     -137160.08    
    221700   2546.5495      3512.8922      4310.2904     -137156.63    
    221800   2517.1348      3761.2374      4293.139      -137159.87    
    221900   2455.837       2248.3493      4293.7859     -137160.67    
    222000   2450.5848      10835.604      4297.9248     -137162.72    
    222100   2378.7905     -1681.1386      4341.2791     -137159.6     
    222200   2594.0833     -6138.7499      4393.9179     -137155.29    
    222300   2759.8167     -10222.296      4444.5687     -137158.56    
    222400   2456.403      -11305.599      4464.2752     -137154.03    
    222500   2430.2657     -956.36108      4400.4671     -137156.26    
    222600   2488.6707      733.90064      4294.2438     -137162.62    
    222700   2404.5135      3330.696       4195.2069     -137169.83    
    222800   2446.1362      5294.7756      4131.6873     -137170.94    
    222900   2496.332       23180.208      4127.6645     -137166.81    
    223000   2336.7839     -6047.7743      4258.0976     -137160.59    
    223100   2605.4448     -9858.1695      4406.5503     -137164.64    
    223200   2366.1104     -6444.1618      4498.316      -137157.1     
    223300   2377.9557     -12968.572      4515.1627     -137153.21    
    223400   2615.8915     -6106.4816      4432.49       -137155.58    
    223500   2631.8687      8137.7733      4317.9467     -137158.37    
    223600   2460.7001      15131.558      4257.0787     -137159.21    
    223700   2372.8275      5207.3962      4293.4069     -137158.94    
    223800   2456.6481     -7212.5886      4353.9492     -137161.92    
    223900   2440.0736     -7721.4929      4386.0436     -137160.66    
    224000   2554.709      -3817.5824      4398.2018     -137157.5     
    224100   2678.1492     -248.49372      4392.2557     -137156.53    
    224200   2584.3999      15.567759      4381.2992     -137159.96    
    224300   2493.3438     -5174.0696      4386.3718     -137165.47    
    224400   2350.7374      4295.1886      4393.4572     -137159.71    
    224500   2468.5834      6964.6809      4402.0797     -137157.49    
    224600   2486.9377     -5502.7768      4435.8178     -137155.56    
    224700   2695.9082      2392.6302      4440.8043     -137158.57    
    224800   2651.2579      4462.6066      4432.7226     -137155.35    
    224900   2493.558      -1627.9903      4427.9541     -137159.48    
    225000   2377.1391     -4163.0406      4398.7605     -137160.29    
    225100   2674.401       2489.147       4329.6799     -137164.43    
    225200   2504.3106      16476.979      4298.5752     -137154.56    
    225300   2676.7109      10199.017      4368.5205     -137155.75    
    225400   2301.6587     -8554.3889      4511.3979     -137151.41    
    225500   2223.2032     -12560.335      4589.6904     -137151.46    
    225600   2511.9639     -3558.2716      4562.497      -137153.08    
    225700   2767.4069     -5372.5769      4486.4171     -137156.34    
    225800   2556.5078      6793.3774      4393.7866     -137155.18    
    225900   2540.5104      2499.8663      4341.9848     -137159.19    
    226000   2307.4097      7085.9733      4320.7414     -137154.49    
    226100   2467.6257      5948.5115      4302.7027     -137159.36    
    226200   2509.01        4264.1389      4298.4584     -137160.28    
    226300   2549.5552      3876.6077      4327.9753     -137160.95    
    226400   2492.0888      1737.387       4398.1977     -137161.73    
    226500   2287.6911     -11044.042      4470.3043     -137159.84    
    226600   2245.944      -12893.137      4461.9753     -137158.13    
    226700   2561.7288     -354.65527      4385.9227     -137156.9     
    226800   2702.3437      1367.3209      4315.0091     -137161.52    
    226900   2462.4954      8293.3424      4248.829      -137162.31    
    227000   2500.2713      4217.0882      4228.2445     -137164.89    
    227100   2409.3208      13330.661      4275.5475     -137158.99    
    227200   2618.7653      3821.7144      4379.6728     -137154.73    
    227300   2609.124      -3459.9231      4477.6555     -137153.83    
    227400   2302.7729     -8700.1936      4530.5711     -137149.04    
    227500   2474.7034     -12657.889      4497.4702     -137157.19    
    227600   2517.0046     -372.49851      4382.0702     -137160.14    
    227700   2584.1898      12859.68       4287.2132     -137159.04    
    227800   2636.3652      11559.476      4274.1716     -137160.82    
    227900   2532.3419     -2546.4174      4321.4727     -137164.39    
    228000   2339.2891     -10158.131      4365.0513     -137164.23    
    228100   2441.5856      3149.7475      4370.5278     -137164.81    
    228200   2768.3405     -5479.7389      4372.1144     -137165.38    
    228300   2597.9842      4230.9489      4363.5443     -137159.21    
    228400   2382.7524      527.02686      4391.9891     -137156.84    
    228500   2404.1706     -12478.734      4408.7686     -137160.26    
    228600   2352.1086      2662.0965      4375.4403     -137154.99    
    228700   2787.19        7946.9416      4346.5894     -137162.04    
    228800   2465.1386      3728.8441      4346.0313     -137161       
    228900   2258.8975      1529.7874      4345.3568     -137158.66    
    229000   2515.6878     -976.95135      4343.9294     -137163.48    
    229100   2568.6444      6.1094351      4358.4246     -137161.59    
    229200   2474.95       -318.11916      4397.0756     -137152.86    
    229300   2938.9471     -10710.56       4422.0076     -137157.69    
    229400   2549.7475      2382.4132      4416.6812     -137157.96    
    229500   2404.2705     -4204.2581      4418.3632     -137158.02    
    229600   2392.7844      2909.6771      4392.5053     -137156.56    
    229700   2613.1125     -1505.5864      4354.1347     -137159.2     
    229800   2503.9226      7867.7362      4327.153      -137157.84    
    229900   2407.1389     -2628.3382      4330.8962     -137164.14    
    230000   2462.8136      2026.338       4307.0855     -137167.85    
    230100   2377.2393      14659.237      4280.7713     -137164.44    
    230200   2542.7027      4594.5728      4302.1061     -137163.9     
    230300   2708.0075      459.62022      4367.0226     -137157.55    
    230400   2712.9067     -10973.787      4459.3318     -137159.4     
    230500   2465.6617     -14435.413      4492.4268     -137157.33    
    230600   2476.8597     -5449.3131      4441.8021     -137158.87    
    230700   2434.344      -5005.5129      4374.9524     -137157.84    
    230800   2494.3381      5685.7279      4298.0824     -137159       
    230900   2664.9393      11604.894      4271.6297     -137161.82    
    231000   2395.6502      456.24997      4321.2959     -137159.7     
    231100   2368.0056      2300.7501      4369.365      -137160.18    
    231200   2499.2841     -11762.429      4410.4638     -137154.43    
    231300   2720.9694      4885.5443      4385.6265     -137158.72    
    231400   2618.1644     -159.37967      4367.2584     -137162.26    
    231500   2538.0749     -3120.5941      4356.1858     -137164.2     
    231600   2551.1366     -6059.644       4348.8446     -137164.98    
    231700   2500.4315     -2546.2204      4337.1412     -137160.73    
    231800   2727.8424      11423.596      4343.2386     -137157.56    
    231900   2545.3191     -3474.043       4444.6495     -137154.85    
    232000   2254.0819     -3739.3776      4556.2694     -137151.98    
    232100   2337.7192     -12302.963      4611.0539     -137154.68    
    232200   2581.5913     -8943.7179      4558.0971     -137151.41    
    232300   2620.6312      5207.155       4423.2654     -137151.02    
    232400   2650.3978      8356.5187      4299.5501     -137159.86    
    232500   2446.6611      12949.67       4243.0148     -137160.65    
    232600   2430.6052      3627.6491      4258.0436     -137162.36    
    232700   2507.3629      2891.7287      4316.8765     -137163.45    
    232800   2645.7785     -10808.176      4415.8899     -137159.5     
    232900   2651.368      -7888.0401      4472.8154     -137155.02    
    233000   2513.7318     -13756.434      4483.5213     -137157.11    
    233100   2277.1289     -2994.7704      4425.8126     -137157.66    
    233200   2388.3256      1744.1684      4319.929      -137159.53    
    233300   2491.7491      17872.402      4238.4822     -137160.63    
    233400   2466.3262      12921.887      4257.0767     -137162.34    
    233500   2296.2227     -6786.3123      4349.7495     -137162.59    
    233600   2487.4763      146.17982      4403.0657     -137163.75    
    233700   2630.9044     -9004.7789      4428.6986     -137159.25    
    233800   2513.0711     -1240.8683      4416.9384     -137158.13    
    233900   2403.4135     -5855.2129      4410.5218     -137157.14    
    234000   2599.8298      3630.4049      4382.4833     -137158.51    
    234100   2789.1138     -243.8933       4382.6904     -137155.25    
    234200   2657.9769     -2323.756       4391.0656     -137158.84    
    234300   2421.7819     -2122.5472      4383.1493     -137158.88    
    234400   2601.0009     -5198.7297      4341.9057     -137163.65    
    234500   2409.4272      4407.7608      4284.4356     -137159.04    
    234600   2540.2499      4475.8408      4252.7887     -137160.28    
    234700   2578.2075      11202.919      4243.3664     -137159.4     
    234800   2465.9986      4794.5882      4267.7608     -137164.75    
    234900   2361.9988     -3344.7221      4305.9801     -137166.48    
    235000   2418.9561     -360.01466      4325.6165     -137165.34    
    235100   2375.0109      17761.658      4344.9711     -137157.35    
    235200   2523.8885     -6657.5691      4417.3793     -137157.8     
    235300   2513.7397     -10128.062      4438.0982     -137157.11    
    235400   2596.7721     -3486.5907      4405.9667     -137160.11    
    235500   2282.905      -5193.7877      4360.0651     -137156.49    
    235600   2441.5246      2742.7879      4296.3814     -137166.05    
    235700   2303.0345      1286.7358      4240.7854     -137166.15    
    235800   2596.013       6563.0755      4204.2193     -137168.16    
    235900   2654.3897      3630.4748      4225.6475     -137163.03    
    236000   2458.1379      13015.694      4298.118      -137157.24    
    236100   2351.2176     -1635.1434      4433.6364     -137155.93    
    236200   2646.6209     -16562.122      4556.5397     -137157.95    
    236300   2486.6622     -3207.6383      4593.9217     -137147.06    
    236400   2611.8821     -10838.259      4556.1189     -137151.31    
    236500   2459.4212      4372.4698      4432.4229     -137156.67    
    236600   2422.7052      16250.255      4301.51       -137160.14    
    236700   2618.5098      29.46927       4222.0254     -137166.08    
    236800   2639.0719      9454.2474      4202.0432     -137168.59    
    236900   2374.4076     -5569.0477      4246.9336     -137170.51    
    237000   2251.8107      2174.6686      4283.8397     -137166.99    
    237100   2440.4809     -10238.649      4314.1244     -137165.8     
    237200   2407.3607     -6103.586       4291.694      -137160.48    
    237300   2699.9599      4733.9161      4240.1964     -137164.81    
    237400   2623.6461      4407.8183      4215.4767     -137169.25    
    237500   2348.8009      8541.7066      4220.0841     -137166.51    
    237600   2396.8933      2588.1275      4291.7153     -137164.4     
    237700   2439.068      -6634.9588      4408.8943     -137158.4     
    237800   2753.6371     -4819.8083      4495.8961     -137162.21    
    237900   2596.6523     -4021.5797      4571.1574     -137157.57    
    238000   2534.1093     -17673.54       4611.4451     -137155.95    
    238100   2427.0295     -981.83882      4545.3526     -137152.76    
    238200   2709.8567      1851.2175      4455.904      -137156.87    
    238300   2544.045      -1436.0539      4400.3096     -137154.39    
    238400   2488.4973      3018.4588      4346.2522     -137162.68    
    238500   2402.2879     -1006.1528      4314.34       -137163.02    
    238600   2480.0483      4272.162       4300.0612     -137161.77    
    238700   2563.8965      14678.16       4305.0217     -137160.42    
    238800   2430.2593     -4152.2102      4361.2761     -137164.13    
    238900   2176.6826     -11420.201      4387.7729     -137164.33    
    239000   2376.2536     -1891.9373      4359.5763     -137164.23    
    239100   2509.681       3657.4859      4331.3443     -137162.01    
    239200   2670.6622     -765.41044      4333.8697     -137162.91    
    239300   2636.3841     -9315.3126      4366.0471     -137161.68    
    239400   2440.1698     -7826.608       4365.6358     -137164.46    
    239500   2393.5384     -15643.396      4327.406      -137167.28    
    239600   2475.7884      486.2356       4232.4305     -137164.78    
    239700   2528.1344      20313.522      4157.9213     -137163.51    
    239800   2450.7318      17347.601      4187.9341     -137164.17    
    239900   2254.2233      5867.7364      4300.5353     -137161.89    
    240000   2413.2861     -7596.8365      4409.219      -137157.35    
    240100   2677.1588      1015.3585      4440.5569     -137157.83    
    240200   2554.8028      808.42627      4474.8543     -137157.69    
    240300   2288.3749     -5429.7819      4498.154      -137154.99    
    240400   2500.4283      24.725292      4475.62       -137156.69    
    240500   2695.6598      8446.3946      4455.9228     -137153.11    
    240600   2560.8873      2785.9974      4471.6997     -137149.98    
    240700   2410.7726     -3493.998       4472.6679     -137157.49    
    240800   2375.9318     -504.46433      4442.4941     -137156.15    
    240900   2699.7431     -694.77036      4417.595      -137160.17    
    241000   2462.8226     -638.98697      4415.8679     -137154.78    
    241100   2377.9962     -4781.5958      4411.4629     -137160.41    
    241200   2279.7956     -7168.1348      4362.6902     -137161.26    
    241300   2601.5821      8769.1032      4273.5785     -137162.85    
    241400   2728.7635      29012.623      4247.892      -137157.25    
    241500   2375.3343      6327.8155      4342.367      -137158.75    
    241600   2308.4286     -14578.406      4456.9785     -137159.23    
    241700   2464.275       5453.9225      4476.63       -137157.22    
    241800   2753.203      -2727.1157      4482.2421     -137160.18    
    241900   2632.7042     -11206.21       4484.8521     -137161.75    
    242000   2439.566      -6869.2923      4459.1993     -137162.6     
    242100   2425.8877     -6668.1747      4406.4926     -137159.74    
    242200   2604.6436      13147.506      4322.699      -137160.81    
    242300   2673.1059      3711.2285      4294.7929     -137164.07    
    242400   2454.6047     -12981.758      4320.4028     -137165.9     
    242500   2251.3702     -6819.2936      4338.5368     -137165.73    
    242600   2425.1345     -3361.5006      4351.4284     -137165.34    
    242700   2475.4376     -11286.448      4342.5308     -137161.9     
    242800   2547.5423      7873.0196      4289.9304     -137158.7     
    242900   2584.6434      8108.7855      4276.8581     -137159.89    
    243000   2317.9815      5108.7355      4321.0061     -137159.82    
    243100   2249.4009     -3242.6747      4379.0448     -137159.77    
    243200   2723.0202      3970.2465      4401.1283     -137163.68    
    243300   2507.1688     -2514.7317      4447.9822     -137155.03    
    243400   2554.0952     -7526.3012      4465.9712     -137158.71    
    243500   2269.7971      3950.2282      4437.7592     -137154.11    
    243600   2278.786       6422.913       4404.5616     -137155.42    
    243700   2438.9086     -3560.9342      4362.8224     -137159.56    
    243800   2686.0875      496.07467      4301.09       -137161.38    
    243900   2709.6307      6031.2898      4283.1945     -137161.53    
    244000   2431.6982     -828.08432      4307.1495     -137162.21    
    244100   2402.1566     -4700.37        4319.9111     -137163.65    
    244200   2496.2548     -1878.3911      4318.6977     -137163.69    
    244300   2600.5649     -6481.5823      4318.6822     -137159.82    
    244400   2868.2659      8659.6024      4322.0945     -137155.5     
    244500   2762.3908      3313.6778      4394.6909     -137158.07    
    244600   2458.0284     -1803.2737      4502.3954     -137154.91    
    244700   2549.731      -21407.077      4565.0647     -137159.33    
    244800   2628.641      -8145.0297      4508.1113     -137160.54    
    244900   2652.0478      5445.0339      4417.5362     -137155.12    
    245000   2799.0954      951.80803      4378.1788     -137158.54    
    245100   2526.3321      6573.6168      4385.388      -137163.39    
    245200   2271.5824     -2947.7284      4413.0715     -137159.5     
    245300   2352.4034      5869.5317      4400.3167     -137156.4     
    245400   2589.8709      2633.5716      4374.6083     -137157.34    
    245500   2534.986      -496.03118      4368.3952     -137157.97    
    245600   2401.6671      6738.4464      4379.9024     -137160.91    
    245700   2257.0535     -5346.0187      4413.9828     -137161.88    
    245800   2543.6666     -365.926        4427.2329     -137162.77    
    245900   2624.7173     -7332.4338      4443.8826     -137157.7     
    246000   2456.2338      1316.3821      4443.5506     -137153.99    
    246100   2321.8866      4285.4442      4424.4459     -137153.99    
    246200   2613.5974     -2151.4822      4385.749      -137163.95    
    246300   2352.8594      1903.5419      4356.3465     -137162.7     
    246400   2363.534      -766.58956      4348.4627     -137164.45    
    246500   2612.7249      1882.3498      4357.7506     -137161.63    
    246600   2619.5809     -10042.488      4384.7318     -137159.69    
    246700   2383.5161      450.8751       4372.472      -137155.99    
    246800   2526.9769      1176.9717      4349.5692     -137162.28    
    246900   2351.365       4929.897       4335.319      -137161.77    
    247000   2273.7977     -6688.0713      4319.5815     -137162.9     
    247100   2590.8769      1778.6318      4292.2865     -137163.49    
    247200   2683.8741      12747.705      4282.7621     -137162.31    
    247300   2625.6494     -7560.1295      4337.4236     -137164.47    
    247400   2305.4288     -630.77024      4388.4817     -137159.98    
    247500   2408.4682     -3389.2804      4409.998      -137158.45    
    247600   2633.3281      10241.812      4426.6043     -137155       
    247700   2667.8838     -8758.207       4462.2275     -137161.74    
    247800   2444.253      -7638.5833      4448.9124     -137161.55    
    247900   2357.6667     -3241.7805      4386.2302     -137159.85    
    248000   2605.9964      16663.814      4308.6784     -137160.83    
    248100   2801.7454      8090.6564      4317.881      -137159.44    
    248200   2483.8647     -4552.8376      4393.1837     -137158.05    
    248300   2436.3995     -1596.6862      4454.3943     -137162.31    
    248400   2379.9178     -14424.474      4486.1063     -137157.55    
    248500   2536.2614      2273.6327      4429.4051     -137155.31    
    248600   2606.6664      9021.7257      4334.6395     -137158.64    
    248700   2480.3415      5046.3547      4259.0448     -137160.44    
    248800   2572.656       7245.7205      4204.9987     -137165.5     
    248900   2633.7194      4746.4579      4191.6905     -137169.36    
    249000   2358.1183     -1246.069       4227.1694     -137164.69    
    249100   2531.3234     -2747.9787      4272.7533     -137164.94    
    249200   2838.2761      2204.7643      4321.9386     -137163.44    
    249300   2470.2781      174.06274      4400.6805     -137156.17    
    249400   2363.3755     -15308.688      4468.8558     -137155.76    
    249500   2479.7572     -5743.0269      4443.9263     -137156.34    
    249600   2816.8615     -582.06126      4363.7579     -137159       
    249700   2772.5528     -493.14568      4298.8622     -137159.28    
    249800   2558.2213      12368.103      4260.0977     -137165.29    
    249900   2404.5384     -2274.9647      4281.3534     -137164.83    
    250000   2382.6439      2627.339       4303.6252     -137162.94    
    250100   2534.8904      14207.505      4344.5442     -137160.11    
    250200   2557.3334     -7266.7182      4431.1473     -137159.23    
    250300   2414.4992     -5171.2789      4475.8547     -137156.18    
    250400   2550.5749     -1306.5145      4485.4443     -137152.3     
    250500   2780.2632     -12502.342      4483.5997     -137154.78    
    250600   2602.445      -7108.0099      4436.6144     -137158.41    
    250700   2653.8721     -2330.1853      4361.4367     -137165.06    
    250800   2524.3631     -1505.7146      4294.198      -137163.82    
    250900   2451.3244     -5625.7996      4239.1652     -137161.48    
    251000   2702.5179      18476.649      4187.6997     -137162.59    
    251100   2682.2892      5036.226       4245.8865     -137161.78    
    251200   2506.1772     -4456.4996      4355.2443     -137166.09    
    251300   2188.8181     -1440.4725      4432.7759     -137158.08    
    251400   2431.8538     -2261.5851      4462.8495     -137158.52    
    251500   2427.7529      1519.263       4472.8722     -137154.26    
    251600   2692.8499     -3331.6586      4480.3613     -137159       
    251700   2542.1726     -7715.4285      4465.0281     -137154.86    
    251800   2530.6327     -12400.713      4400.7066     -137160.87    
    251900   2522.3637      1488.0007      4301.6283     -137168.65    
    252000   2479.0371      6689.0716      4239.7498     -137167.84    
    252100   2400.4971      10267.345      4229.5749     -137165.27    
    252200   2550.3056      10758.95       4276.1458     -137161.27    
    252300   2661.8415      3301.9225      4355.8485     -137158.74    
    252400   2503.4833     -14085.195      4460.977      -137157.1     
    252500   2535.6749     -13542.706      4472.3159     -137163.21    
    252600   2532.1609     -4787.1145      4393.123      -137165.33    
    252700   2775.6214      4684.311       4320.2224     -137166.92    
    252800   2839.0083      10382.727      4313.9373     -137157.54    
    252900   2751.4881      542.88229      4358.0009     -137163.05    
    253000   2609.823      -6825.5972      4411.7031     -137165.13    
    253100   2387.4272     -11286.039      4447.9543     -137159.38    
    253200   2544.957      -5419.4061      4414.4445     -137159.14    
    253300   2764.3452     -3772.1185      4337.8899     -137163.74    
    253400   2404.9792      2691.1719      4285.9009     -137164.74    
    253500   2317.3022      5553.3946      4266.714      -137163.73    
    253600   2569.7009     -447.25291      4276.5646     -137164.91    
    253700   2527.971       2188.1265      4293.5131     -137160.23    
    253800   2565.3144      11656.041      4327.7094     -137161.32    
    253900   2301.0276     -6694.4694      4410.802      -137160.63    
    254000   2323.5757     -10725.166      4445.596      -137161.65    
    254100   2525.5937      1109.9011      4403.8304     -137159.03    
    254200   2483.6605      9351.4986      4360.1565     -137156.31    
    254300   2600.1665     -6136.4853      4364.6604     -137164       
    254400   2396.7974     -2860.1978      4370.5852     -137161.23    
    254500   2645.7975     -930.75963      4363.7789     -137160.2     
    254600   2655.4676      5816.0412      4369.1949     -137153.4     
    254700   2632.9596     -3776.7413      4395.9046     -137160.09    
    254800   2381.193      -4379.5647      4427.033      -137158.18    
    254900   2419.5427      458.33477      4450.4049     -137157.02    
    255000   2524.4604      3120.9781      4458.8499     -137155.91    
    255100   2769.9175     -7024.5959      4458.8746     -137157.91    
    255200   2548.3944     -288.46476      4436.1628     -137152.38    
    255300   2451.0095     -5662.2611      4385.963      -137159.79    
    255400   2503.9647      9872.5495      4290.1705     -137165.01    
    255500   2475.4238      277.24178      4226.0793     -137166.16    
    255600   2525.948      -747.05503      4185.1913     -137166.37    
    255700   2749.858       16686.423      4175.6392     -137164.43    
    255800   2599.5239      1626.0965      4274.2944     -137161.35    
    255900   2348.4225     -14589.142      4400.3393     -137162.16    
    256000   2320.3219     -4930.3755      4442.7831     -137160.98    
    256100   2465.911      -5882.5935      4434.3027     -137159.4     
    256200   2502.4194     -720.43562      4400.1898     -137158.07    
    256300   2682.3648      7221.4819      4386.2764     -137160.2     
    256400   2578.2615     -7312.5377      4425.5149     -137163.5     
    256500   2306.8455     -19604.124      4434.1157     -137160.98    
    256600   2615.9799     -2542.3895      4342.734      -137165.04    
    256700   2609.8663      10263.18       4237.116      -137163.13    
    256800   2459.8656      6530.9024      4207.8943     -137163.93    
    256900   2361.6809      5472.9845      4228.7098     -137164.19    
    257000   2378.6985     -6678.6324      4255.206      -137163.92    
    257100   2518.8854      2875.1253      4257.2641     -137163.18    
    257200   2650.6806      1706.442       4258.2676     -137162.92    
    257300   2420.5637      6473.0026      4263.9623     -137159.07    
    257400   2219.4744      6332.5486      4293.1791     -137163.46    
    257500   2213.078      -6919.2556      4349.8258     -137163.55    
    257600   2432.8802     -9682.4922      4375.1611     -137164.73    
    257700   2534.9436     -5815.6407      4346.7057     -137163.38    
    257800   2575.768       6403.1288      4298.077      -137160.51    
    257900   2603.894       13622.793      4301.8961     -137160.19    
    258000   2242.6684     -9197.6077      4358.7919     -137157.93    
    258100   2365.124      -1406.7046      4356.3969     -137162.45    
    258200   2618.5425      4700.488       4335.5761     -137163.72    
    258300   2664.9564     -5354.1627      4343.3237     -137164.7     
    258400   2314.2357     -1279.7897      4343.6218     -137164.98    
    258500   2213.9049      2340.6102      4319.5484     -137165.27    
    258600   2346.5965      2174.0255      4280.2448     -137163.04    
    258700   2629.6922      597.38809      4257.0823     -137165.08    
    258800   2459.7365      11735.77       4288.4958     -137159.66    
    258900   2522.7559     -2653.2249      4375.1511     -137160.94    
    259000   2549.9258     -3839.2064      4444.8628     -137157.84    
    259100   2681.0218     -1516.6146      4471.7407     -137154.01    
    259200   2756.1165     -11971.481      4460.8845     -137161.23    
    259300   2402.4695      5692.8086      4401.4213     -137159.75    
    259400   2413.081       3987.0601      4340.2811     -137161.52    
    259500   2481.7277      2204.2827      4297.4587     -137160.65    
    259600   2686.1785      6131.0395      4303.3551     -137158.49    
    259700   2731.03       -3575.9134      4349.4118     -137159.88    
    259800   2565.8379     -290.08051      4375.8026     -137160.24    
    259900   2579.2556     -5995.5913      4385.4737     -137161.21    
    260000   2423.5612     -4414.2666      4389.001      -137156.11    
    260100   2523.9809      1975.5806      4365.5281     -137155.71    
    260200   2456.6633      3545.3424      4318.4575     -137159.21    
    260300   2307.3093      131.20756      4268.9867     -137161.83    
    260400   2525.0279      7587.6242      4233.393      -137165.79    
    260500   2571.9785      10119.635      4252.5457     -137162.24    
    260600   2639.5903      14420.554      4321.7082     -137157.45    
    260700   2791.7866     -3721.3172      4450.8283     -137155.02    
    260800   2366.7799     -7811.8545      4573.1578     -137149.48    
    260900   2372.1303     -13609.7        4620.2882     -137154.45    
    261000   2462.8684     -1486.5648      4577.0181     -137152.64    
    261100   2661.2703     -12316.469      4495.1831     -137155.47    
    261200   2853.4684      2036.4745      4379.9559     -137164.37    
    261300   2505.7425      4525.6677      4318.7238     -137160.82    
    261400   2465.475       10569.032      4292.5906     -137161.24    
    261500   2450.6468     -6755.137       4297.3506     -137162.77    
    261600   2573.591       7686.6744      4301.1617     -137164.85    
    261700   2629.6055     -2194.0569      4347.8425     -137162.35    
    261800   2477.976       4834.601       4392.7211     -137154.87    
    261900   2628.7304     -1299.2502      4411.9829     -137161.62    
    262000   2367.7219     -3264.1455      4400.917      -137162.49    
    262100   2337.1998     -2278.4053      4364.7537     -137161.07    
    262200   2602.8421      4349.045       4330.1238     -137162.18    
    262300   2384.0825      10168.651      4337.5555     -137155.73    
    262400   2434.7521      1675.3915      4380.044      -137156.7     
    262500   2469.4425     -1008.1881      4411.8011     -137158.23    
    262600   2405.8717     -3360.5306      4435.1288     -137157.52    
    262700   2548.5029      3151.8053      4431.2893     -137160.39    
    262800   2573.2552     -9239.3227      4407.0064     -137163.11    
    262900   2431.9786     -3759.2961      4334.226      -137161.51    
    263000   2659.424       2330.468       4238.5895     -137165.34    
    263100   2703.0028      19966.418      4167.6923     -137164.32    
    263200   2484.9013      4739.6296      4180.2971     -137168.5     
    263300   2298.442       855.83427      4234.4995     -137166.55    
    263400   2329.9755      5645.9883      4295.9402     -137162.96    
    263500   2461.0122      1593.3512      4378.1717     -137160.81    
    263600   2366.1932     -4077.6287      4462.509      -137153.9     
    263700   2710.3718     -4858.5521      4511.2576     -137160.72    
    263800   2407.411      -8280.7717      4517.2877     -137152.77    
    263900   2626.0037     -737.14723      4443.442      -137157.51    
    264000   2519.7648      6996.7158      4375.4604     -137159.01    
    264100   2296.0915     -1392.4207      4357.053      -137159.16    
    264200   2558.4211      4234.8412      4325.5531     -137165.06    
    264300   2408.1845      5308.8317      4303.0941     -137161.77    
    264400   2302.6892      1932.5712      4314.9824     -137162.9     
    264500   2350.0302     -3838.876       4329.6307     -137163.98    
    264600   2479.6637      5953.4975      4312.4551     -137159.49    
    264700   2609.117       8714.0409      4312.7074     -137158.39    
    264800   2437.4377     -2999.958       4348.4001     -137155.1     
    264900   2528.3813     -10258.993      4355.3388     -137160.12    
    265000   2351.3801     -3945.3361      4333.9486     -137161.5     
    265100   2404.0994      470.95566      4303.7899     -137165.31    
    265200   2508.9982      8749.5444      4274.907      -137161.16    
    265300   2618.9719     -5272.9569      4297.1141     -137159.57    
    265400   2648.4133     -796.12882      4322.8517     -137161.57    
    265500   2407.6035      3425.8952      4341.8887     -137160.58    
    265600   2435.2438     -1321.6765      4379.4369     -137161.36    
    265700   2580.8785      9172.5325      4404.7802     -137152.36    
    265800   2720.8852     -9805.0136      4431.8556     -137159.13    
    265900   2411.3824      267.69799      4414.3259     -137158.41    
    266000   2543.9906     -1586.6835      4404.4197     -137162.25    
    266100   2548.463      -3088.0644      4384.4826     -137159.85    
    266200   2705.6409     -868.34593      4316.676      -137160.82    
    266300   2675.587       15952.699      4241.9045     -137163.82    
    266400   2436.2068      1569.8162      4238.5619     -137166.69    
    266500   2254.8418      4286.99        4252.3184     -137162.95    
    266600   2435.6         4063.9841      4269.4155     -137162.26    
    266700   2582.2486     -6391.2887      4302.8566     -137161.06    
    266800   2584.4558      3994.3835      4314.4636     -137162.87    
    266900   2446.0004      1830.2292      4345.5223     -137160.76    
    267000   2466.8711     -2765.0318      4383.2323     -137161.93    
    267100   2431.5869     -4912.5188      4395.1429     -137159.15    
    267200   2463.7323      1937.9466      4371.7621     -137155.49    
    267300   2640.2433      4174.1014      4346.675      -137156.49    
    267400   2592.7204      4374.0037      4344.3754     -137159.13    
    267500   2405.054      -5162.1545      4356.4707     -137164       
    267600   2481.0508     -8753.9604      4333.3355     -137166.85    
    267700   2408.3755      3486.8067      4276.2103     -137160.53    
    267800   2687.9045      9876.2009      4265.9758     -137162.44    
    267900   2612.7268      8818.164       4350.5667     -137161.83    
    268000   2432.4196     -16169.425      4476.8056     -137158.02    
    268100   2293.7151     -10265.126      4524.4819     -137152       
    268200   2551.4972      3623.5784      4492.5674     -137152.94    
    268300   2838.7933      4344.6868      4446.8474     -137157.97    
    268400   2253.0328      3407.3232      4438.6243     -137153.02    
    268500   2558.5934     -3944.6109      4428.2399     -137162.75    
    268600   2366.129       895.28219      4368.9589     -137156.2     
    268700   2646.6213      11801.071      4285.4571     -137160.13    
    268800   2621.9123      14474.226      4277.8421     -137160.41    
    268900   2353.8125     -9518.6554      4349.8701     -137161.73    
    269000   2348.7134     -3421.1899      4391.4088     -137162.13    
    269100   2422.1962      10912.057      4417.5634     -137157.22    
    269200   2533.0292     -13468.699      4472.7921     -137156.06    
    269300   2387.1221     -4225.7521      4456.6002     -137153.8     
    269400   2403.9204      1348.5066      4392.1997     -137154.89    
    269500   2446.1248      8640.71        4299.326      -137158.63    
    269600   2403.1284      4990.2311      4234.2812     -137163.83    
    269700   2294.8193      4020.9262      4212.8936     -137163.45    
    269800   2443.7765      20147.76       4238.9133     -137159.27    
    269900   2609.2654     -4743.4484      4383.0606     -137158.72    
    270000   2558.3578     -9870.0759      4530.8101     -137157.25    
    270100   2391.6992     -15680.734      4587.4977     -137155.79    
    270200   2494.0534     -2542.1386      4518.4811     -137154.87    
    270300   2802.8303      7881.754       4408.9246     -137155.31    
    270400   2553.8541      12585.44       4351.9058     -137154.21    
    270500   2469.3277      3204.1214      4359.7153     -137158.72    
    270600   2458.1832     -4199.4093      4380.3214     -137160.75    
    270700   2499.8591     -6435.1625      4357.57       -137163.15    
    270800   2613.1946     -4479.1157      4298.188      -137163.41    
    270900   2708.6755      17163.653      4245.3802     -137158.97    
    271000   2607.4354      3868.8756      4281.8377     -137158.83    
    271100   2349.5255     -595.03858      4336.7054     -137160.86    
    271200   2315.3401     -8050.8503      4377.0988     -137159.6     
    271300   2574.2791     -3594.0255      4368.2315     -137162.03    
    271400   2598.0146      3503.2264      4351.5954     -137161.03    
    271500   2487.9923      6602.1146      4348.198      -137164.3     
    271600   2241.9387     -5290.3625      4361.9638     -137166.34    
    271700   2416.9956     -4445.7269      4348.0767     -137167.18    
    271800   2545.462      -6461.7548      4305.9519     -137165.29    
    271900   2597.9067      7416.023       4247.0824     -137162.16    
    272000   2497.1582      14286.666      4244.3973     -137159.01    
    272100   2398.9386      910.64991      4314.6675     -137162.37    
    272200   2241.3298     -6325.064       4385.4642     -137166.33    
    272300   2224.5853     -8762.9333      4385.5742     -137160.87    
    272400   2387.7175      6409.5827      4320.3686     -137159.88    
    272500   2539.9343      8076.6135      4286.424      -137161.5     
    272600   2618.8155     -1163.4966      4299.023      -137164.92    
    272700   2476.4914      2060.9743      4323.5599     -137166.19    
    272800   2391.1663     -12454.985      4345.7735     -137167.51    
    272900   2506.2642     -3690.6544      4308.8002     -137162.2     
    273000   2584.6492      9271.4821      4278.5866     -137160       
    273100   2571.6759     -7998.1069      4285.8293     -137163.34    
    273200   2512.6271      675.03701      4265.7908     -137167       
    273300   2426.791       4968.6515      4257.3827     -137167.52    
    273400   2626.9581      4144.3348      4282.6067     -137164.33    
    273500   2748.4205      3626.6293      4334.8432     -137163.25    
    273600   2270.8199     -7035.6577      4421.796      -137154.65    
    273700   2453.9396     -5086.7161      4445.2001     -137156.69    
    273800   2632.1106      10139.096      4412.3113     -137155.15    
    273900   2579.6995     -2078.9307      4408.3586     -137158.19    
    274000   2489.5886      6783.295       4378.9191     -137159.92    
    274100   2454.8709     -12442.471      4362.9127     -137160.03    
    274200   2347.6376      10336.57       4319.1286     -137157.56    
    274300   2635.1731      1208.1893      4311.0994     -137165.65    
    274400   2420.9715     -1310.8794      4335.4094     -137163.89    
    274500   2307.2325     -2540.9362      4363.414      -137164.93    
    274600   2506.3462     -1087.3817      4392.4533     -137163.35    
    274700   2630.6831     -5879.2969      4401.5508     -137161       
    274800   2469.741       8270.9126      4381.0855     -137158.29    
    274900   2412.4135     -57.496883      4381.4595     -137160.98    
    275000   2522.3135     -7052.5762      4375.3812     -137160.05    
    275100   2875.3034      11541.807      4336.816      -137159.57    
    275200   2668.4337     -4437.6282      4378.1549     -137160.59    
    275300   2312.3694     -10461.821      4440.7661     -137155.89    
    275400   2376.3304      1806.0323      4453.4154     -137155.32    
    275500   2575.1264     -1218.1641      4441.1266     -137154.99    
    275600   2644.7552      3428.8452      4409.1223     -137155.9     
    275700   2407.1076     -4009.124       4382.3478     -137160.86    
    275800   2309.4619      5584.6945      4338.1423     -137160.41    
    275900   2601.2804     -6007.3426      4298.9314     -137165.54    
    276000   2645.4791      8665.3103      4256.0768     -137164.01    
    276100   2390.6401      5654.8353      4273.5613     -137161.04    
    276200   2363.5609     -8676.7571      4313.9069     -137164.65    
    276300   2426.295       2249.3542      4333.2744     -137161.02    
    276400   2372.3989      5674.4676      4370.8389     -137152.79    
    276500   2686.6784     -13346.307      4407.3145     -137160.43    
    276600   2616.0852     -6885.9516      4392.7778     -137161.95    
    276700   2291.4214      1274.2768      4335.6666     -137159.47    
    276800   2332.257      -70.013236      4268.4717     -137162.95    
    276900   2673.124       4977.528       4222.4131     -137166.43    
    277000   2693.7009      13805.53       4249.2723     -137165.56    
    277100   2388.2664     -5549.5201      4367.103      -137163.82    
    277200   2248.7311     -13595.688      4481.8792     -137158.82    
    277300   2367.2117     -1666.9417      4502.5735     -137153.41    
    277400   2642.3329      3460.1518      4466.0963     -137158.61    
    277500   2506.766      -2168.7984      4426.0733     -137157.8     
    277600   2436.2436      2876.5487      4363.707      -137159.38    
    277700   2443.7381      7314.0838      4313.3911     -137161.47    
    277800   2330.3559      2386.4342      4291.1921     -137164.49    
    277900   2283.8857     -1059.0288      4290.4134     -137165.54    
    278000   2335.6397      6003.4936      4321.4399     -137158.74    
    278100   2455.8147     -8858.4068      4395.2436     -137155.53    
    278200   2626.567      -4465.0219      4426.8816     -137157.12    
    278300   2589.9506      5349.2159      4457.7339     -137155.9     
    278400   2558.485      -21331.754      4536.6307     -137159.45    
    278500   2224.632       4868.1034      4542.8049     -137156.87    
    278600   2363.9575     -10065.368      4493.3787     -137160.96    
    278700   2695.3844     -1152.9389      4374.6102     -137158.61    
    278800   2761.2049      21488.144      4274.8311     -137159.57    
    278900   2381.3344      14645.779      4290.5817     -137158.5     
    279000   2441.0809     -4180.2855      4374.033      -137163.86    
    279100   2496.1312     -14897.31       4444.9096     -137163.38    
    279200   2677.2988     -7751.7834      4458.5655     -137159.36    
    279300   2657.9279      351.59561      4429.3724     -137157.57    
    279400   2543.6115      265.57704      4400.336      -137160.86    
    279500   2390.6921     -6051.7729      4386.7685     -137159.69    
    279600   2390.8808      6589.704       4352.946      -137156.83    
    279700   2616.5378      6866.1505      4353.4266     -137157.42    
    279800   2738.409       10181.535      4392.3905     -137155.05    
    279900   2504.5937     -8684.2373      4450.5585     -137153.36    
    280000   2469.8046     -4942.5845      4465.9813     -137159.28    
    280100   2349.4227     -2543.0828      4438.8707     -137156.62    
    280200   2622.1772      1840.586       4382.5719     -137159.28    
    280300   2753.2225      8448.4026      4349.9042     -137156.39    
    280400   2688.5182      4413.926       4399.2511     -137154.64    
    280500   2416.179      -5202.2576      4482.2922     -137157.33    
    280600   2395.7164     -10425.9        4513.4715     -137157.06    
    280700   2443.5641     -3773.4178      4469.1114     -137152.48    
    280800   2744.773      -1427.5798      4398.8009     -137158.59    
    280900   2520.4821      67.194205      4338.3594     -137157.95    
    281000   2518.9541      8028.5604      4285.0885     -137160.46    
    281100   2580.3961      11049.33       4281.4414     -137164.72    
    281200   2423.0609     -629.80732      4350.8116     -137164.84    
    281300   2359.6784     -11180.39       4431.648      -137160.98    
    281400   2796.5316      4049.3276      4472.1509     -137161.7     
    281500   2536.3338     -12622.705      4516.1496     -137156.97    
    281600   2419.9562      1124.3475      4474.4791     -137158.04    
    281700   2347.6574      1584.9937      4392.4629     -137159.87    
    281800   2431.7243      498.53439      4303.3548     -137163.5     
    281900   2633.6962      19095.561      4240.1594     -137162.08    
    282000   2657.9827      10783.204      4260.2283     -137160.1     
    282100   2275.3289      1848.8245      4344.9852     -137157.6     
    282200   2175.6316     -1190.8164      4416.3748     -137155.82    
    282300   2519.6456     -877.94499      4445.9847     -137159.73    
    282400   2524.9548     -6349.8754      4469.734      -137156.28    
    282500   2645.8625     -4227.4553      4449.7685     -137157.88    
    282600   2625.7759     -2250.496       4399.5524     -137162.33    
    282700   2485.0943     -3873.5524      4346.7348     -137166.59    
    282800   2418.7973      9841.554       4283.1609     -137167.8     
    282900   2386.3164      5374.6475      4256.9617     -137164.79    
    283000   2476.5783      7571.7624      4269.5765     -137164.38    
    283100   2483.7445      896.77394      4327.2807     -137162.34    
    283200   2411.0593     -9655.9501      4376.7847     -137158.92    
    283300   2739.7272      4766.0426      4385.7014     -137159.96    
    283400   2647.4873     -651.5507       4445.1481     -137153.88    
    283500   2473.5138     -8613.8561      4491.7789     -137155.34    
    283600   2610.8315     -3853.7947      4444.098      -137163.87    
    283700   2386.1388      2591.0431      4370.8037     -137157.89    
    283800   2418.7931      18460.475      4294.7582     -137155.67    
    283900   2764.853      -2143.7649      4281.5369     -137164.67    
    284000   2381.9717     -3410.4504      4302.3133     -137166.57    
    284100   2310.9469     -2221.4178      4347.7109     -137162.69    
    284200   2488.3508      8604.1268      4393.0791     -137160.18    
    284300   2483.3401     -4157.4703      4467.0054     -137156.59    
    284400   2534.5501     -7022.9597      4513.3306     -137155.88    
    284500   2644.0484     -10002.171      4491.6321     -137157.75    
    284600   2344.7252     -23.569987      4386.984      -137157.54    
    284700   2473.0491      11886.368      4244.4161     -137166.42    
    284800   2500.2152      11317.662      4158.356      -137168.84    
    284900   2545.6546      8693.0149      4153.1689     -137170.24    
    285000   2343.5431      4562.6045      4226.8634     -137162.59    
    285100   2665.2307      2285.3994      4326.98       -137163.57    
    285200   2610.9786     -17080.765      4435.4748     -137160.27    
    285300   2316.6799      1491.2495      4450.1703     -137155.33    
    285400   2533.0961     -2078.1726      4418.7878     -137161.15    
    285500   2607.292       5336.8451      4363.7763     -137162.83    
    285600   2438.3657      2204.7085      4347.8147     -137158.89    
    285700   2383.2007      926.17665      4340.6771     -137160.17    
    285800   2494.181       4779.8499      4319.3807     -137163       
    285900   2573.4717      10239.11       4311.0021     -137161.9     
    286000   2621.1176      2509.0929      4330.0351     -137158.67    
    286100   2714.899      -3558.2858      4378.4716     -137159.09    
    286200   2425.3708     -12681.994      4436.0158     -137159.13    
    286300   2374.6417     -4876.8351      4442.3894     -137160.13    
    286400   2485.9883      4833.0936      4416.2348     -137158.57    
    286500   2445.1637      7518.902       4392.2166     -137155.02    
    286600   2419.6554      9788.6144      4387.9894     -137155.61    
    286700   2471.1148      4232.5239      4434.6793     -137157.78    
    286800   2534.9952     -13709.461      4480.0278     -137156.95    
    286900   2742.1141      5640.1221      4451.7254     -137157.16    
    287000   2610.9749      5079.8599      4443.8202     -137154.31    
    287100   2457.2581     -6958.1544      4441.6991     -137159.78    
    287200   2432.3992     -9347.0479      4392.2616     -137160.6     
    287300   2586.6663     -2241.3711      4294.2629     -137163.87    
    287400   2508.8186      13240.783      4219.13       -137166.38    
    287500   2294.498       8257.894       4235.7        -137167.49    
    287600   2317.8761     -7242.2532      4302.264      -137165.31    
    287700   2541.6841     -4308.1191      4324.291      -137162.36    
    287800   2561.8239      5363.6219      4316.1153     -137161.74    
    287900   2379.8592      1246.8263      4328.7661     -137159.47    
    288000   2397.5023     -810.20641      4331.0263     -137160.53    
    288100   2531.6607     -482.64276      4309.6231     -137165.21    
    288200   2388.8046     -2579.445       4290.0726     -137163.75    
    288300   2651.3526     -6799.1703      4261.6853     -137164.86    
    288400   2657.0171      4991.4274      4231.7026     -137160.55    
    288500   2442.3436     -310.4443       4247.6557     -137160.66    
    288600   2405.8621      2901.2952      4264.0279     -137163.67    
    288700   2465.2483     -1207.2643      4274.4289     -137163.94    
    288800   2525.4948      3640.8815      4274.8133     -137160.87    
    288900   2511.8012      13044.738      4306.7472     -137157.36    
    289000   2431.9218     -10268.464      4404.6339     -137157.36    
    289100   2349.1334     -13787.447      4460.7854     -137157.04    
    289200   2533.5627     -2721.1876      4426.3891     -137160.55    
    289300   2573.9346     -5454.0494      4345.8002     -137161.92    
    289400   2457.5619      9385.7789      4258.5746     -137161.16    
    289500   2376.1913      10038.395      4220.7589     -137164.08    
    289600   2373.4067      3519.0268      4223.2312     -137167.91    
    289700   2336.483      -2249.0958      4254.8085     -137161.24    
    289800   2670.0968     -1954.7695      4282.2491     -137162.28    
    289900   2594.2571     -2908.2072      4303.9702     -137163.55    
    290000   2415.4741      1644.7135      4335.1808     -137164.62    
    290100   2415.3594      5132.5014      4389.1471     -137164.94    
    290200   2489.7293     -3996.8774      4455.1621     -137158.5     
    290300   2719.5318     -11146.697      4492.0354     -137159.13    
    290400   2668.4977     -4768.886       4484.1986     -137160.13    
    290500   2471.1985     -1458.5961      4445.2342     -137160.07    
    290600   2415.2584     -5184.086       4397.8501     -137161.59    
    290700   2341.873       5979.3386      4318.4441     -137158.23    
    290800   2818.417       9706.9278      4241.9868     -137159.15    
    290900   2700.174       7860.9048      4240.2931     -137157.69    
    291000   2530.2882      1265.0336      4300.6219     -137159.8     
    291100   2609.3878     -6946.9493      4382.0656     -137164.05    
    291200   2392.4923     -9983.3772      4424.3365     -137160.64    
    291300   2323.3728     -7126.5458      4395.1525     -137163.12    
    291400   2383.5207      5491.0474      4335.1926     -137163.85    
    291500   2751.9622      192.90804      4312.6743     -137165.86    
    291600   2469.1574      825.60418      4302.1854     -137158.27    
    291700   2442.6413      2693.4918      4297.1571     -137162.74    
    291800   2056.0261      269.2935       4310.4698     -137158.28    
    291900   2558.1193      450.28929      4323.906      -137164.39    
    292000   2529.7961     -7763.1479      4340.8828     -137157.88    
    292100   2447.3756     -2040.3093      4349.8284     -137155.63    
    292200   2419.1446      776.65914      4356.8794     -137155.39    
    292300   2464.8751     -7582.0325      4360.0825     -137160.37    
    292400   2284.4875      5081.2938      4343.7607     -137161.49    
    292500   2360.7091      11281.852      4337.7354     -137162.12    
    292600   2528.6116      9127.6125      4353.7838     -137158.3     
    292700   2683.4744      1288.7133      4406.3013     -137158.52    
    292800   2320.6013     -2392.0895      4483.9946     -137150.45    
    292900   2319.5283     -4681.9495      4526.1083     -137150.45    
    293000   2523.6246     -13125.498      4528.9074     -137154.29    
    293100   2511.9643     -4687.203       4466.6699     -137153.62    
    293200   2616.1562      1846.6316      4361.6101     -137159.18    
    293300   2419.7618      4521.0921      4284.1721     -137161.85    
    293400   2512.7387      4571.4419      4252.844      -137167.16    
    293500   2552.851       9298.3465      4240.5794     -137166.71    
    293600   2398.4133      12489.45       4261.6304     -137158.92    
    293700   2578.1782     -3938.5803      4314.3875     -137159.39    
    293800   2514.5679      12183.271      4340.276      -137156.69    
    293900   2522.9424     -9127.4829      4389.4996     -137163.37    
    294000   2277.7118     -4948.3354      4397.0274     -137160.7     
    294100   2528.7697      1493.2697      4369.4846     -137162.09    
    294200   2596.6409      368.73267      4373.8744     -137161.09    
    294300   2496.0443      2566.5433      4414.6913     -137160.03    
    294400   2396.2633      394.80169      4470.8424     -137158.22    
    294500   2495.3398     -11408.36       4495.1157     -137158.92    
    294600   2650.0743      6002.9166      4446.9109     -137157.32    
    294700   2649.1644      3441.8804      4416.8455     -137156.64    
    294800   2417.0961      2610.162       4420.5868     -137158.81    
    294900   2368.6877     -6016.8312      4409.5227     -137161.09    
    295000   2396.2139      3256.6391      4376.235      -137158.89    
    295100   2534.3633      2198.8455      4356.2876     -137156.94    
    295200   2530.5344      9752.2318      4333.0728     -137157       
    295300   2611.9147     -3004.0013      4367.7929     -137160.38    
    295400   2497.3317      8129.8531      4408.1633     -137158.26    
    295500   2459.5166     -10586.55       4443.2147     -137157.77    
    295600   2391.3637     -15178.424      4403.3617     -137159.93    
    295700   2407.2174      14134.316      4306.6615     -137162.88    
    295800   2601.4565      154.61026      4273.8397     -137164.33    
    295900   2663.3203      7197.0991      4295.9252     -137159.82    
    296000   2491.9111      4291.166       4358.6037     -137156.77    
    296100   2389.7619     -8868.3242      4420.3815     -137163.03    
    296200   2339.8893     -8663.1349      4430.5925     -137161.5     
    296300   2446.4179      5681.3217      4400.0397     -137160.71    
    296400   2557.5264     -9311.856       4399.43       -137163.05    
    296500   2300.1877      3288.0926      4358.6721     -137157.68    
    296600   2537.5097     -1173.5005      4312.8162     -137160.75    
    296700   2706.9019      16117.471      4274.7557     -137161.84    
    296800   2380.5831      2380.8967      4314.9267     -137159.15    
    296900   2288.6302     -2779.3739      4377.0167     -137160.57    
    297000   2228.6787      6369.0433      4437.6351     -137153.49    
    297100   2454.4438     -2653.1101      4484.7569     -137153.36    
    297200   2686.4833     -10221.973      4498.781      -137159.29    
    297300   2447.1611     -2194.7291      4481.2872     -137156.66    
    297400   2250.5555     -3811.192       4411.1898     -137154.96    
    297500   2637.2273      14295.227      4317.1298     -137160.79    
    297600   2665.418      -710.67981      4309.2517     -137157.39    
    297700   2587.6236     -3532.7541      4322.7218     -137161.85    
    297800   2429.1673     -2870.0408      4332.6311     -137164.19    
    297900   2320.2056     -2972.6942      4314.7438     -137160.77    
    298000   2564.1677      7331.5245      4270.0983     -137162.37    
    298100   2601.2675      12987.335      4300.0173     -137159.49    
    298200   2579.9864     -6741.1537      4413.3387     -137153.36    
    298300   2707.4225     -5853.4633      4503.2657     -137153.83    
    298400   2526.89       -5934.9717      4552.2949     -137153.52    
    298500   2472.8953     -12580.642      4534.2332     -137159.75    
    298600   2412.0394     -10537.624      4443.7571     -137159.61    
    298700   2515.9995      8202.0957      4326.4023     -137159       
    298800   2869.9573      8815.059       4275.5803     -137162.91    
    298900   2657.5944      8636.046       4294.0422     -137155.63    
    299000   2540.7646      2354.1355      4354.2381     -137163.71    
    299100   2259.5099     -8541.6697      4412.1123     -137159.34    
    299200   2485.9562     -2371.4545      4393.8776     -137160.83    
    299300   2732.7337     -4262.3534      4329.3111     -137162.14    
    299400   2767.6046      13699.461      4283.3557     -137166.06    
    299500   2406.6048     -5776.8546      4337.6452     -137164       
    299600   2474.5972     -14525.491      4361.2866     -137164.95    
    299700   2542.6977     -3734.9715      4310.9571     -137164.67    
    299800   2536.3761      12303.8        4260.0702     -137162.83    
    299900   2543.2159      2997.1152      4290.1447     -137163.15    
    300000   2342.7905     -4096.7672      4363.2427     -137160.48    
    300100   2624.48       -6331.8095      4432.4714     -137165.26    
    300200   2477.8586     -5960.1593      4476.9335     -137155.2     
    300300   2724.3483     -8228.6962      4470.191      -137156.78    
    300400   2520.2678      4670.9864      4426.1801     -137151.75    
    300500   2359.5731      2339.0013      4385.1765     -137159.02    
    300600   2536.4488     -10164.139      4357.3911     -137164.68    
    300700   2545.7228     -2212.6646      4300.7064     -137161.53    
    300800   2663.5007      11828.195      4250.7002     -137159.49    
    300900   2701.0708     -1726.9947      4271.873      -137164.16    
    301000   2222.7314     -6072.8801      4323.4459     -137160.45    
    301100   2495.8995      5847.5345      4331.9862     -137165.2     
    301200   2581.62       -7310.1233      4351.6367     -137162.59    
    301300   2531.6595      5690.231       4359.7651     -137159.38    
    301400   2502.0469     -10390.423      4386.4822     -137163.61    
    301500   2296.7719     -480.61122      4373.895      -137165.03    
    301600   2416.6979      7800.4104      4331.7114     -137165.56    
    301700   2659.8003     -1722.7017      4311.3685     -137164.51    
    301800   2445.9469      3899.0837      4304.6928     -137157.89    
    301900   2414.0612      10234.968      4327.7        -137157.52    
    302000   2388.3519     -1627.6371      4408.5281     -137155.9     
    302100   2512.4933     -7125.6061      4483.0494     -137157.01    
    302200   2471.5259     -8612.7695      4509.4843     -137154.16    
    302300   2556.2507     -7569.1342      4465.6284     -137154.41    
    302400   2472.4369      7728.2376      4377.8182     -137153.26    
    302500   2494.0172      609.09254      4304.4305     -137160.96    
    302600   2444.5256      4032.6002      4259.4911     -137163.96    
    302700   2402.6114     -746.74392      4259.2224     -137161.75    
    302800   2698.7875      3658.5816      4267.4892     -137164.28    
    302900   2549.2424      1457.1205      4312.6228     -137158.9     
    303000   2439.2719     -5350.5052      4371.9112     -137162.99    
    303100   2306.2235     -2818.8405      4402.1519     -137163.87    
    303200   2359.772      -6795.4857      4386.6308     -137159.52    
    303300   2743.93        3581.0241      4338.873      -137165.53    
    303400   2586.8119     -3891.9388      4331.6846     -137162.79    
    303500   2414.5565     -6069.7907      4334.3613     -137161.6     
    303600   2494.4567      5294.2728      4327.5815     -137162.03    
    303700   2728.2039      14777.144      4369.2223     -137159.2     
    303800   2581.2522     -10930.632      4500.4667     -137157.27    
    303900   2281.9873     -5357.0478      4594.3374     -137152.11    
    304000   2476.3101     -9783.3913      4615.8491     -137151.22    
    304100   2650.7894      3150.6233      4560.7683     -137153.31    
    304200   2562.4111      300.23659      4489.1085     -137155.54    
    304300   2295.914      -342.35856      4416.5685     -137154.05    
    304400   2523.5024      4884.7158      4350.6849     -137160.92    
    304500   2459.4115      3177.2764      4322.3065     -137156.28    
    304600   2706.2541      5744.3595      4326.8334     -137158.05    
    304700   2370.5499      3206.3395      4364.3415     -137155.34    
    304800   2251.8695     -13470.374      4384.6788     -137157.19    
    304900   2624.58       -4033.5538      4326.6949     -137164.39    
    305000   2715.8054     -731.35532      4271.5101     -137165.17    
    305100   2271.8003      7597.275       4263.6452     -137162.82    
    305200   2296.2197      2372.1743      4307.0636     -137167.29    
    305300   2421.9787     -762.3821       4353.9391     -137164.08    
    305400   2466.2481      230.46069      4368.3673     -137159.8     
    305500   2415.4147      2291.5943      4391.3244     -137157.14    
    305600   2537.0795     -4571.4058      4432.7863     -137159.52    
    305700   2495.5405     -20352.028      4428.2998     -137158.85    
    305800   2693.0412     -13670.198      4321.721      -137166.88    
    305900   2520.8548     -6735.7265      4174.3109     -137167.25    
    306000   2464.7807      14757.636      4051.7043     -137169.07    
    306100   2443.7942      16878.731      4047.6559     -137170.03    
    306200   2559.2288      10334.359      4151.4606     -137169.8     
    306300   2743.4491     -6227.9888      4309.7328     -137168.11    
    306400   2458.8751      2015.0521      4430.1185     -137157.35    
    306500   2405.6003     -11444.431      4502.9087     -137152.42    
    306600   2646.8736      230.653        4509.2761     -137149.27    
    306700   2638.3602      1244.4084      4482.075      -137152.6     
    306800   2432.8718      5249.6694      4436.2806     -137155.17    
    306900   2555.3107      1616.4559      4396.5256     -137162.72    
    307000   2374.6674     -10620.526      4374.5351     -137160.33    
    307100   2362.6003      8938.918       4328.5797     -137156.84    
    307200   2824.8116      7240.7294      4330.6147     -137161.63    
    307300   2612.5149      3255.5329      4376.6419     -137162.4     
    307400   2407.6976     -14782.417      4435.1021     -137160.45    
    307500   2434.498       7232.3388      4410.0942     -137159.49    
    307600   2529.1234      5064.1375      4376.5142     -137160.59    
    307700   2585.8926      3709.9692      4359.6        -137158.64    
    307800   2730.6561      9744.0691      4372.7374     -137155.76    
    307900   2417.8961     -1368.8838      4429.4851     -137153.13    
    308000   2438.4535     -7624.9445      4460.4962     -137158.76    
    308100   2487.1855     -9841.3201      4450.8731     -137158.89    
    308200   2599.802       4036.6461      4397.379      -137161.15    
    308300   2649.3457     -1484.8919      4365.2237     -137165.25    
    308400   2248.3269     -2395.7672      4357.9726     -137164.94    
    308500   2186.3512     -1818.2616      4339.4616     -137163.77    
    308600   2426.7151     -3018.1646      4307.9715     -137162.68    
    308700   2601.1486      6332.5587      4265.593      -137163.77    
    308800   2512.6641     -418.20183      4258.3024     -137163.29    
    308900   2313.3512     -950.2197       4261.9046     -137163.4     
    309000   2360.2725     -4785.0034      4242.1307     -137166.07    
    309100   2645.6185      11683.423      4213.7095     -137163.75    
    309200   2804.68        13054.244      4244.5744     -137166.58    
    309300   2334.6962     -2828.992       4360.0271     -137160.22    
    309400   2306.6273     -10008.33       4450.0947     -137159.05    
    309500   2526.3477     -950.22634      4470.1291     -137158.56    
    309600   2518.5396     -12973.974      4478.8854     -137157.53    
    309700   2486.4445     -2636.255       4421.3855     -137157.49    
    309800   2542.3783      3163.09        4315.8405     -137162.78    
    309900   2422.8686      8699.2002      4252.7512     -137165.6     
    310000   2303.7338      79.443312      4266.6179     -137166.08    
    310100   2535.0345      1854.1105      4298.0764     -137164.69    
    310200   2582.5253     -4081.2735      4338.5791     -137159.07    
    310300   2614.2065     -1922.4793      4363.1607     -137160.96    
    310400   2256.5869     -5598.8925      4369.0392     -137158.19    
    310500   2407.3486      2118.9777      4350.5791     -137161.6     
    310600   2648.7505     -6334.9814      4320.9452     -137162.42    
    310700   2683.8327      1448.2385      4274.2494     -137161.66    
    310800   2553.3037      8057.7066      4260.5174     -137162.73    
    310900   2495.6649      825.23587      4298.0504     -137165.8     
    311000   2361.3084     -7042.2135      4372.2983     -137161.75    
    311100   2627.0207     -2454.3208      4415.6972     -137160.82    
    311200   2710.4819     -2393.9575      4427.4983     -137159.26    
    311300   2687.7914     -4743.5379      4419.9292     -137162.51    
    311400   2525.3257     -3895.9439      4388.9317     -137160.48    
    311500   2631.0802      3542.0569      4345.7481     -137163.39    
    311600   2427.5696      4278.0393      4338.9197     -137157.29    
    311700   2604.2361      12055.045      4351.1024     -137157.34    
    311800   2554.4951     -78.206043      4399.0798     -137152.67    
    311900   2499.4896     -6919.7687      4443.3226     -137156.68    
    312000   2225.6237     -6667.2848      4444.2833     -137155.61    
    312100   2402.9917      3857.6541      4392.2804     -137158.68    
    312200   2674.495       2083.0593      4345.1784     -137160.92    
    312300   2548.9238      10264.947      4332.7444     -137159.21    
    312400   2386.0968     -5024.2574      4371.0697     -137156.08    
    312500   2582.922      -1029.0573      4368.5655     -137162.1     
    312600   2592.6771     -8389.3608      4320.5735     -137165.02    
    312700   2492.9539      4356.1507      4246.1954     -137164.78    
    312800   2360.0303      6436.9464      4190.6447     -137164.95    
    312900   2447.8747      12217.136      4174.4321     -137167.25    
    313000   2512           6923.3147      4242.6363     -137161.12    
    313100   2510.3712     -10711.779      4353.7729     -137157.11    
    313200   2548.8723     -11960.822      4411.8174     -137158.55    
    313300   2400.1214      201.31083      4401.2157     -137160.46    
    313400   2274.1216     -1886.9259      4360.6896     -137163.49    
    313500   2364.8634      12200.954      4287.3539     -137163.69    
    313600   2434.3331      9547.9946      4249.6938     -137162.12    
    313700   2481.275       5591.1184      4271.5048     -137162.08    
    313800   2352.703       9597.5063      4330.1545     -137158.89    
    313900   2313.4742     -8146.4959      4394.0838     -137155.94    
    314000   2752.1478      3520.4769      4405.523      -137158.44    
    314100   2666.3223     -3285.0574      4431.9898     -137155.78    
    314200   2437.6203     -10681.904      4454.9105     -137156.01    
    314300   2271.2516     -6001.5719      4429.7218     -137153.53    
    314400   2434.1223      3777.8187      4343.2706     -137155.86    
    314500   2697.3061      1180.7653      4247.7021     -137163.24    
    314600   2604.2309      3309.2886      4175.9356     -137168.53    
    314700   2506.3785      8337.3365      4166.1436     -137167.63    
    314800   2451.7991      6386.107       4212.0088     -137165.49    
    314900   2540.7078     -2922.6968      4284.177      -137166.1     
    315000   2491.5477     -1075.6044      4373.1661     -137156.95    
    315100   2588.5142      183.94473      4440.7165     -137153.69    
    315200   2591.6382     -1895.0584      4478.0207     -137157.03    
    315300   2555.9369     -6569.5727      4478.8376     -137160.5     
    315400   2439.6637     -4819.9355      4442.8838     -137157.99    
    315500   2579.9634     -3691.8491      4384.8512     -137160.42    
    315600   2606.8944     -624.90563      4322.7831     -137159.9     
    315700   2636.7097      5601.5558      4280.2597     -137160.05    
    315800   2710.3211     -7061.611       4272.1841     -137169.63    
    315900   2223.7114      7576.9377      4268.0117     -137161.44    
    316000   2445.8721     -8565.7569      4285.3379     -137163.35    
    316100   2502.5458      12589.926      4286.5282     -137159.15    
    316200   2577.6125      4546.9028      4340.343      -137159.87    
    316300   2542.995      -9041.6164      4415.8242     -137160.8     
    316400   2401.7579     -5969.6664      4449.5915     -137158.43    
    316500   2479.8505      5295.8172      4429.5995     -137159       
    316600   2871.3662      5258.9434      4423.4946     -137158.36    
    316700   2529.644       6256.8845      4441.1696     -137149.53    
    316800   2604.7831      1650.1255      4478.5383     -137157.71    
    316900   2451.1309     -12939.928      4507.2709     -137155.98    
    317000   2490.7519     -8729.3582      4444.8684     -137158.01    
    317100   2580.9288      1751.4161      4332.7754     -137163.54    
    317200   2330.9378      2352.4135      4258.9966     -137165.9     
    317300   2408.4912      327.1804       4213.5888     -137168.35    
    317400   2434.7152      5792.9414      4189.9419     -137164.64    
    317500   2459.4789      1200.825       4218.415      -137163.33    
    317600   2431.8564      73.193144      4272.3197     -137161.94    
    317700   2532.0886      202.98434      4331.8928     -137163.08    
    317800   2614.4848     -906.25812      4381.4135     -137163.23    
    317900   2665.7883      5227.2444      4409.6473     -137157.25    
    318000   2594.9229     -4309.9418      4458.298      -137150.94    
    318100   2581.211      -8355.3851      4455.9143     -137154.93    
    318200   2354.1141     -4136.0206      4381.6778     -137157.17    
    318300   2490.2012      5347.5708      4290.1833     -137162.45    
    318400   2450.1644      10664.536      4214.0655     -137162.86    
    318500   2512.723       6797.0293      4216.5453     -137162.6     
    318600   2710.6432      11240.012      4297.1276     -137158.34    
    318700   2561.2184     -4922.5158      4424.9978     -137156.79    
    318800   2419.5311     -9271.1769      4513.5023     -137158.18    
    318900   2567.3449     -4914.8567      4517.8756     -137161.27    
    319000   2499.7037      685.48938      4463.7292     -137156.6     
    319100   2851.1135      2572.3552      4395.8446     -137155.81    
    319200   2752.2206      3955.5713      4355.1813     -137157.32    
    319300   2410.8738      6287.1575      4348.7067     -137157.56    
    319400   2443.619       2281.9071      4363.4582     -137162.43    
    319500   2399.4949     -2017.6768      4394.3614     -137160.78    
    319600   2564.4346     -2377.4529      4406.8936     -137158.29    
    319700   2753.0508     -6861.5416      4406.6446     -137159.07    
    319800   2493.8016      3115.1286      4379.0695     -137158.13    
    319900   2554.701       4255.1805      4348.207      -137162.66    
    320000   2560.7281      2884.2978      4345.7924     -137164.32    
    320100   2483.2897     -2657.3521      4388.3937     -137163.17    
    320200   2320.3576      187.24205      4421.7349     -137157.34    
    320300   2600.6268      3139.9727      4413.1987     -137156.88    
    320400   2674.5953      11758.064      4402.7614     -137156.18    
    320500   2535.8967     -7948.3439      4452.6212     -137158.43    
    320600   2404.116      -1748.5899      4468.8557     -137161.86    
    320700   2287.5697      484.59875      4460.0335     -137156.47    
    320800   2671.4397     -10596.272      4426.6841     -137163.01    
    320900   2626.9432      277.81194      4363.6556     -137160.87    
    321000   2576.8827     -2241.5701      4317.5173     -137162.84    
    321100   2434.3374      7469.646       4266.1487     -137167.96    
    321200   2378.213       11552.579      4240.2627     -137168.01    
    321300   2520.7554      2321.0356      4266.2891     -137168.88    
    321400   2649.6209      10826.297      4332.4811     -137161.6     
    321500   2545.132      -11449.598      4454.1446     -137158.85    
    321600   2328.3859     -7148.9944      4532.7613     -137153.63    
    321700   2645.1954     -10575.932      4545.0151     -137157.3     
    321800   2743.2386     -12339.418      4493.8202     -137153.87    
    321900   2707.4591      1296.3605      4405.2466     -137155.51    
    322000   2612.1147      3179.3594      4334.1499     -137164.9     
    322100   2457.6682      9144.0044      4293.7603     -137164.14    
    322200   2312.799       11507.786      4298.2548     -137158.9     
    322300   2581.8449     -3972.2809      4324.5752     -137161.77    
    322400   2552.5757      1138.177       4344.9355     -137156.45    
    322500   2392.9858      6108.4233      4359.6012     -137156.6     
    322600   2413.3538     -7613.3053      4378.6033     -137163.67    
    322700   2483.8938      9473.7582      4385.7251     -137164.87    
    322800   2648.3469     -6596.6868      4451.2445     -137162.05    
    322900   2699.8491     -6002.9357      4516.0182     -137155.8     
    323000   2559.9628     -5959.9383      4539.5695     -137152.96    
    323100   2537.1865     -13163.866      4511.8686     -137153.94    
    323200   2517.4048      2867.5621      4393.2365     -137159.08    
    323300   2371.7195      15923.95       4270.8461     -137164.3     
    323400   2406.4316      12298.928      4216.4674     -137165.06    
    323500   2467.495       10352.766      4245.9139     -137163.1     
    323600   2530.9423      3525.5988      4358.4835     -137160.95    
    323700   2665.1291     -4508.9245      4503.5266     -137154.26    
    323800   2631.2651     -16938.438      4603.8832     -137150.98    
    323900   2514.5711     -14586.799      4578.076      -137152.23    
    324000   2691.2005     -6608.9004      4462.5756     -137160.96    
    324100   2651.3229     -6815.8123      4345.9426     -137166.46    
    324200   2524.3375      6581.1059      4256.1596     -137165.54    
    324300   2486.2694      11681.814      4228.2542     -137163.47    
    324400   2505.5307      8997.5977      4254.4358     -137163.1     
    324500   2210.7299      3426.1788      4311.2474     -137164.39    
    324600   2228.9817     -7543.5953      4369.4769     -137165.02    
    324700   2398.4856     -11261.056      4374.552      -137161.86    
    324800   2545.2124      50.468095      4337.7852     -137161.02    
    324900   2493.033      -1137.1339      4299.4946     -137157.76    
    325000   2568.5594      4344.0824      4261.9835     -137166.19    
    325100   2320.5307      3284.5323      4274.7716     -137164.8     
    325200   2366.3627     -2509.6443      4306.8019     -137162.31    
    325300   2535.5684     -1919.0193      4309.6071     -137162.84    
    325400   2659.3596      2192.3326      4313.9891     -137163.8     
    325500   2545.7833      547.34486      4334.7143     -137164.52    
    325600   2184.7385     -8511.0546      4330.7436     -137165       
    325700   2350.6087      15760.3        4287.1625     -137164.99    
    325800   2549.6685      11106.272      4292.5794     -137164.34    
    325900   2538.0876     -7626.1449      4349.0012     -137161.91    
    326000   2360.8818     -4075.0518      4365.4169     -137158.66    
    326100   2272.6502     -3190.4793      4332.5933     -137161.6     
    326200   2420.3202      7503.8932      4288.2492     -137167.19    
    326300   2560.2654      3326.8182      4291.2239     -137163.26    
    326400   2617.7302      1478.706       4327.0137     -137161.77    
    326500   2524.3451     -2430.9317      4380.5239     -137161.87    
    326600   2231.0252     -3112.5068      4416.5257     -137156.42    
    326700   2509.6823     -7728.121       4386.7776     -137158.99    
    326800   2714.3784      5798.3737      4320.2763     -137157.56    
    326900   2738.6869     -7051.3361      4305.8951     -137165.49    
    327000   2444.6946     -3688.0192      4305.276      -137163.57    
    327100   2322.121       2338.5456      4283.42       -137160.91    
    327200   2662.7996     -2396.0452      4267.2553     -137164.68    
    327300   2647.8457      17494.104      4278.0378     -137160.38    
    327400   2470.9357     -16304.389      4371.2029     -137162.98    
    327500   2262.8        -1787.8209      4415.7799     -137161.6     
    327600   2410.6697      976.29988      4423.0071     -137159.2     
    327700   2489.7455      116.74847      4407.8283     -137156.3     
    327800   2691.3803      2195.469       4391.7696     -137159.75    
    327900   2487.1742     -3554.9397      4387.1614     -137159.64    
    328000   2478.2686      2647.5126      4357.0047     -137165.02    
    328100   2404.4192      10962.856      4330.377      -137162.23    
    328200   2524.328       3590.3289      4351.0289     -137162.33    
    328300   2274.5685      6328.8036      4385.0337     -137155.22    
    328400   2394.421       3974.7206      4418.7694     -137154.99    
    328500   2838.9453     -10515.719      4465.498      -137158.24    
    328600   2635.3267     -5450.8807      4494.6265     -137156.7     
    328700   2396.7857     -3085.8961      4487.8782     -137156.92    
    328800   2375.6803     -242.79068      4425.0042     -137155.91    
    328900   2549.0151      3150.0656      4314.5788     -137159.27    
    329000   2562.9809      13688.165      4204.7119     -137161.32    
    329100   2298.7629      10908.029      4168.2075     -137163.65    
    329200   2282.9021      7164.137       4210.5215     -137163.89    
    329300   2532.857       1077.3236      4300.4375     -137164.35    
    329400   2320.8297     -11380.83       4414.4887     -137155.19    
    329500   2694.2993     -14358.145      4478.7576     -137161.44    
    329600   2533.3786     -13273.732      4473.1483     -137158.4     
    329700   2445.9615     -982.19798      4389.7025     -137160.09    
    329800   2353.4684      3606.9638      4311.9807     -137158.33    
    329900   2515.3768      10455.684      4291.056      -137158.91    
    330000   2608.9591      7175.2779      4325.1832     -137158.89    
    330100   2599.8686     -2569.2518      4401.3577     -137160.9     
    330200   2461.2323     -19934.962      4470.8303     -137160.67    
    330300   2487.118       580.8415       4449.9902     -137159.09    
    330400   2614.9454      4682.1323      4409.7246     -137154.79    
    330500   2693.0027      4487.8525      4396.7045     -137156.01    
    330600   2453.9209     -3452.4432      4418.6527     -137159.51    
    330700   2358.1768     -6880.2053      4426.436      -137158.68    
    330800   2666.8226     -9681.4811      4369.8844     -137166.2     
    330900   2573.8851      5814.33        4298.7222     -137162.1     
    331000   2793.1148      6504.4801      4296.5648     -137163.8     
    331100   2594.8066      1426.5699      4350.7502     -137162.56    
    331200   2156.753      -2778.7522      4401.3796     -137157.76    
    331300   2375.2754     -4947.3033      4396.2623     -137160.13    
    331400   2522.6667     -4740.3621      4365.4909     -137158.01    
    331500   2523.9053      1282.6082      4336.2635     -137157.9     
    331600   2486.1156      4459.7297      4325.2032     -137160.8     
    331700   2305.4692     -2500.3158      4325.6925     -137162.26    
    331800   2294.1208     -9835.9494      4290.2226     -137168.67    
    331900   2349.0831      9039.2897      4222.0361     -137167.08    
    332000   2473.9085      16054.303      4211.7163     -137160.45    
    332100   2512.6435     -200.9411       4286.088      -137160.45    
    332200   2459.5485     -4156.2889      4378.9088     -137160.5     
    332300   2389.5762     -13885.722      4418.4161     -137161.08    
    332400   2505.7546      5344.1925      4379.0699     -137161.25    
    332500   2553.6816     -4195.6338      4369.3536     -137153.52    
    332600   2686.5781      6403.7211      4358.6975     -137157.39    
    332700   2303.9548      6517.0385      4391.9246     -137152.95    
    332800   2519.4308     -4298.6723      4413.2776     -137161.7     
    332900   2474.2728     -3989.5653      4392.1706     -137159.64    
    333000   2494.4511     -1506.8275      4339.1023     -137159.58    
    333100   2563.7553      7003.5516      4304.8051     -137161.01    
    333200   2413.3338      3275.8047      4322.7317     -137159.48    
    333300   2233.1119     -3906.8828      4369.6036     -137157.7     
    333400   2469.6839     -2891.6807      4400.2285     -137158.12    
    333500   2566.5846      5612.128       4418.0456     -137154.65    
    333600   2501.3627     -8003.7178      4436.0168     -137155.36    
    333700   2425.8187     -4732.1231      4417.0962     -137158.43    
    333800   2482.2738     -6638.019       4369.6384     -137162.55    
    333900   2395.2976      7509.9912      4294.2448     -137163.38    
    334000   2473.5379      2181.3068      4243.6785     -137167.12    
    334100   2339.2387      14746.673      4235.8288     -137160.68    
    334200   2492.9848      9158.4152      4310.7931     -137157.19    
    334300   2558.4812     -7243.075       4436.9131     -137154.84    
    334400   2446.9502     -5200.2748      4526.5643     -137152.87    
    334500   2597.13       -14856.231      4562.7503     -137157.45    
    334600   2384.0579     -3948.4981      4538.7551     -137152.76    
    334700   2419.2618     -3644.4815      4501.2388     -137155.41    
    334800   2415.4909     -5161.8381      4448.0627     -137156.52    
    334900   2571.3498      6318.783       4367.3643     -137161.64    
    335000   2493.7987      6172.6173      4315.2845     -137164.54    
    335100   2244.0591      1277.5302      4330.8816     -137164.09    
    335200   2344.3917     -3302.763       4363.761      -137161.56    
    335300   2550.517      -418.62304      4366.6351     -137162.58    
    335400   2550.4626      2381.9069      4371.652      -137161.77    
    335500   2356.6307     -102.16036      4403.2684     -137156.01    
    335600   2523.2421     -396.52449      4435.8898     -137154.72    
    335700   2534.9011      7926.1673      4448.1523     -137148.76    
    335800   2624.6296     -4351.9588      4477.4683     -137153.59    
    335900   2357.4706     -9743.6696      4463.3223     -137156.68    
    336000   2588.776      -5339.8039      4387.9376     -137162.14    
    336100   2666.835      -1539.5118      4281.5799     -137163.41    
    336200   2641.7242      11895.438      4199.9174     -137169.56    
    336300   2374.9784      12552.861      4204.8524     -137168.11    
    336400   2299.4026      4331.7564      4289.9732     -137162.87    
    336500   2463.4559     -6796.9345      4406.7353     -137160.84    
    336600   2450.2461      2186.1015      4474.2983     -137156.8     
    336700   2423.3495     -1799.8483      4538.3957     -137153.25    
    336800   2649.8115     -10714.4        4574.6812     -137154.11    
    336900   2850.7007     -2021.9906      4573.8801     -137151.85    
    337000   2682.6907     -20879.252      4584.438      -137150.35    
    337100   2421.4217     -4642.7839      4509.1971     -137153.93    
    337200   2530.8198     -1556.1014      4401.7328     -137160.91    
    337300   2482.4655      6667.2834      4303.4977     -137161.5     
    337400   2344.6145      10019.051      4264.7166     -137158.43    
    337500   2377.4534     -6270.2711      4283.954      -137164.47    
    337600   2187.2979      3972.8586      4267.5029     -137161.1     
    337700   2630.0418      3283.7838      4244.9869     -137165.8     
    337800   2435.2994      11267.936      4261.9063     -137159.61    
    337900   2342.0974     -1198.4372      4306.2569     -137161.76    
    338000   2138.1565      1736.3143      4311.8342     -137165.42    
    338100   2324.6922     -2125.3619      4307.0366     -137165.92    
    338200   2453.6978      4653.8981      4290.6773     -137163.94    
    338300   2526.7509      1145.4284      4297.2625     -137160.77    
    338400   2671.7021      4568.9692      4323.009      -137163.05    
    338500   2371.9382      3767.8877      4378.0894     -137160.19    
    338600   2190.6457     -13927.049      4433.0298     -137162.76    
    338700   2210.9172     -7443.1572      4410.2573     -137164.6     
    338800   2613.5656     -773.85007      4345.9954     -137163.82    
    338900   2503.6458      835.41043      4300.3414     -137159.45    
    339000   2564.4994      4646.6258      4283.3177     -137161.02    
    339100   2498.1274     -2616.4607      4304.3726     -137165.68    
    339200   2301.1245     -3733.1132      4342.5412     -137164.28    
    339300   2348.0968     -9158.6357      4371.5007     -137159.67    
    339400   2520.9412     -3332.5234      4347.2691     -137160.38    
    339500   2526.7005      805.60537      4309.7573     -137160.21    
    339600   2567.8094      8400.7538      4284.2699     -137163.17    
    339700   2449.5644      1450.8072      4297.6444     -137166.7     
    339800   2144.7299     -1686.3846      4312.4759     -137164.68    
    339900   2386.9669     -424.64896      4311.8812     -137166.13    
    340000   2388.154       8648.7744      4314.0815     -137163.29    
    340100   2426.7207     -4875.9464      4346.7621     -137161.29    
    340200   2542.3112     -1586.9726      4372.4473     -137158.32    
    340300   2538.8519     -4624.7579      4402.3453     -137154.39    
    340400   2696.8317     -1533.5159      4443.7776     -137155.22    
    340500   2836.5947     -7613.4508      4480.9292     -137155.62    
    340600   2534.4998     -5336.6091      4472.4249     -137157.06    
    340700   2414.8636     -6056.3911      4402.5764     -137158.73    
    340800   2481.9676      17152.267      4272.1913     -137159.49    
    340900   2530.1943      23835.723      4208.7022     -137161.53    
    341000   2530.9173     -2388.2759      4269.3615     -137167.64    
    341100   2140.6737     -9431.7512      4366.4773     -137160.62    
    341200   2335.082      -14191.255      4401.1573     -137157.36    
    341300   2612.5147      6707.9617      4347.627      -137159.78    
    341400   2560.5432      2917.6963      4316.2207     -137160.31    
    341500   2296.6556     -3453.2716      4320.6025     -137157.56    
    341600   2564.0748      1301.0784      4320.9889     -137163.91    
    341700   2641.6229      19668.703      4339.7548     -137159.78    
    341800   2632.2325     -8391.2967      4441.5016     -137155       
    341900   2582.5633     -3625.8904      4504.3575     -137156.29    
    342000   2319.1692     -1424.1525      4526.8406     -137159.41    
    342100   2287.0036     -9853.2994      4503.2074     -137157.43    
    342200   2514.6149      5474.9385      4402.6007     -137157.08    
    342300   2737.9173      1318.854       4305.8862     -137162.84    
    342400   2432.5326     -239.69794      4260.6846     -137161.36    
    342500   2448.202       7346.0634      4237.1564     -137163.63    
    342600   2471.869       16314.1        4232.6753     -137163.76    
    342700   2470.5262      1524.6443      4312.4503     -137161.54    
    342800   2771.6386      5471.4087      4411.3437     -137157.93    
    342900   2530.6847     -1090.3096      4523.3333     -137151.8     
    343000   2416.6169     -20569.818      4597.4917     -137152.51    
    343100   2641.9287     -13467.427      4558.6962     -137157.67    
    343200   2559.8133      4127.7619      4445.6205     -137155.01    
    343300   2589.7203      1603.4804      4348.3302     -137163.85    
    343400   2359.7681      10063.533      4285.6557     -137165.05    
    343500   2371.6553      7347.7503      4278.1567     -137165.69    
    343600   2464.1558     -2239.3511      4302.3664     -137160.52    
    343700   2551.1341      5612.0915      4327.3476     -137159.02    
    343800   2542.2297      1365.462       4369.9762     -137159.08    
    343900   2323.1634     -1994.4612      4399.5432     -137157.34    
    344000   2303.0126      256.36425      4396.3319     -137161.01    
    344100   2344.8482     -4848.3238      4368.075      -137164.88    
    344200   2417.9589      10196.686      4314.9886     -137159.4     
    344300   2648.432      -1737.6292      4282.5472     -137161.73    
    344400   2668.892       5178.3641      4268.1323     -137165.78    
    344500   2531.8363     -4193.598       4318.3785     -137168.9     
    344600   2318.8878     -15377.613      4386.918      -137161.68    
    344700   2347.6402      2854.5137      4405.1362     -137158.11    
    344800   2454.2544     -519.33184      4422.2905     -137157.65    
    344900   2621.4826      253.25608      4432.3464     -137157.37    
    345000   2536.7618      4185.3979      4446.0882     -137156.51    
    345100   2524.4367     -9857.8801      4469.2197     -137165.53    
    345200   2205.3717     -7919.3289      4464.8003     -137155.9     
    345300   2377.3956      4119.5698      4399.2288     -137154.94    
    345400   2633.0109      8168.5846      4327.081      -137160.45    
    345500   2503.9486      2285.1796      4317.7702     -137162.9     
    345600   2376.2168     -5770.0665      4324.8141     -137163.75    
    345700   2507.1946      13493.744      4316.2095     -137164.37    
    345800   2482.2716      61.323021      4374.3034     -137162.6     
    345900   2286.017       13911.336      4426.1739     -137155.41    
    346000   2551.8789     -12174.698      4487.1333     -137156.55    
    346100   2666.3456     -1403.6252      4496.3758     -137156.12    
    346200   2668.4632     -15952.336      4471.5726     -137157.4     
    346300   2711.9444     -2597.7587      4386.6496     -137162.94    
    346400   2560.0363      4873.8991      4298.2042     -137164.05    
    346500   2496.1504     -834.34658      4246.254      -137163.82    
    346600   2437.939       6747.646       4223.896      -137163.34    
    346700   2589.9524     -1995.7715      4252.6546     -137165.72    
    346800   2603.3632     -1298.087       4295.6802     -137164.54    
    346900   2515.5764     -5808.3156      4352.2384     -137158.52    
    347000   2556.4459     -23.57977       4379.5906     -137155.66    
    347100   2536.0141     -2867.8685      4386.8734     -137155.9     
    347200   2494.5091      977.3048       4357.725      -137162.75    
    347300   2358.5646     -8351.639       4311.3531     -137163.28    
    347400   2422.3686      3639.8506      4218.6902     -137163.21    
    347500   2587.6196      14756.862      4149.2283     -137165.31    
    347600   2786.8473      15104.841      4177.4652     -137166.8     
    347700   2602.4135     -1336.5978      4305.3026     -137161.41    
    347800   2444.1849     -9020.4869      4418.5972     -137158.6     
    347900   2461.5799     -12608.182      4458.0027     -137159.79    
    348000   2450.555      -4184.6022      4431.2056     -137153.46    
    348100   2870.416       4005.0177      4361.2754     -137160.82    
    348200   2441.6586      13514.551      4336.7721     -137157.13    
    348300   2456.0283     -3474.7356      4369.9575     -137160.15    
    348400   2515.3299      3301.208       4384.9431     -137160.33    
    348500   2541.201       727.23611      4401.8229     -137155.94    
    348600   2600.5401      4233.8243      4434.7864     -137158.18    
    348700   2393.0122     -18658.841      4496.168      -137161.81    
    348800   2500.7914     -11752.432      4473.527      -137162.54    
    348900   2483.8426      1786.9616      4377.2649     -137157.3     
    349000   2752.1456      8757.4342      4301.662      -137163.71    
    349100   2611.7402      4604.8923      4311.6166     -137162.97    
    349200   2357.1301      6639.768       4361.2451     -137159.74    
    349300   2467.3007     -7177.3723      4428.9442     -137162.49    
    349400   2427.0209     -4559.3134      4461.8423     -137157.47    
    349500   2778.4777     -5920.0208      4457.3796     -137159.05    
    349600   2765.2884      878.44577      4443.2785     -137153.04    
    349700   2549.3605      1031.2638      4438.9814     -137152.84    
    349800   2416.5611     -735.08581      4411.9013     -137157.88    
    349900   2308.9211      6705.8001      4385.0899     -137156.61    
    350000   2510.2109     -409.26907      4393.1921     -137158.84    
    350100   2564.347      -1493.9574      4379.5049     -137155.26    
    350200   2916.9142      1280.2456      4359.3461     -137161.55    
    350300   2467.2233     -2389.8047      4373.5538     -137161.41    
    350400   2445.797      -1993.0207      4359.2218     -137163.5     
    350500   2481.9012     -149.79423      4318.5678     -137161.86    
    350600   2595.7681      7367.1929      4287.1943     -137159.78    
    350700   2537.6935      2243.5846      4285.4303     -137159.27    
    350800   2264.5856     -2000.1665      4292.4109     -137161.12    
    350900   2536.7968     -5815.1886      4295.6501     -137167.54    
    351000   2436.7288      18054.505      4312.6293     -137159.99    
    351100   2507.4324     -7901.9395      4386.2915     -137160.66    
    351200   2560.9131     -1320.1429      4434.3854     -137160.59    
    351300   2473.7743     -4348.8294      4488.2111     -137156.01    
    351400   2662.9861     -5886.5259      4495.2716     -137155.86    
    351500   2683.7583      9169.0729      4469.6505     -137150.98    
    351600   2486.1184     -10206.834      4458.8364     -137156.35    
    351700   2476.965      -370.08438      4387.3824     -137160.25    
    351800   2434.981       6378.6889      4285.8971     -137159.06    
    351900   2526.4655      15060.572      4202.7487     -137160.03    
    352000   2401.8511      13238.714      4190.8762     -137161.61    
    352100   2300.4138      3542.8718      4249.041      -137165.13    
    352200   2456.3743     -4081.8154      4308.2885     -137165.83    
    352300   2578.1028      2433.8189      4340.8369     -137162.91    
    352400   2483.3938     -5622.7418      4384.7027     -137159.44    
    352500   2480.2002     -4809.9223      4412.6993     -137158.78    
    352600   2524.9039      4461.3239      4416.8294     -137158.04    
    352700   2665.6932      9871.0311      4437.8701     -137157.76    
    352800   2500.9386      343.4809       4521.8148     -137153.21    
    352900   2344.5238     -10858.379      4608.3485     -137154.17    
    353000   2437.6928     -14631.953      4619.2688     -137154.3     
    353100   2654.4438     -7461.1125      4504.1293     -137154.43    
    353200   2805.2846      3387.0676      4334.4766     -137160.66    
    353300   2480.6522      8722.4785      4207.5399     -137163.26    
    353400   2532.48        19847.342      4181.2488     -137167.65    
    353500   2373.0643     -2717.5206      4280.4324     -137165.37    
    353600   2466.3343     -5101.7467      4385.2624     -137161.7     
    353700   2504.0685     -6686.467       4421.9535     -137156.3     
    353800   2488.6294     -4812.2904      4408.2392     -137154.04    
    353900   2525.9842      5795.7915      4368.9626     -137157.22    
    354000   2200.066      -8970.2404      4340.8105     -137159.89    
    354100   2316.0843      11624.495      4276.8178     -137163.55    
    354200   2441.4209      5824.2267      4240.3528     -137160.81    
    354300   2671.0793      5911.9271      4225.2441     -137161.88    
    354400   2492.21        7313.9842      4251.3536     -137160.95    
    354500   2342.8959     -13605.688      4304.1146     -137162.63    
    354600   2389.2067     -1677.6604      4304.3067     -137162.44    
    354700   2490.2467      817.82378      4303.2569     -137163.13    
    354800   2569.5188     -6006.9013      4314.0052     -137164.69    
    354900   2641.6624      2286.1304      4318.2853     -137162.12    
    355000   2683.96        18596.985      4339.754      -137155.91    
    355100   2536.0615     -11931.689      4415.3998     -137159.18    
    355200   2369.4171     -16633.543      4436.6549     -137158.2     
    355300   2537.5353      2307.8643      4368.7992     -137158.57    
    355400   2586.7736      7349.0192      4298.6221     -137156.79    
    355500   2714.2206     -138.01602      4266.653      -137164.93    
    355600   2512.0106      5372.2912      4275.5358     -137164.68    
    355700   2563.054       794.36422      4337.4605     -137165.72    
    355800   2545.0834     -1096.0035      4416.6898     -137161.31    
    355900   2503.2465     -10376.261      4476.0645     -137152.48    
    356000   2561.9387     -2415.09        4470.0703     -137152.71    
    356100   2546.6961      7662.8495      4429.7259     -137154.69    
    356200   2567.9811     -327.02189      4384.0216     -137159.94    
    356300   2553.4839      935.89571      4343.0481     -137162.61    
    356400   2580.2565     -870.23522      4309.7332     -137165.48    
    356500   2325.8585      7684.4538      4304.235      -137159.47    
    356600   2633.1597      7118.2253      4348.5423     -137163.76    
    356700   2714.5925     -4467.7372      4399.5119     -137159.2     
    356800   2767.2219     -12716.361      4409.8513     -137161.93    
    356900   2356.3875     -1400.1038      4388.7692     -137158.43    
    357000   2563.0889      5149.3476      4369.9505     -137163.9     
    357100   2433.6538     -1468.8594      4376.8401     -137159.43    
    357200   2467.6806     -5129.4477      4391.1908     -137159.38    
    357300   2462.3574      4932.9425      4414.4061     -137157.23    
    357400   2620.8468     -11002.76       4449.4475     -137160.62    
    357500   2449.118      -5015.3427      4451.1246     -137160.74    
    357600   2204.2836     -9636.0301      4438.8353     -137160.95    
    357700   2345.4417      5895.7925      4383.6402     -137159.38    
    357800   2675.3252      5365.6481      4372.6478     -137162.05    
    357900   2472.1515      3469.0352      4408.9726     -137158.13    
    358000   2568.5697     -8590.9755      4424.9871     -137163.06    
    358100   2338.4085      5445.1382      4387.285      -137157.49    
    358200   2777.3153      3124.7694      4376.5396     -137162.04    
    358300   2602.4778     -3182.2983      4394.5985     -137157.73    
    358400   2403.8798      2115.7259      4376.735      -137158.64    
    358500   2518.877      -1455.4155      4352.4738     -137164.2     
    358600   2553.4184      14005.246      4345.5415     -137164.68    
    358700   2323.9641     -2994.3228      4384.8448     -137159.13    
    358800   2484.4863     -7679.9345      4407.0562     -137159.03    
    358900   2646.6887      1547.8301      4424.7279     -137156.34    
    359000   2630.5349     -7679.7271      4432.3823     -137156.13    
    359100   2478.0721      4340.1522      4394.4365     -137157.32    
    359200   2394.2608     -3213.6652      4358.9695     -137164.87    
    359300   2357.856      -5412.5111      4318.6136     -137165.21    
    359400   2436.9773      10.218456      4277.899      -137164.77    
    359500   2518.6705     -1847.639       4273.9078     -137163.38    
    359600   2513.883       2697.7821      4294.1504     -137158.08    
    359700   2779.1294      5238.65        4334.2515     -137157.93    
    359800   2539.1037      8057.5364      4415.6439     -137153.89    
    359900   2262.61       -10858.996      4546.9676     -137153.88    
    360000   2488.2736     -11775.108      4598.1369     -137156.87    
    360100   2669.7867     -1092.7167      4554.6435     -137156.42    
    360200   2651.4646     -6254.3274      4478.6514     -137156.36    
    360300   2423.2158      9111.8036      4368.7827     -137152.71    
    360400   2745.0883      4614.0316      4280.0941     -137163.91    
    360500   2405.81        11658.4        4259.107      -137158.29    
    360600   2487.0873     -5014.3099      4322.929      -137161.18    
    360700   2578.9568      348.61169      4371.8771     -137161.6     
    360800   2619.1743      1348.8641      4413.8731     -137156.52    
    360900   2730.4052     -10151.868      4455.6798     -137155.17    
    361000   2624.1222     -5285.5996      4442.523      -137160.64    
    361100   2427.5513     -1426.4774      4401.1787     -137159.94    
    361200   2440.6066      2523.2266      4339.419      -137160.41    
    361300   2420.0208      9387.2256      4294.051      -137159.57    
    361400   2546.1261      4187.9217      4280.1838     -137160.43    
    361500   2529.2946      4592.9556      4285.1744     -137157.82    
    361600   2505.6325      4738.9985      4334.6667     -137158.47    
    361700   2573.4644     -6789.5682      4427.2333     -137162.77    
    361800   2272.0872     -13993.171      4502.6723     -137157.99    
    361900   2371.9887     -5754.5101      4496.7324     -137159.21    
    362000   2545.3647     -2341.7597      4410.9663     -137155.71    
    362100   2665.1985      5903.7662      4296.4184     -137158.11    
    362200   2677.9557      6968.9672      4240.8235     -137164.62    
    362300   2532.3095      9829.9233      4235.08       -137164.93    
    362400   2451.2032      4270.3088      4273.0077     -137163.94    
    362500   2456.0277     -79.330773      4358.5452     -137160.96    
    362600   2708.3897     -8732.4484      4456.9607     -137159.51    
    362700   2422.961      -7250.6962      4519.2796     -137149.43    
    362800   2589.3925     -7280.4838      4526.5944     -137154.41    
    362900   2474.2544      1165.5241      4483.0906     -137153.99    
    363000   2553.2459      3150.0436      4397.7055     -137159.64    
    363100   2606.8597      6511.7324      4305.1725     -137164.9     
    363200   2499.2249      11326.546      4254.6876     -137164.31    
    363300   2477.1916     -5792.7191      4255.3434     -137163.02    
    363400   2641.019       6299.1857      4246.9478     -137166.79    
    363500   2485.904      -2179.8311      4274.8228     -137161.95    
    363600   2485.3853     -141.39722      4296.8599     -137163.73    
    363700   2393.483      -300.02662      4329.488      -137165.36    
    363800   2405.1179     -4207.0436      4358.9081     -137165.65    
    363900   2475.2486      3013.551       4365.1765     -137158.14    
    364000   2616.9729      2739.6428      4366.3867     -137159.33    
    364100   2471.9099      1997.1284      4356.239      -137159.15    
    364200   2403.5883     -4470.0258      4350.7087     -137162.75    
    364300   2351.5331     -605.21536      4345.3583     -137161.79    
    364400   2813.4149     -1298.6981      4344.6682     -137162.45    
    364500   2589.2125      9786.016       4373.4984     -137157.07    
    364600   2347.9907     -7667.5961      4454.9076     -137155.02    
    364700   2416.1296     -3580.5282      4489.397      -137155.01    
    364800   2816.112      -3618.9042      4492.9179     -137156.27    
    364900   2698.326      -7864.5863      4480.128      -137151.31    
    365000   2580.765       3571.1195      4424.6435     -137154.69    
    365100   2536.5433      1518.2967      4370.2143     -137158.46    
    365200   2530.8747      7183.2047      4318.9469     -137161.59    
    365300   2364.1554      964.78266      4312.8702     -137161.69    
    365400   2257.0051     -7067.1782      4331.997      -137163.2     
    365500   2488.5981      2640.0681      4319.1075     -137166.52    
    365600   2632.1137      10164.548      4309.8301     -137162.07    
    365700   2428.6564     -9591.8311      4346.346      -137156.14    
    365800   2462.3372      1882.8756      4347.7802     -137159.18    
    365900   2449.9418     -10432.618      4336.877      -137163.64    
    366000   2515.7441      3635.9806      4280.6778     -137169.89    
    366100   2424.9892      6618.9562      4244.3324     -137168.04    
    366200   2515.5601      12238.497      4269.5759     -137162.18    
    366300   2509.1095     -819.75808      4360.4655     -137158.05    
    366400   2596.1131     -12451.074      4446.3028     -137159.35    
    366500   2414.9109     -2294.2135      4473.9554     -137158.59    
    366600   2158.2252     -19262.869      4458.6565     -137159.05    
    366700   2544.4911      9476.3285      4333.1302     -137163.71    
    366800   2602.2846      14588.252      4242.4966     -137161       
    366900   2574.1523      15006.919      4245.8908     -137163.89    
    367000   2453.0786     -3225.6838      4355.5861     -137165.43    
    367100   2321.3404      3778.7825      4477.8033     -137158.97    
    367200   2361.5481     -8786.1086      4596.5417     -137154.98    
    367300   2488.7944      2906.383       4635.4658     -137153.07    
    367400   2518.4082      1762.3516      4636.7259     -137151.64    
    367500   2470.2008     -17831.088      4608.2267     -137153.41    
    367600   2444.0639     -15.872229      4487.3188     -137159.3     
    367700   2302.4957     -7086.9968      4358.277      -137160.57    
    367800   2645.4637      15283.321      4226.8581     -137164.05    
    367900   2886.8924      8814.2029      4223.5477     -137163.76    
    368000   2414.9112     -11065.135      4295.4019     -137161.76    
    368100   2242.4337     -2152.1479      4328.6772     -137158.79    
    368200   2511.7569      1843.4482      4341.2092     -137159.77    
    368300   2498.8637     -1929.658       4374.8218     -137155.13    
    368400   2610.6272      967.79247      4394.7154     -137158.36    
    368500   2441.1496     -13789.271      4394.1412     -137162.74    
    368600   2384.7559      8099.0975      4344.6042     -137161.65    
    368700   2383.7498      6788.0928      4326.1785     -137159.39    
    368800   2402.7044     -8020.1394      4353.5173     -137158.79    
    368900   2551.8137     -207.72718      4338.6347     -137161.49    
    369000   2437.2131      12277.403      4298.32       -137161.82    
    369100   2290.9743     -126.32252      4297.6237     -137166.49    
    369200   2288.3055     -1146.1483      4282.8874     -137163.25    
    369300   2648.6466      3738.196       4252.6651     -137166.19    
    369400   2457.0236      20557.114      4278.1384     -137160.89    
    369500   2523.8481     -12742.662      4392.4592     -137159.13    
    369600   2698.405      -2963.1538      4462.9059     -137153.55    
    369700   2681.8757     -16566.592      4510.3638     -137155.84    
    369800   2587.257      -1477.4674      4477.2033     -137158.49    
    369900   2482.9133     -1563.1047      4432.0668     -137159.49    
    370000   2364.789       10982.575      4397.2369     -137159.63    
    370100   2339.8822     -4119.8071      4396.0431     -137157.95    
    370200   2592.3819      10090.791      4380.0683     -137161.24    
    370300   2500.7787      12096.713      4399.8729     -137158.64    
    370400   2384.4112     -6614.9417      4447.2029     -137157.02    
    370500   2588.115      -7186.8328      4449.2605     -137163.45    
    370600   2399.0141      3515.7125      4416.0736     -137158.01    
    370700   2714.2839      8674.48        4393.0795     -137164.08    
    370800   2436.2226     -4064.8143      4422.0645     -137161.26    
    370900   2334.4487     -8426.1614      4435.7451     -137161.89    
    371000   2586.6922     -1399.4978      4387.4278     -137161.83    
    371100   2665.243       9069.1464      4302.079      -137161.97    
    371200   2525.4339      10885.795      4268.1541     -137162.94    
    371300   2420.9203     -0.18504956     4307.8343     -137163.62    
    371400   2399.8095     -7848.2611      4352.5012     -137163.95    
    371500   2552.0926      1625.6029      4356.3763     -137162.44    
    371600   2597.4507      2035.4569      4372.6513     -137155.3     
    371700   2392.685       4355.1092      4380.7838     -137153.03    
    371800   2238.3155      2704.124       4366.2356     -137153.57    
    371900   2478.1405      5008.381       4336.4685     -137160.38    
    372000   2608.6564      10254.394      4319.0857     -137158.21    
    372100   2758.7364     -2125.2801      4364.015      -137156.81    
    372200   2571.0047     -9390.2222      4415.7598     -137159.18    
    372300   2453.5121     -6215.1875      4425.1134     -137161.83    
    372400   2531.5874     -3861.6701      4391.004      -137163.74    
    372500   2614.7217      7341.8436      4338.4665     -137161.58    
    372600   2708.8448      3493.6309      4312.3478     -137159.56    
    372700   2435.4985     -4741.0297      4308.7787     -137159.54    
    372800   2448.6844      607.81128      4306.8273     -137163.62    
    372900   2471.2986     -959.61394      4311.0306     -137163.33    
    373000   2604.3098      5233.3597      4328.2457     -137161.68    
    373100   2656.2963     -1905.1141      4368.0228     -137160.02    
    373200   2400.6881     -7903.4371      4407.6718     -137156.06    
    373300   2250.1671      7311.7103      4387.9427     -137157.25    
    373400   2463.6356      1129.8283      4361.5455     -137162.91    
    373500   2392.1893     -1927.6102      4327.6922     -137157.28    
    373600   2794.1284      3950.8575      4279.0255     -137161.66    
    373700   2576.1311     -283.31795      4273.1666     -137161.96    
    373800   2359.8993     -2313.1735      4290.4075     -137160.93    
    373900   2471.0245      8999.5615      4294.6431     -137162.46    
    374000   2650.1577     -3482.7999      4314.9236     -137165.51    
    374100   2488.3433      477.61471      4332.2444     -137162.21    
    374200   2347.5849      222.28893      4361.8595     -137161.12    
    374300   2434.4128     -3244.4316      4397.9292     -137162.27    
    374400   2460.928      -4636.4758      4406.8837     -137156.31    
    374500   2733.926       10061.744      4370.9662     -137158.8     
    374600   2596.7052     -1141.5608      4387.5589     -137158.57    
    374700   2388.5587     -2263.9872      4407.7447     -137159.5     
    374800   2404.3754     -8767.1516      4405.0114     -137160.29    
    374900   2468.6259     -2368.8488      4355.3441     -137160.06    
    375000   2515.5476      5813.6533      4278.8765     -137159.38    
    375100   2606.4605      1309.7461      4232.9638     -137162.21    
    375200   2460.6066      1635.5544      4229.5719     -137166.83    
    375300   2300.0804      3217.7308      4269.3279     -137163.65    
    375400   2470.383       5422.4976      4347.5623     -137161.41    
    375500   2426.6708     -9540.2147      4445.4038     -137157.06    
    375600   2385.7802     -5755.9323      4482.2208     -137154.17    
    375700   2576.5893     -3905.6833      4453.4484     -137156.76    
    375800   2633.5998      6893.3901      4389.9277     -137156.64    
    375900   2536.6229     -1642.849       4358.3043     -137161.59    
    376000   2395.9241     -7788.0168      4355.4992     -137163.91    
    376100   2386.2835      1793.4314      4330.0378     -137162.27    
    376200   2653.5402      1992.3608      4325.9304     -137161.92    
    376300   2450.0979     -1551.8077      4357.5834     -137155.83    
    376400   2608.6618      2569.6766      4371.943      -137161.3     
    376500   2365.1625      2264.5231      4385.4956     -137155.89    
    376600   2693.0531      1549.6579      4392.0495     -137163.92    
    376700   2496.717       4034.8949      4394.6969     -137158.93    
    376800   2552.909      -8426.2657      4414.415      -137162.92    
    376900   2269.9835      5054.8043      4414.3725     -137155.21    
    377000   2668.1904      434.50096      4395.2963     -137158.95    
    377100   2554.6852      3155.5512      4370.1289     -137157.4     
    377200   2427.2573     -3574.4739      4368.0883     -137160.74    
    377300   2399.4688      15.230512      4349.799      -137160.62    
    377400   2565.1656      643.16542      4310.9634     -137164.13    
    377500   2482.6598      3077.489       4289.1347     -137160.47    
    377600   2572.1089      4607.8761      4288.3641     -137161.9     
    377700   2277.5127     -5337.0024      4334.4034     -137163.37    
    377800   2194.1779     -774.30015      4371.4841     -137163       
    377900   2336.3617     -7058.3792      4367.6643     -137158.72    
    378000   2625.8295      1313.3532      4327.2007     -137161.28    
    378100   2378.4955      21893.851      4320.8332     -137153.13    
    378200   2595.012      -7443.5134      4380.2012     -137160.24    
    378300   2287.3737     -12260.776      4422.4851     -137159.82    
    378400   2343.7378     -12023.177      4396.9761     -137161.45    
    378500   2694.6781      3969.9035      4307.4326     -137164.41    
    378600   2626.4972      5130.6481      4266.4271     -137160.54    
    378700   2521.4331      15864.43       4281.5697     -137159.49    
    378800   2492.4512     -1973.6892      4360.9304     -137162.02    
    378900   2419.6444     -9093.6878      4427.8957     -137159.53    
    379000   2659.4229      4704.8218      4445.999      -137158.26    
    379100   2617.0697      2779.5473      4482.5671     -137153.57    
    379200   2682.3068     -14483.84       4516.0629     -137158.05    
    379300   2435.6689     -2578.6683      4481.0616     -137154.82    
    379400   2517.3097      933.90115      4415.2932     -137157.46    
    379500   2379.3286      10060.336      4365.7874     -137154.91    
    379600   2415.4        -4187.9239      4371.2714     -137159.89    
    379700   2185.5523     -2348.6503      4363.3998     -137161.16    
    379800   2299.5262      6093.9107      4301.9522     -137163.9     
    379900   2656.929       7013.8241      4256.0143     -137163.7     
    380000   2645.9706      3612.1978      4270.0881     -137163.73    
    380100   2381.2651     -686.56275      4335.912      -137159.1     
    380200   2334.3854     -8753.8474      4403.3267     -137157.09    
    380300   2678.3906     -2714.9257      4404.6609     -137159.01    
    380400   2627.7323      1779.792       4378.9466     -137155.5     
    380500   2415.3051     -193.48733      4380.0153     -137156.84    
    380600   2475.1221     -14698.206      4371.0022     -137164.38    
    380700   2464.2599      3397.9881      4262.0234     -137165.59    
    380800   2556.7039      16137.58       4162.4984     -137164.9     
    380900   2562.32        4746.0528      4156.5814     -137166.04    
    381000   2381.508       34.909488      4220.4602     -137166.17    
    381100   2176.4135     -6175.649       4295.5285     -137165.22    
    381200   2309.798      -6245.3522      4322.33       -137163.15    
    381300   2698.6042     -7398.9428      4311.9912     -137166.37    
    381400   2336.66        6856.7971      4281.123      -137159.76    
    381500   2377.1244      4011.0246      4245.5652     -137164.72    
    381600   2464.9192      5369.4115      4219.0373     -137163.96    
    381700   2810.2401      10468.489      4243.9151     -137164.06    
    381800   2430.6604     -4589.6427      4360.3367     -137156.73    
    381900   2385.1453     -16406.677      4458.5508     -137156.25    
    382000   2575.9896     -8131.1911      4452.7469     -137156.58    
    382100   2979.8235      9072.6295      4383.804      -137158.73    
    382200   2678.6173      857.09395      4346.956      -137160.91    
    382300   2491.2065      97.101254      4324.247      -137162.52    
    382400   2399.7506      6128.8223      4312.8724     -137162.07    
    382500   2408.387      -1951.5327      4329.2903     -137159.15    
    382600   2478.3455      11214.476      4343.9478     -137153.56    
    382700   2719.0433     -2092.3206      4420.2779     -137157.9     
    382800   2475.9673     -8384.3613      4528.1143     -137155.37    
    382900   2389.9521     -8976.9014      4584.6396     -137154.3     
    383000   2406.8163     -6711.9027      4558.1781     -137153.26    
    383100   2653.4887     -2240.9199      4459.0847     -137155.94    
    383200   2577.1952     -4163.2225      4346.2313     -137158.61    
    383300   2577.5467     -2029.93        4235.5983     -137168.63    
    383400   2474.1212      7214.8449      4156.9983     -137166.33    
    383500   2624.052       10909.518      4149.9383     -137168.77    
    383600   2582.6543      2457.2674      4232.7781     -137165.58    
    383700   2578.919       3510.2217      4354.1654     -137159.68    
    383800   2594.7064     -3638.7416      4468.4479     -137154.57    
    383900   2462.9087     -8517.8175      4534.6105     -137155.38    
    384000   2150.1146     -10849.991      4523.009      -137154.9     
    384100   2434.0439      9952.6698      4429.4089     -137159.61    
    384200   2609.9128      14869.155      4372.6074     -137161.77    
    384300   2519.4562     -1926.4773      4405.3476     -137160.76    
    384400   2400.7425     -2185.9127      4438.2288     -137158.52    
    384500   2660.9472     -6110.7653      4433.4609     -137161.33    
    384600   2725.2623      3729.1949      4412.6853     -137156.62    
    384700   2718.5362     -2680.5038      4395.3804     -137159.92    
    384800   2607.2911     -8142.3395      4370.8424     -137165.37    
    384900   2376.2134      7299.4996      4324.1432     -137161.31    
    385000   2637.4279     -6796.3658      4310.7538     -137165.9     
    385100   2446.2702      7949.9206      4305.8618     -137156.82    
    385200   2880.4178      3775.3308      4326.2841     -137161.85    
    385300   2567.3011     -8004.6461      4386.5867     -137156.77    
    385400   2404.1539     -1043.9182      4423.7111     -137159.66    
    385500   2268.5359      7967.813       4426.5541     -137155.73    
    385600   2466.4906     -820.50176      4424.7803     -137156.32    
    385700   2526.919      -21.71772       4401.8579     -137151.45    
    385800   2612.1813      4192.2464      4371.7795     -137157.67    
    385900   2395.6539     -3299.8394      4376.9341     -137162.21    
    386000   2562.9254     -9850.5769      4363.2669     -137164.93    
    386100   2695.6315      1105.3281      4316.4598     -137165.29    
    386200   2509.2654      7107.695       4290.002      -137160.75    
    386300   2435.4452      221.09874      4325.7662     -137159.76    
    386400   2445.5067     -994.98208      4375.6117     -137160.99    
    386500   2471.8048     -4123.0575      4434.3289     -137161.24    
    386600   2388.2932     -5540.1829      4487.2749     -137154.11    
    386700   2595.1057     -679.03144      4498.2329     -137153.08    
    386800   2578.0034     -5703.8148      4511.9427     -137152.77    
    386900   2387.9134     -5394.2221      4504.2218     -137157.83    
    387000   2432.4645     -6196.8819      4433.756      -137162.81    
    387100   2507.1406      679.79118      4326.5199     -137160.54    
    387200   2602.9723      5794.9187      4222.4159     -137160.28    
    387300   2501.6275      12036.197      4158.1198     -137163.51    
    387400   2489.8662      7079.2281      4173.7306     -137169.95    
    387500   2333.906       8440.4183      4270.6219     -137163.92    
    387600   2425.4698     -7422.0283      4388.3111     -137159       
    387700   2610.3592     -7388.6968      4451.9282     -137157.76    
    387800   2636.4861      2340.229       4480.5963     -137156.62    
    387900   2491.2987     -11125.53       4515.4079     -137156.62    
    388000   2327.6166     -11734.512      4480.1268     -137160       
    388100   2295.0373     -3252.8526      4379.3151     -137165.4     
    388200   2249.637       3878.7933      4268.7388     -137169.47    
    388300   2448.5707      3349.7614      4186.4083     -137168.74    
    388400   2588.3525      9767.2694      4159.3716     -137165.62    
    388500   2596.0508      6189.0681      4193.1672     -137165.15    
    388600   2353.4866      4541.0937      4256.3643     -137161.32    
    388700   2387.8527      5275.7398      4330.9984     -137161.79    
    388800   2571.1708     -14274.413      4405.5108     -137158.58    
    388900   2742.571      -7765.149       4426.1637     -137158.16    
    389000   2462.7904     -6394.9655      4415.1885     -137154.76    
    389100   2602.7371     -7151.9891      4357.9631     -137164.56    
    389200   2525.1601     -4595.598       4286.8173     -137163.97    
    389300   2506.4955      8466.3262      4231.256      -137162.51    
    389400   2629.9053      8604.4145      4251.7336     -137166.08    
    389500   2466.3931     -9034.3726      4336.6957     -137162.59    
    389600   2468.9382      1309.8372      4386.083      -137160.09    
    389700   2777.7006     -3195.1857      4410.9378     -137159.76    
    389800   2660.2815     -1693.2037      4424.1897     -137156.18    
    389900   2307.7776     -10113.938      4413.9604     -137156.31    
    390000   2283.2095      5748.1439      4336.7449     -137158.43    
    390100   2583.6934      7075.1124      4283.1556     -137162.94    
    390200   2469.2073      12733.347      4293.2586     -137157.83    
    390300   2570.0074      1584.6433      4353.6255     -137161.76    
    390400   2348.6626     -9625.7499      4406.0176     -137162.14    
    390500   2306.875      -4464.1945      4393.3293     -137161.84    
    390600   2618.6218      3318.3574      4333.627      -137162.27    
    390700   2747.1593      2343.3862      4306.3723     -137163.66    
    390800   2493.3751     -5090.5443      4320.0422     -137162.35    
    390900   2446.9371     -2487.8818      4311.9751     -137162.79    
    391000   2593.5062      652.03382      4281.5261     -137167.66    
    391100   2331.8005     -1552.4926      4264.1792     -137162.08    
    391200   2410.1481      13670.538      4260.5877     -137156.78    
    391300   2573.6363      16518.813      4297.8263     -137154.3     
    391400   2460.6964     -4141.7867      4407.7705     -137154.92    
    391500   2360.4235     -5879.3239      4481.5409     -137157.76    
    391600   2372.298      -13834.653      4486.0233     -137157.35    
    391700   2692.6176      5272.6512      4438.3924     -137155.62    
    391800   2635.2615      4413.6297      4409.6349     -137154.57    
    391900   2499.4837      10218.872      4381.7428     -137156.42    
    392000   2431.1434      1429.137       4396.1046     -137159.8     
    392100   2376.2278     -2086.988       4410.3271     -137160.12    
    392200   2450.3512     -1507.2693      4405.7437     -137157.05    
    392300   2731.1752      5587.6196      4407.172      -137154.53    
    392400   2542.4894     -13073.49       4438.3867     -137153.1     
    392500   2551.8387     -3450.8849      4393.7583     -137157.74    
    392600   2629.6214      12053.209      4330.8692     -137162.74    
    392700   2346.6442      5031.4329      4317.6342     -137162.48    
    392800   2183.1709      8370.7723      4319.6423     -137159.74    
    392900   2567.2573      1296.1621      4345.1786     -137167.11    
    393000   2464.9468      857.83381      4374.6028     -137162.13    
    393100   2585.3161      2178.9268      4373.4293     -137161.81    
    393200   2682.4876     -5833.4479      4371.6475     -137163.33    
    393300   2401.4504      2661.4077      4366.506      -137159.89    
    393400   2141.2798      802.83021      4366.3703     -137156.2     
    393500   2534.2036     -3997.2926      4339.1055     -137161.44    
    393600   2705.065       8367.3154      4295.4824     -137161.02    
    393700   2674.7286     -145.31107      4289.2551     -137163.32    
    393800   2440.8951      7787.9879      4303.2527     -137161.75    
    393900   2558.0526     -8701.0398      4353.491      -137165.18    
    394000   2490.5693     -1933.6126      4374.5435     -137162.51    
    394100   2523.8265      772.0847       4368.2332     -137162.16    
    394200   2639.3246      6436.9321      4368.7667     -137159.72    
    394300   2722.031      -5445.4308      4406.3254     -137156.21    
    394400   2522.6029     -2631.0932      4444.9144     -137157.06    
    394500   2397.2799     -3314.6935      4473.9647     -137159.48    
    394600   2470.6024     -11586.089      4458.718      -137160.99    
    394700   2419.5615      9141.097       4385.7222     -137157.29    
    394800   2642.2394      1627.2721      4336.4509     -137161.44    
    394900   2464.0158      5102.9464      4323.0385     -137161.68    
    395000   2219.4266      4110.4478      4353.0997     -137159.98    
    395100   2410.4111      2027.6402      4387.0617     -137158.78    
    395200   2543.8871      1715.1239      4410.8353     -137156.7     
    395300   2560.5081     -358.45615      4441.2592     -137156.61    
    395400   2485.0961     -8737.5159      4457.1929     -137157.43    
    395500   2429.9439     -3015.4979      4430.3706     -137159.95    
    395600   2057.7748      2319.3262      4373.0147     -137159.77    
    395700   2417.8078      5505.5162      4293.2543     -137165.81    
    395800   2522.5661      4776.3801      4238.5479     -137165.46    
    395900   2513.9733      11318.598      4217.9832     -137166.31    
    396000   2485.6154      157.03072      4255.9951     -137168.33    
    396100   2180.81       -4654.4187      4316.8142     -137164.8     
    396200   2312.9893      5736.8907      4366.4903     -137161.75    
    396300   2468.0717     -2684.6472      4437.5307     -137158.15    
    396400   2621.7271     -9672.6433      4493.5892     -137157.66    
    396500   2478.2423     -17399.965      4492.4244     -137153.91    
    396600   2597.9153     -5653.143       4396.3492     -137160.91    
    396700   2421.7214      8832.2097      4266.2714     -137163.89    
    396800   2423.8576      13710.12       4202.3836     -137166.14    
    396900   2724.9824     -2074.227       4210.9693     -137167.58    
    397000   2529.4626      18259.754      4260.2256     -137159.9     
    397100   2487.2602     -7766.9133      4387.0708     -137160.45    
    397200   2531.5024     -10979.921      4471.1532     -137160.32    
    397300   2429.6716     -7732.819       4488.3758     -137152.52    
    397400   2641.445       2945.7292      4455.0414     -137150.72    
    397500   2733.9219      2794.5501      4430.4082     -137156.92    
    397600   2540.655       1337.506       4424.1524     -137156.97    
    397700   2626.4343     -7790.0841      4420.1121     -137161.31    
    397800   2377.2161      2968.8301      4387.2176     -137156.62    
    397900   2529.3331     -3812.7573      4361.2114     -137163.55    
    398000   2412.2552      1575.8724      4339.9395     -137166.57    
    398100   2354.2429     -8314.3253      4320.7605     -137167.47    
    398200   2603.3247      6797.3423      4282.8589     -137164.8     
    398300   2637.8564      10913.855      4297.7146     -137162.57    
    398400   2366.4923     -2092.366       4375.3784     -137159.05    
    398500   2340.9576     -9706.2803      4433.6665     -137160.31    
    398600   2684.908      -2064.8332      4426.5432     -137163.33    
    398700   2763.1356     -5572.4207      4407.2862     -137157.48    
    398800   2523.6604      7539.4993      4398.7376     -137154.83    
    398900   2472.853      -6429.4825      4426.7025     -137157.47    
    399000   2519.3121     -6783.7874      4406.5614     -137159.51    
    399100   2518.7485      1478.8441      4343.3421     -137161.82    
    399200   2282.9304     -1277.1013      4306.094      -137161.31    
    399300   2187.4277      10758.461      4277.0507     -137166.69    
    399400   2267.1585     -2291.8993      4284.141      -137163.03    
    399500   2621.0677     -2177.4038      4273.4348     -137167.1     
    399600   2484.0204     -602.20109      4265.577      -137162.1     
    399700   2561.9257      9645.9461      4288.3185     -137163.6     
    399800   2387.7426     -6179.6097      4376.5432     -137160.55    
    399900   2484.5246     -4208.85        4429.7271     -137159.37    
    400000   2644.7445     -9394.676       4446.7156     -137156.75    
    400100   2576.5089     -3893.7172      4439.1717     -137154.23    
    400200   2405.4263     -10350.946      4403.6168     -137160.71    
    400300   2310.9628      7692.5763      4320.8861     -137159.98    
    400400   2517.0405      13675.48       4293.2474     -137160.81    
    400500   2656.5817     -2242.9768      4349.4904     -137162.77    
    400600   2316.6436      129.39036      4407.2748     -137157.71    
    400700   2220.4294     -8707.2787      4443.9105     -137158.33    
    400800   2520.3415      6062.3529      4427.0939     -137158.92    
    400900   2610.4127     -2490.2456      4410.7206     -137157.84    
    401000   2601.3186      3145.3996      4387.0653     -137160.55    
    401100   2551.0127      5702.8017      4365.4097     -137164.36    
    401200   2294.2104     -4609.1294      4362.2901     -137164.29    
    401300   2436.8448     -4161.1199      4367.6728     -137162.65    
    401400   2671.0285     -2543.3756      4374.5705     -137160.57    
    401500   2533.1982      3965.1379      4390.3441     -137159.55    
    401600   2381.3888     -2959.5457      4403.6114     -137161.25    
    401700   2460.6932      3734.1897      4375.8473     -137163.34    
    401800   2535.8705      9177.0207      4362.8605     -137159.71    
    401900   2736.2779      1661.4424      4416.6632     -137158.89    
    402000   2473.6437     -5446.5583      4480.1115     -137155.44    
    402100   2473.3393     -7197.1271      4486.9673     -137156.71    
    402200   2474.825       3793.3632      4438.5591     -137155.48    
    402300   2566.6732     -4200.5936      4393.256      -137158.3     
    402400   2508.6224      794.25368      4328.6931     -137160.26    
    402500   2399.2438      9970.2359      4295.7607     -137159.08    
    402600   2422.1         8873.609       4313.5982     -137161.11    
    402700   2421.5757     -2343.0878      4363.9389     -137161.94    
    402800   2511.3494      8405.8156      4448.5955     -137156.47    
    402900   2724.6195     -11426.412      4570.0104     -137157.62    
    403000   2413.269      -17504.866      4656.2954     -137151.07    
    403100   2458.8622     -13120.096      4645.9623     -137151.54    
    403200   2861.535       2179.6216      4538.9396     -137153.12    
    403300   2712.7839      7002.3327      4421.6988     -137154.06    
    403400   2398.4993      14340.131      4352.9965     -137153.79    
    403500   2589.3725      265.88527      4348.7063     -137162.71    
    403600   2303.1497     -1813.7263      4366.2345     -137158.23    
    403700   2508.0469     -1033.951       4360.1925     -137163.43    
    403800   2716.2431      409.26291      4336.0963     -137162.02    
    403900   2576.5752      13130.469      4331.8907     -137156.42    
    404000   2339.9101     -10061.947      4420.0011     -137158.84    
    404100   2316.0356     -11808.863      4485.7113     -137159.45    
    404200   2392.7044     -2579.9394      4451.3371     -137157.78    
    404300   2500.4261      76.758596      4371.7909     -137158.5     
    404400   2733.4927      2978.6317      4297.2364     -137163.35    
    404500   2351.4468      16520.038      4264.0917     -137160.98    
    404600   2423.766      -5045.0959      4299.0688     -137169.2     
    404700   2400.7323      3953.7296      4343.1735     -137165.12    
    404800   2440.8743     -6679.3814      4405.1042     -137160.06    
    404900   2495.7027     -6420.7322      4428.6382     -137158.06    
    405000   2552.222       5536.5762      4405.578      -137157.53    
    405100   2551.2199     -2688.6687      4381.8299     -137157.83    
    405200   2395.5157      6726.8077      4339.0465     -137158.81    
    405300   2356.9544      4483.8976      4294.7966     -137161.35    
    405400   2420.4995      8670.377       4259.9973     -137162.7     
    405500   2486.1543      11478.454      4286.9691     -137164.14    
    405600   2550.7048     -9136.0015      4360.2327     -137162.29    
    405700   2578.0942      3619.1565      4399.7473     -137155.43    
    405800   2692.4733     -6072.4215      4446.1266     -137158.13    
    405900   2495.7115     -9090.3401      4476.711      -137160.07    
    406000   2350.6759     -8403.9604      4461.8882     -137162.11    
    406100   2424.4058      768.13085      4401.9755     -137162.69    
    406200   2424.7104      883.05093      4342.8442     -137159.26    
    406300   2572.0562      3611.2355      4301.6266     -137158.75    
    406400   2442.3621      14891.363      4307.46       -137156.13    
    406500   2362.0793     -8875.4328      4377.7084     -137162.24    
    406600   2324.7882     -15202.527      4417.2243     -137163.35    
    406700   2488.4737     -2296.3594      4399.9952     -137160.02    
    406800   2579.3565     -2607.0546      4352.4348     -137160.57    
    406900   2535.9904      4779.2592      4277.2452     -137162.14    
    407000   2455.7381      987.35091      4218.2902     -137165.9     
    407100   2446.3736      12806.491      4196.6484     -137167.19    
    407200   2606.846       6171.8919      4251.1535     -137163.48    
    407300   2632.6844      327.51959      4334.497      -137161.06    
    407400   2537.3507      2602.5125      4432.8653     -137161.03    
    407500   2394.7829     -12520.365      4513.1191     -137157.63    
    407600   2664.6355     -15889.164      4498.4523     -137160.01    
    407700   2773.8643     -1360.5626      4419.9595     -137154.83    
    407800   2598.213      -1121.3419      4349.3309     -137156.37    
    407900   2493.1049      5376.3955      4295.5729     -137157.99    
    408000   2486.6039     -1268.176       4274.4543     -137162.93    
    408100   2562.5625      1879.1005      4283.9849     -137167.74    
    408200   2545.1264     -3459.4101      4315.2797     -137165.49    
    408300   2654.5281      5567.7363      4349.6452     -137159.09    
    408400   2421.5134      9448.2046      4415.5832     -137150.83    
    408500   2303.3593     -6953.0032      4502.1601     -137149.7     
    408600   2359.588      -10345.743      4525.7042     -137153.96    
    408700   2406.6861     -5602.1856      4456.5132     -137163.61    
    408800   2328.8924      3009.5409      4358.6447     -137163.15    
    408900   2707.0281     -10621.707      4283.4929     -137166.05    
    409000   2728.4546      13132.597      4207.0168     -137164.76    
    409100   2398.176       5226.0756      4210.5356     -137160.6     
    409200   2340.7884      12830.445      4250.9538     -137161.48    
    409300   2453.4547      2267.07        4324.4291     -137161.9     
    409400   2454.073      -3115.0308      4398.1219     -137159.21    
    409500   2424.6586     -6362.6758      4448.0838     -137154.48    
    409600   2848.4156     -1615.0669      4461.9248     -137159.72    
    409700   2635.0022     -3511.491       4485.5955     -137155.5     
    409800   2152.9292     -2265.1522      4466.2268     -137150.86    
    409900   2509.3309      3060.1788      4413.6312     -137158.15    
    410000   2626.3126      2368.777       4388.006      -137155.95    
    410100   2651.3651      3863.0219      4358.2672     -137159.41    
    410200   2263.9697     -1554.2576      4350.3734     -137159.39    
    410300   2378.4494     -1410.4715      4336.2708     -137161.83    
    410400   2608.1548     -6900.7473      4318.2595     -137163       
    410500   2643.7824      10113.328      4307.8416     -137161.33    
    410600   2411.5978      6379.9102      4358.7768     -137162       
    410700   2128.7543     -9736.4853      4442.2137     -137160.92    
    410800   2285.1421     -16445.497      4447.1855     -137159.97    
    410900   2393.098       8869.6258      4374.7687     -137156.53    
    411000   2659.6549     -1590.031       4328.4557     -137159.26    
    411100   2654.9847      10391.803      4282.4461     -137162.93    
    411200   2417.2831     -5109.8745      4291.5697     -137163.63    
    411300   2360.323      -445.77836      4289.3153     -137162.07    
    411400   2286.4111      5712.5977      4266.9666     -137158.01    
    411500   2595.4024      4628.9004      4257.6241     -137165.74    
    411600   2482.7138      1949.9644      4285.0065     -137166.66    
    411700   2111.7068     -6513.2928      4320.7676     -137163.16    
    411800   2482.2766     -238.65836      4340.3305     -137165.07    
    411900   2560.4788     -6002.4846      4392.3679     -137160.82    
    412000   2538.5004     -622.65203      4419.823      -137155.63    
    412100   2626.4581      7061.5456      4435.1649     -137157.14    
    412200   2432.7731     -8255.6462      4465.3559     -137158.59    
    412300   2386.9174     -16299.802      4443.4263     -137159.68    
    412400   2684.258      -532.3349       4339.9123     -137157.15    
    412500   2721.6144      16739.637      4261.2611     -137158.45    
    412600   2563.2717     -4859.2023      4296.5861     -137162.78    
    412700   2440.2794      6200.623       4329.153      -137163.24    
    412800   2373.3316      40.93137       4365.2921     -137159.4     
    412900   2532.9657      8499.74        4390.5021     -137157.73    
    413000   2770.7714     -2319.619       4451.939      -137156.09    
    413100   2657.1357     -10282.225      4522.9078     -137153.37    
    413200   2491.3564     -1110.5126      4524.6238     -137160.95    
    413300   2267.7878     -14670.408      4461.6188     -137155.99    
    413400   2570.1115      4898.5061      4327.0366     -137158.62    
    413500   2614.2046      19138.202      4229.5769     -137160.19    
    413600   2355.3803      5617.9063      4227.8388     -137161.41    
    413700   2425.6384     -1387.4103      4268.1381     -137163.36    
    413800   2548.8032     -2535.4257      4309.7964     -137164.24    
    413900   2333.6034      6810.9364      4356.096      -137156.16    
    414000   2538.4927     -2757.1295      4407.92       -137158.61    
    414100   2573.7816      1615.5137      4437.6461     -137155.17    
    414200   2678.3804     -8883.6117      4445.4585     -137153.56    
    414300   2608.3158      1269.0699      4406.314      -137156.41    
    414400   2459.0967      4116.0579      4366.2387     -137160.56    
    414500   2339.8629      2637.8868      4341.9773     -137159.84    
    414600   2661.6689      2147.2788      4340.0345     -137165.38    
    414700   2598.9289     -460.82268      4365.6499     -137160.15    
    414800   2669.7822      5549.7635      4404.8084     -137155.49    
    414900   2547.903       9719.4959      4467.8149     -137153       
    415000   2362.018      -16722.259      4546.6335     -137154.94    
    415100   2499.0361     -4500.4611      4520.1575     -137158.98    
    415200   2531.3991     -7802.4348      4461.1922     -137160.12    
    415300   2574.7342     -6731.8419      4388.6644     -137162.6     
    415400   2609.5668      3186.335       4309.0824     -137165.99    
    415500   2463.3442     -3258.2321      4277.5284     -137164.74    
    415600   2358.934       1607.2679      4266.5309     -137161.73    
    415700   2460.0504      3910.7811      4284.3714     -137159.91    
    415800   2452.8915      7583.6826      4317.3617     -137153.47    
    415900   2548.2321     -8467.4549      4361.1096     -137158.51    
    416000   2421.6909      2426.4515      4382.248      -137165.26    
    416100   2383.2131     -6938.5069      4395.7414     -137164.22    
    416200   2477.0142      8469.2913      4365.9876     -137162.63    
    416300   2547.7879      273.34836      4378.9294     -137160.54    
    416400   2393.9708     -521.07952      4422.3617     -137154.14    
    416500   2499.5052      2281.1695      4433.7705     -137153.08    
    416600   3032.7975      528.02284      4429.235      -137158.8     
    416700   2654.0472     -7669.1709      4433.1241     -137158.08    
    416800   2496.802      -8743.6741      4399.7142     -137160.63    
    416900   2410.8324      3460.8617      4318.7908     -137160.68    
    417000   2557.2291      8682.7011      4243.1875     -137163.94    
    417100   2522.6546      5230.154       4208.675      -137163.03    
    417200   2583.8736      3671.832       4224.1674     -137165.36    
    417300   2420.4108      3738.7831      4270.9491     -137161       
    417400   2653.4981     -4312.7584      4309.9996     -137163.05    
    417500   2684.7306      7015.0508      4332.0052     -137161.26    
    417600   2353.0799     -14842.389      4385.6274     -137158.05    
    417700   2387.4143     -4920.8255      4378.6523     -137161.41    
    417800   2658.3579      8814.3579      4336.639      -137160.75    
    417900   2664.155       452.06663      4345.7665     -137155.68    
    418000   2718.3236     -4742.8095      4372.0596     -137161.18    
    418100   2484.0535      590.34712      4378.2565     -137157.22    
    418200   2588.0712      598.73454      4379.4783     -137159.55    
    418300   2530.223      -5787.7278      4385.9455     -137159.75    
    418400   2566.3841     -4400.3639      4366.5404     -137167.02    
    418500   2185.82       -806.63963      4332.4345     -137162.77    
    418600   2503.0369     -1666.2314      4289.7054     -137165.25    
    418700   2625.4514      9322.9039      4285.881      -137164.18    
    418800   2511.6284      6189.6271      4352.9599     -137160.42    
    418900   2428.1566     -5582.0013      4431.5375     -137156.04    
    419000   2732.1477     -1587.5103      4454.3251     -137158.12    
    419100   2701.8804      3228.1539      4457.1564     -137157.69    
    419200   2280.8953     -3109.292       4451.9748     -137156.54    
    419300   2487.9887     -7637.1929      4395.2232     -137161.88    
    419400   2723.7292      488.80134      4321.3753     -137165.75    
    419500   2519.949       7321.717       4296.3943     -137162.76    
    419600   2211.6944      1938.6498      4339.8219     -137160.77    
    419700   2448.7964     -5179.38        4407.3582     -137161.92    
    419800   2618.1979     -5466.9294      4443.4067     -137159.98    
    419900   2461.8034     -1240.1558      4447.9258     -137157.31    
    420000   2535.7179     -9051.2077      4420.1644     -137160.9     
    420100   2431.2121      4854.8057      4370.6431     -137157.32    
    420200   2720.7357      27.965316      4346.8228     -137163.7     
    420300   2386.5922     -1164.9568      4338.5254     -137161.08    
    420400   2411.5799     -1841.5716      4323.1916     -137162.83    
    420500   2588.7507      13934.23       4289.1176     -137161.78    
    420600   2698.8694      6922.0054      4322.1702     -137160.24    
    420700   2679.3729     -12343.648      4407.2661     -137166.65    
    420800   2267.8108     -17924.538      4451.4781     -137162.48    
    420900   2272.6377      1937.9914      4375.3054     -137157.61    
    421000   2574.8218      12754.321      4269.1925     -137160.19    
    421100   2450.6656      7814.367       4232.6518     -137158.84    
    421200   2451.4656      385.52433      4266.1318     -137164.42    
    421300   2387.2817     -6157.344       4301.6898     -137166.64    
    421400   2535.3555      10050.43       4317.9878     -137162.33    
    421500   2689.2976     -1306.4228      4373.1795     -137161.11    
    421600   2526.9828     -3383.1549      4415.0452     -137160.73    
    421700   2321.4921     -9268.4103      4428.9235     -137156.44    
    421800   2574.0462     -1006.6645      4396.4111     -137158.07    
    421900   2619.2131      9076.0737      4349.3226     -137155.16    
    422000   2645.1758      60.023004      4329.6966     -137164.44    
    422100   2505.8616      2044.1191      4324.0067     -137167.58    
    422200   2400.3561      2469.2374      4337.2143     -137163.14    
    422300   2530.5719     -1346.3488      4345.6625     -137159.52    
    422400   2655.9837     -3666.1598      4344.9627     -137160.15    
    422500   2499.9684     -3459.8517      4328.7648     -137160.51    
    422600   2367.0201     -5171.3649      4307.506      -137160.02    
    422700   2400.0668      8008.7256      4288.0612     -137161.3     
    422800   2374.8269      1273.8279      4298.326      -137159.81    
    422900   2586.2943      4307.743       4315.0883     -137161.53    
    423000   2583.8585      2188.6775      4349.8958     -137159.21    
    423100   2381.9828     -5423.7228      4373.0525     -137160.76    
    423200   2224.7525     -1222.8325      4334.9618     -137162.64    
    423300   2315.1069     -1171.7087      4261.6755     -137160.54    
    423400   2701.542       13718.502      4212.6109     -137165.11    
    423500   2562.6832      6059.6118      4235.2955     -137164.42    
    423600   2460.1129     -4335.6019      4296.7323     -137165.05    
    423700   2452.372      -518.71129      4344.9299     -137163.6     
    423800   2578.745       2695.4056      4377.2146     -137154.97    
    423900   2580.0634     -1581.6903      4394.7238     -137155.7     
    424000   2376.8301     -3312.7107      4407.6777     -137156.16    
    424100   2623.1629     -14071.483      4405.467      -137167.12    
    424200   2324.2817     -2062.789       4369.7896     -137160.34    
    424300   2532.8245     -1624.792       4321.21       -137158.48    
    424400   2744.8936      12711.74       4276.1761     -137157.52    
    424500   2669.994       6064.3771      4299.1902     -137162.49    
    424600   2260.6897     -744.10637      4377.9151     -137154.64    
    424700   2521.2971      1939.094       4443.1774     -137160.29    
    424800   2645.9774     -9208.6126      4499.1432     -137161.5     
    424900   2645.8221     -7710.7639      4486.7259     -137159.49    
    425000   2533.4797      2671.3286      4440.2442     -137153.09    
    425100   2626.0909     -7351.6276      4415.1958     -137155.24    
    425200   2507.2575     -3065.7492      4384.1859     -137158.99    
    425300   2362.8981      7167.0903      4341.5271     -137162.25    
    425400   2283.5002      9328.4886      4326.7606     -137160.7     
    425500   2588.737      -7168.8056      4327.1535     -137165.54    
    425600   2544.8135     -924.23079      4325.3808     -137162.2     
    425700   2468.6419     -3975.5481      4334.9283     -137158.61    
    425800   2783.4448      16810.375      4323.1693     -137157.85    
    425900   2659.5831      7092.8332      4396.1057     -137153.4     
    426000   2385.8196     -8859.2868      4507.8545     -137155.07    
    426100   2334.9152     -15322.152      4541.7395     -137154.43    
    426200   2526.0364     -1419.7888      4492.1829     -137153.88    
    426300   2499.919       3005.2755      4436.9258     -137149.08    
    426400   2777.2766      3174.4269      4395.6751     -137159.98    
    426500   2582.1739     -5034.3908      4384.814      -137160.52    
    426600   2375.9962      2805.9557      4357.515      -137158.9     
    426700   2491.6517     -2333.8725      4354.4323     -137163.27    
    426800   2540.5695     -6518.7058      4374.4805     -137159.63    
    426900   2680.6885      5238.8817      4380.1725     -137158.44    
    427000   2583.2426     -9815.549       4403.4676     -137159.69    
    427100   2457.1298     -12923.132      4385.9869     -137164.97    
    427200   2326.4669     -5850.8628      4315.9223     -137166       
    427300   2710.7577      5402.0418      4253.114      -137163.44    
    427400   2450.6466      16879.923      4254.2036     -137155.33    
    427500   2467.6343     -1115.7992      4323.3148     -137162.02    
    427600   2375.6132      1583.3514      4388.7893     -137163.35    
    427700   2597.9665     -7091.4747      4443.88       -137164.22    
    427800   2485.16       -7003.6459      4468.7863     -137154.75    
    427900   2622.8851      1301.3405      4447.1562     -137158.04    
    428000   2505.4386     -7278.8884      4423.0635     -137157.47    
    428100   2617.7561     -5765.422       4380.1192     -137163.2     
    428200   2167.3478     -3911.808       4318.5603     -137161.31    
    428300   2475.5517     -8072.7312      4253.7755     -137168       
    428400   2566.8118      21458.757      4217.4143     -137164.22    
    428500   2512.229       4403.5253      4307.9363     -137162.39    
    428600   2395.0106     -5748.6435      4412.8043     -137159.02    
    428700   2466.4428     -821.4837       4436.8574     -137155.83    
    428800   2830.4561      9138.5736      4413.1526     -137153.62    
    428900   2832.3956      4628.4581      4429.4247     -137159.36    
    429000   2493.1783      409.73338      4467.7672     -137157.2     
    429100   2314.1037     -8330.4058      4457.9782     -137155.99    
    429200   2624.2531     -17571.686      4369.4783     -137163.79    
    429300   2874.4095      13764.011      4254.0108     -137165.51    
    429400   2540.1616     -5181.7802      4234.7252     -137166.09    
    429500   2387.7854      6629.0597      4218.9917     -137165.87    
    429600   2535.855       4333.1248      4245.6934     -137166.96    
    429700   2539.46        1830.0819      4306.6465     -137164.42    
    429800   2590.74       -4660.871       4377.4106     -137159.68    
    429900   2840.1254     -8367.418       4429.7624     -137160.65    
    430000   2367.7764     -3912.8442      4442.0969     -137155.63    
    430100   2387.869      -585.71011      4396.9188     -137159.58    
    430200   2490.0985     -861.27949      4333.8232     -137160.52    
    430300   2473.1641      6278.4497      4278.1255     -137160.55    
    430400   2551.3981      3726.9125      4262.8594     -137166.13    
    430500   2317.2099     -4179.879       4297.0632     -137166.05    
    430600   2232.0198      11778.147      4331.3338     -137161.36    
    430700   2538.2799      4391.7957      4385.7808     -137159.83    
    430800   2467.7402      2796.5711      4462.0029     -137157.18    
    430900   2376.8583     -5696.8367      4517.0828     -137155.84    
    431000   2686.4968     -10481.628      4499.9641     -137161.79    
    431100   2697.6529     -498.72517      4446.0307     -137155.39    
    431200   2695.2205      4973.7083      4382.8307     -137159.06    
    431300   2301.0327      6870.0786      4331.7294     -137157.7     
    431400   2431.9297      10395.636      4313.9238     -137160.66    
    431500   2614.5982      2206.2679      4339.8401     -137163.24    
    431600   2467.657      -3528.9089      4372.8258     -137158.02    
    431700   2638.6324     -2386.9648      4403.2029     -137157.75    
    431800   2677.7413     -108.71842      4422.4191     -137155.06    
    431900   2495.6152     -3888.7208      4436.3281     -137156.05    
    432000   2448.7293     -3945.6676      4416.1177     -137162.62    
    432100   2347.472       4775.8444      4370.0691     -137159.9     
    432200   2480.7553      2243.7792      4343.5067     -137159.61    
    432300   2592.7943      3051.1735      4308.9154     -137160.79    
    432400   2499.4055     -241.77768      4314.1093     -137160.01    
    432500   2240.0179     -4346.4241      4329.8045     -137163.31    
    432600   2333.355      -4083.2066      4316.5143     -137165.84    
    432700   2550.5587      2884.3049      4297.7081     -137164.31    
    432800   2627.2679      823.24752      4334.9528     -137163.47    
    432900   2452.7866     -10937.143      4398.7051     -137159.84    
    433000   2544.0526     -7253.5538      4421.7821     -137163.39    
    433100   2443.62        1612.5314      4428.4162     -137162.26    
    433200   2414.3112     -8477.8953      4436.5935     -137160.47    
    433300   2605.3978      992.75358      4392.656      -137160.08    
    433400   2659.3898      11263.887      4364.2935     -137158.93    
    433500   2508.637      -2940.5752      4384.5197     -137160.15    
    433600   2425.404      -10953.659      4374.1656     -137166.13    
    433700   2474.7263     -1002.138       4324.3614     -137167.86    
    433800   2415.795      -2677.1521      4287.3184     -137161.67    
    433900   2732.0518      9890.0809      4258.695      -137163.11    
    434000   2530.2259      17829.198      4311.3766     -137159.69    
    434100   2300.6137     -7677.8552      4437.4547     -137155.76    
    434200   2413.158      -5345.5657      4492.7454     -137156.86    
    434300   2605.3424     -9151.8701      4486.0257     -137155.31    
    434400   2752.2204     -3579.7398      4431.6229     -137155.41    
    434500   2597.0792     -6580.432       4370.1526     -137164.33    
    434600   2490.8861     -4441.4966      4311.0786     -137163.16    
    434700   2602.9585      12125.891      4276.4465     -137163.55    
    434800   2488.0783      6821.5809      4310.0827     -137160.74    
    434900   2471.8556     -13688.808      4363.4109     -137162.24    
    435000   2448.8797      2747.9578      4365.8282     -137159.89    
    435100   2783.8341      799.50581      4377.6665     -137162.19    
    435200   2690.1286     -178.60365      4412.0657     -137158.53    
    435300   2326.1055     -1796.6507      4433.2669     -137157.38    
    435400   2424.047      -6482.4958      4407.3057     -137162.84    
    435500   2551.1509      174.7484       4360.3487     -137163.65    
    435600   2607.6572     -3564.0342      4324.9893     -137165.05    
    435700   2557.4622     -2138.1337      4310.1229     -137165.86    
    435800   2390.0569     -491.62975      4309.8754     -137168.87    
    435900   2136.8566      1674.1317      4314.0667     -137163.45    
    436000   2490.0645      2954.4126      4310.2606     -137164.22    
    436100   2548.4826      205.17658      4308.2796     -137162.62    
    436200   2578.6744      3712.0256      4325.0894     -137161.32    
    436300   2591.742      -3339.2697      4365.6022     -137161.49    
    436400   2393.7576      1020.4998      4388.9082     -137158.19    
    436500   2422.2936     -5291.9294      4371.8632     -137162.57    
    436600   2380.2449      2377.7951      4321.2573     -137162.33    
    436700   2662.2815      1728.6588      4268.0683     -137166.3     
    436800   2656.458       12081.145      4259.8089     -137162.41    
    436900   2537.2852     -6915.4519      4334.1851     -137166.19    
    437000   2330.0104      920.14303      4423.2192     -137165.65    
    437100   2273.6996     -10767.222      4493.6956     -137160.23    
    437200   2322.4193      728.80739      4478.6239     -137154.62    
    437300   2718.9126     -2367.0415      4425.4149     -137162.13    
    437400   2447.5162     -5245.1098      4366.5546     -137156.59    
    437500   2495.4381      4816.862       4280.2465     -137161.08    
    437600   2257.1181      11226.351      4215.9566     -137162.52    
    437700   2306.2915      12914.702      4201.7051     -137166.31    
    437800   2509.939       6742.1236      4260.4726     -137166.69    
    437900   2502.4582     -1631.4785      4370.6011     -137162.22    
    438000   2442.5584     -11843.593      4485.301      -137158.6     
    438100   2462.9289     -7245.3302      4525.3243     -137154.24    
    438200   2618.3897     -14032.939      4479.2131     -137153.33    
    438300   2700.1629      8538.4362      4358.2192     -137157.42    
    438400   2527.4352      587.28691      4274.3956     -137164.87    
    438500   2448.0181      741.69082      4219.2121     -137164.9     
    438600   2451.0215      10641.798      4177.7371     -137165.4     
    438700   2372.1467      11729.254      4195.0875     -137164.58    
    438800   2515.448      -3834.7029      4280.8056     -137165.52    
    438900   2672.3023     -2960.2042      4378.9602     -137161.88    
    439000   2553.6682     -12914.662      4481.4516     -137155.43    
    439100   2422.5566     -14946.609      4503.8432     -137153.39    
    439200   2286.0288     -677.75563      4406.9155     -137160.9     
    439300   2537.4352      5243.7174      4285.7529     -137168.73    
    439400   2546.7662      14470.451      4223.0115     -137165.98    
    439500   2522.3875      5763.6822      4223.835      -137166.09    
    439600   2201.974       7240.2288      4252.7231     -137163.38    
    439700   2246.6407      3167.405       4305.1773     -137162.25    
    439800   2537.3886     -4322.6896      4375.4671     -137161.72    
    439900   2519.3385     -7065.4702      4435.9532     -137157.43    
    440000   2706.3289     -677.52233      4465.9242     -137159.52    
    440100   2543.4116     -11525.647      4502.4875     -137160.13    
    440200   2246.2122     -13722.734      4501.9382     -137157.51    
    440300   2435.5073      3646.6713      4435.7733     -137156.28    
    440400   2591.9608      4716.0477      4383.1942     -137157.52    
    440500   2580.0503      1117.2156      4365.2288     -137159.41    
    440600   2461.9517     -2500.3818      4370.7135     -137160       
    440700   2328.4883      233.88619      4365.156      -137158.91    
    440800   2555.6786     -2114.8371      4350.6969     -137159.36    
    440900   2861.1214      4237.9569      4333.5161     -137161.42    
    441000   2622.9199      6205.4458      4377.8919     -137162.66    
    441100   2548.8538     -12930.372      4470.367      -137164.07    
    441200   2423.8351     -3136.2665      4517.7793     -137158.02    
    441300   2582.5583     -9974.0483      4549.8659     -137155.61    
    441400   2623.3833     -4357.7605      4525.0505     -137155.3     
    441500   2600.2224     -916.54054      4461.4129     -137156.97    
    441600   2369.4085      434.58683      4378.3969     -137160.88    
    441700   2397.7662      5681.1209      4298.5597     -137165.46    
    441800   2492.3385      2925.524       4223.811      -137166.39    
    441900   2557.5984      14391.303      4158.3974     -137164.67    
    442000   2565.7048      5301.4428      4157.4989     -137166.17    
    442100   2314.5409      10097.563      4219.3481     -137168.3     
    442200   2312.9133     -10346.155      4331.1115     -137167       
    442300   2484.8189     -8064.4971      4397.16       -137163.31    
    442400   2567.2641     -10820.527      4413.232      -137161.18    
    442500   2563.2878     -8928.1084      4392.4018     -137157.76    
    442600   2650.392       183.00362      4338.68       -137159.99    
    442700   2476.4566     -5432.5911      4271.6644     -137164.19    
    442800   2379.4669      5962.7149      4206.6071     -137166.18    
    442900   2315.1635      11174.116      4184.6795     -137162.77    
    443000   2474.9897      15531.246      4219.3744     -137162.33    
    443100   2529.9089      589.27829      4311.8663     -137163.52    
    443200   2467.3742     -8084.5934      4407.0815     -137162.51    
    443300   2562.1106     -7473.806       4458.2669     -137160.75    
    443400   2735.7481     -465.57972      4447.8162     -137159.19    
    443500   2773.1051      1311.1131      4424.4854     -137157.05    
    443600   2630.0548     -2034.1488      4419.5173     -137159.08    
    443700   2306.6191     -2805.3396      4411.9926     -137156.85    
    443800   2428.9923     -4236.7325      4372.1688     -137160.17    
    443900   2688.3635      2954.4634      4319.6131     -137163.28    
    444000   2568.3162      1637.6174      4293.9089     -137163.59    
    444100   2338.7583      1860.6631      4288.4921     -137166.16    
    444200   2475.4753     -10637.615      4284.7921     -137168.74    
    444300   2443.1149      14191.839      4283.1383     -137161.62    
    444400   2381.1487      1200.2602      4352.4285     -137156.36    
    444500   2457.557      -4707.2964      4402.0685     -137156.39    
    444600   2434.9904     -2127.2885      4402.3651     -137157.43    
    444700   2428.0552     -5467.3203      4404.3579     -137163.56    
    444800   2276.6817     -11016.318      4384.7554     -137167.32    
    444900   2363.2963     -6942.0363      4299.3489     -137165.18    
    445000   2431.0942      9310.3156      4193.7558     -137161.82    
    445100   2494.0259      20530.559      4165.2357     -137160.75    
    445200   2534.2338      3617.916       4237.0842     -137162.06    
    445300   2431.0705      714.23978      4328.848      -137163.31    
    445400   2337.9553     -12798.545      4395.6241     -137163.93    
    445500   2481.5034      3420.1518      4395.6694     -137159.81    
    445600   2486.9485      2160.6226      4396.4049     -137156.12    
    445700   2549.9238     -2212.4864      4419.0111     -137160.22    
    445800   2383.3658     -3781.9896      4453.2273     -137157.2     
    445900   2504.154      -5105.7453      4472.7308     -137152.94    
    446000   2626.1953      9163.4524      4459.1448     -137150.66    
    446100   2746.1629     -13582.834      4457.9422     -137159.4     
    446200   2466.144       4546.5553      4425.9802     -137158.63    
    446300   2550.7394     -10084.121      4430.0878     -137161.98    
    446400   2583.9295     -6884.5526      4407.5675     -137160.95    
    446500   2490.377       10877.193      4363.2575     -137154.46    
    446600   2781.8322      4439.3621      4377.8527     -137153.59    
    446700   2526.5065     -5383.6302      4435.5427     -137151.88    
    446800   2444.0894     -4744.604       4436.8519     -137155.24    
    446900   2565.5555      2882.07        4392.5725     -137158.76    
    447000   2510.9896     -2317.1654      4393.6837     -137159.74    
    447100   2244.286      -3805.8837      4387.5344     -137158.86    
    447200   2331.6159     -6935.0402      4347.1045     -137159.22    
    447300   2666.0094      9132.3094      4285.2359     -137158.67    
    447400   2679.4317      234.13275      4276.1368     -137162.61    
    447500   2593.8799     -2116.2466      4298.0834     -137167.3     
    447600   2410.308      -6651.582       4315.6391     -137164.72    
    447700   2447.6998      6844.1525      4329.823      -137161.48    
    447800   2643.6231     -1305.815       4389.1066     -137161.98    
    447900   2565.2032     -8800.5533      4450.8546     -137159.27    
    448000   2559.3975     -10944.922      4474.7193     -137159.8     
    448100   2442.0589     -952.77504      4446.833      -137154.68    
    448200   2764.0756      6720.4105      4386.8502     -137154.38    
    448300   2589.9276      4824.0403      4350.6237     -137155.86    
    448400   2391.9119      2722.86        4348.0571     -137156.55    
    448500   2639.0868     -2565.3561      4377.1348     -137164.27    
    448600   2537.9688      1819.7514      4402.3311     -137160.63    
    448700   2540.7414     -743.31335      4408.1767     -137160.27    
    448800   2528.4547     -4981.2474      4426.7159     -137156.19    
    448900   2605.6044      5887.7429      4416.9565     -137156.88    
    449000   2322.1978      45.471135      4407.2125     -137156.22    
    449100   2339.1162      1289.0265      4370.1707     -137161.15    
    449200   2363.6997     -1633.0572      4337.2408     -137159.19    
    449300   2631.2347      5094.4402      4308.8185     -137157.33    
    449400   2623.1887      5664.9761      4311.8285     -137157.58    
    449500   2424.5154     -856.99568      4389.4187     -137157.27    
    449600   2480.1938     -5438.8224      4493.751      -137159.08    
    449700   2507.2805     -10454.272      4536.6629     -137155.16    
    449800   2738.242      -825.6224       4502.9911     -137154.3     
    449900   2644.3234     -5003.083       4449.7451     -137155.78    
    450000   2349.9825      12323.079      4371.2844     -137157.05    
    450100   2443.7157     -180.86654      4310.3466     -137160.06    
    450200   2541.3024      4781.3661      4259.3585     -137160.84    
    450300   2688.8642      14410.238      4254.3211     -137164.25    
    450400   2440.1636     -4516.5053      4330.6093     -137165.7     
    450500   2235.5544     -9128.5509      4411.8972     -137161.78    
    450600   2462.5851     -5402.7958      4450.0018     -137160.5     
    450700   2549.9691     -5890.13        4456.6799     -137158.5     
    450800   2466.8067      462.44319      4427.7945     -137153.54    
    450900   2643.5174     -10053.855      4386.8228     -137160.6     
    451000   2393.3979     -4718.3032      4319.788      -137162.54    
    451100   2539.6334      4693.5471      4234.5624     -137166.6     
    451200   2592.336       15017.429      4188.4306     -137167.31    
    451300   2296.6598      4672.5132      4219.2899     -137161.78    
    451400   2335.0823     -12279.46       4284.5717     -137165.4     
    451500   2465.6767      6267.2166      4314.538      -137163.48    
    451600   2484.8903      10934.244      4363.277      -137157.89    
    451700   2465.4368     -1484.6989      4459.0655     -137154.57    
    451800   2509.1946     -6561.4761      4537.049      -137151.93    
    451900   2525.8429     -7726.3603      4551.9629     -137146.27    
    452000   2687.7582     -196.22846      4503.3579     -137152.81    
    452100   2546.8767     -1080.7126      4452.6836     -137158.05    
    452200   2580.3662     -10544.221      4395.3391     -137161.91    
    452300   2382.8614      6812.8124      4300.785      -137159.38    
    452400   2331.0009      11058.974      4221.9174     -137161.17    
    452500   2179.6648      12964.241      4185.527      -137163.77    
    452600   2379.9963      2695.2493      4215.5041     -137166.55    
    452700   2496.7195      109.24622      4285.1436     -137161.22    
    452800   2387.1402     -1646.9887      4352.5344     -137155.51    
    452900   2753.7179     -4353.0292      4401.4197     -137162.43    
    453000   2575.5999      1135.6333      4462.7857     -137158.13    
    453100   2283.3757     -14124.18       4525.617      -137157.59    
    453200   2428.7575     -17606.625      4499.8438     -137161.5     
    453300   2715.5638      3436.6594      4381.4312     -137160.59    
    453400   2666.4883      3951.6429      4267.3885     -137161.21    
    453500   2287.0012      20228.528      4210.5095     -137156.42    
    453600   2477.9294      1827.6219      4253.4131     -137164.4     
    453700   2614.4405     -6108.9328      4327.8345     -137169.82    
    453800   2257.0618     -12385.756      4412.9199     -137162.08    
    453900   2428.1122     -9040.0017      4446.6608     -137159.22    
    454000   2556.9594      5853.4475      4401.9135     -137157.57    
    454100   2451.3102     -7086.2768      4327.3758     -137156.79    
    454200   2397.5176      12206.706      4206.6951     -137162.85    
    454300   2460.1779      8776.9721      4160.2311     -137166.3     
    454400   2463.895       8041.8311      4181.2796     -137166.72    
    454500   2408.3295      2652.7124      4240.7072     -137162.92    
    454600   2729.3713     -2607.6298      4314.9515     -137159.44    
    454700   2714.5334     -1244.2945      4399.3341     -137160.48    
    454800   2332.7455     -10006.438      4485.6422     -137157.76    
    454900   2278.554      -4551.4979      4508.1178     -137155.84    
    455000   2589.816      -4415.8888      4453.393      -137158.76    
    455100   2754.8901      376.63422      4370.8498     -137158.89    
    455200   2541.8546      6941.6241      4295.9917     -137163.43    
    455300   2450.1546     -11275.027      4258.139      -137167.37    
    455400   2376.1615      12041.532      4208.0839     -137161.24    
    455500   2645.1906      11167.709      4208.0901     -137163.2     
    455600   2506.6372      4715.0411      4280.2788     -137163.17    
    455700   2222.0492      3539.4017      4385.5137     -137162.51    
    455800   2218.3208     -8193.3028      4474.5967     -137161.45    
    455900   2380.4367     -14028.205      4501.401      -137159.17    
    456000   2594.6149     -8687.7479      4447.5463     -137160.67    
    456100   2790.0044     -3574.4373      4375.64       -137163.82    
    456200   2463.7296      7711.166       4319.3993     -137161.71    
    456300   2420.6735      841.20082      4294.7312     -137163.18    
    456400   2432.9728      9223.3957      4299.6159     -137158.85    
    456500   2639.6063      3122.3652      4346.3361     -137155.67    
    456600   2577.9659      630.72589      4400.9669     -137155.04    
    456700   2350.882      -4626.0669      4436.414      -137161.59    
    456800   2367.0928     -13431.956      4416.3673     -137161.31    
    456900   2613.5322      11492.971      4338.0698     -137161.75    
    457000   2419.957       6667.8429      4300.5749     -137155.41    
    457100   2510.9705     -5115.0494      4306.8236     -137161.21    
    457200   2371.029      -1747.3947      4317.3839     -137166.1     
    457300   2190.2201      3456.6248      4319.8787     -137162.93    
    457400   2568.0431     -434.5478       4313.218      -137165.81    
    457500   2429.4241     -389.50271      4306.7983     -137159.95    
    457600   2529.6891      9247.5575      4302.3692     -137160.89    
    457700   2653.7254     -6977.9562      4343.9361     -137160.49    
    457800   2523.7096      3286.936       4400.556      -137155.26    
    457900   2433.2795     -2367.0997      4465.65       -137159.48    
    458000   2339.2184     -6864.43        4497.2399     -137159.31    
    458100   2484.4359      3363.8374      4461.2291     -137156.53    
    458200   2506.6406     -782.98816      4393.8304     -137155.41    
    458300   2601.5513      5345.9974      4320.5913     -137160.69    
    458400   2541.0725      7584.3714      4281.2591     -137162.9     
    458500   2246.6855      12681.223      4265.4201     -137157.67    
    458600   2489.9248      12413.52       4279.1819     -137163.8     
    458700   2446.1959      5094.4159      4349.0564     -137159.48    
    458800   2845.3921     -6750.3513      4430.4019     -137159.73    
    458900   2670.3805     -2294.5716      4494.2923     -137154.86    
    459000   2484.484      -12714.171      4537.9213     -137154.89    
    459100   2450.7936     -6380.7229      4495.7891     -137154.66    
    459200   2504.4094     -1307.01        4406.6346     -137155.44    
    459300   2463.3011      10194.435      4300.4665     -137160.56    
    459400   2454.3515     -2001.8604      4252.0811     -137167.06    
    459500   2522.4481      4372.6039      4247.3964     -137168.24    
    459600   2375.7968     -5894.8057      4277.1855     -137162.17    
    459700   2474.6023      1759.4219      4295.3703     -137158.57    
    459800   2684.0496      2253.3599      4328.846      -137161.64    
    459900   2488.6725     -1812.6662      4372.6729     -137158.04    
    460000   2528.0227     -3161.2411      4418.5236     -137160       
    460100   2601.3715     -4846.4202      4462.0257     -137160.24    
    460200   2535.3384     -7557.1786      4476.2004     -137157.64    
    460300   2598.6983     -2501.2138      4457.4355     -137160.17    
    460400   2630.3635     -50.299108      4415.2246     -137162.88    
    460500   2553.0974     -1426.0595      4365.2872     -137164.88    
    460600   2298.1206     -5418.1454      4304.5299     -137164.88    
    460700   2461.3045      3265.0949      4235.3413     -137167.17    
    460800   2655.466       9744.6123      4191.3415     -137165.89    
    460900   2509.4796     -2751.6006      4208.5631     -137162.25    
    461000   2502.76        12949.451      4244.7973     -137163.56    
    461100   2441.5225     -11883.704      4350.814      -137163.63    
    461200   2412.4628     -8123.7807      4430.6518     -137158       
    461300   2782.8636     -580.36572      4449.6259     -137159.25    
    461400   2412.072       917.30491      4463.0246     -137152.57    
    461500   2548.664       1547.769       4483.6012     -137159.78    
    461600   2470.9227     -8747.1436      4518.481      -137158.02    
    461700   2572.1946     -11482.758      4472.3376     -137155.34    
    461800   2759.1123      7200.914       4360.5452     -137156.6     
    461900   2494.9607      1850.1005      4304.2696     -137158.64    
    462000   2432.3338      6695.9447      4269.7773     -137161.2     
    462100   2370.9786     -893.51682      4255.7071     -137163.02    
    462200   2502.6293      11215.194      4229.5869     -137168.63    
    462300   2511.2939     -4306.1022      4243.597      -137166.27    
    462400   2665.0909      5188.3221      4265.3874     -137161.98    
    462500   2526.6167      4507.9447      4316.0608     -137157.33    
    462600   2409.1163     -2330.5936      4384.3093     -137158.15    
    462700   2337.0456     -3826.1386      4405.5718     -137161.3     
    462800   2398.8726     -12721.922      4374.9822     -137164.11    
    462900   2579.8548      5813.4254      4306.9522     -137159.51    
    463000   2707.2134      4522.4328      4273.1293     -137160.78    
    463100   2404.5295      9827.9478      4278.964      -137159.51    
    463200   2400.2671     -2376.6469      4329.8372     -137162.65    
    463300   2431.3769     -7235.436       4370.1279     -137160.86    
    463400   2680.1374     -24.93975       4390.6621     -137162.67    
    463500   2547.7923     -7452.5593      4405.8366     -137160.57    
    463600   2369.326      -862.5873       4392.6687     -137157.24    
    463700   2529.9284      8471.2363      4365.1169     -137161.64    
    463800   2404.4297     -8023.5695      4374.7679     -137158.66    
    463900   2625.1946     -1658.4474      4373.7566     -137160.71    
    464000   2539.3094     -1552.2455      4383.7247     -137156.12    
    464100   2513.1763      4526.541       4385.3272     -137161.06    
    464200   2309.2826     -8353.4405      4378.0436     -137162.75    
    464300   2395.0053     -3208.8801      4324.6041     -137162.4     
    464400   2474.8683     -1004.9401      4260.3261     -137161.74    
    464500   2636.2235      14049.562      4226.6389     -137165.81    
    464600   2548.4901     -1886.8019      4274.8999     -137165.38    
    464700   2218.0904      8749.8815      4335.9733     -137163.56    
    464800   2131.2897     -28693.857      4379.4635     -137165.06    
    464900   2440.6151      843.66774      4293.5721     -137164.98    
    465000   2582.4647      16289.798      4238.6693     -137163.03    
    465100   2545.8518      6177.8811      4295.2487     -137161.55    
    465200   2439.915      -11837.063      4372.0567     -137159.41    
    465300   2534.9443     -2510.9723      4386.3879     -137162.31    
    465400   2417.1235     -6214.4886      4385.6667     -137160.44    
    465500   2548.4539      837.00949      4365.9678     -137162.23    
    465600   2767.4877     -1.8134283      4356.7647     -137161.34    
    465700   2490.3384      2516.1129      4366.5456     -137154.51    
    465800   2348.6095     -1054.3893      4371.0356     -137159.36    
    465900   2383.5934      365.28557      4357.8772     -137161.1     
    466000   2419.6917     -81.833859      4340.9996     -137159.09    
    466100   2488.6655      1645.6636      4323.4052     -137157.9     
    466200   2562.3803      1789.0124      4310.3824     -137161.26    
    466300   2420.2543     -1074.5479      4308.7606     -137164.97    
    466400   2251.4871     -1784.7809      4298.4697     -137165.76    
    466500   2359.7671      7381.2998      4274.9331     -137162.9     
    466600   2389.3824      11138.036      4264.3152     -137159.36    
    466700   2603.9303     -3691.514       4287.1332     -137165.09    
    466800   2525.7979     -11194.072      4325.8702     -137162.89    
    466900   2471.1269      2805.4123      4335.4577     -137156.02    
    467000   2625.5582      6492.9175      4374.1462     -137154.29    
    467100   2468.8585     -14223.494      4441.8771     -137155.21    
    467200   2274.1599     -5164.4341      4446.0684     -137154.17    
    467300   2617.4427     -7050.9333      4402.0766     -137163.74    
    467400   2694.6991     -8289.4175      4316.867      -137163.11    
    467500   2716.0518      11179.874      4216.8882     -137162.17    
    467600   2437.1583      17037.647      4187.1011     -137162.81    
    467700   2319.5775      3868.7887      4239.8887     -137165.11    
    467800   2354.3334      3227.6587      4314.3159     -137164.71    
    467900   2571.8068     -2705.7912      4387.8821     -137162.42    
    468000   2562.8171     -1512.2404      4443.3999     -137158.95    
    468100   2519.6228     -6101.8628      4481.5478     -137159.18    
    468200   2368.3902     -5221.9861      4494.3688     -137155.57    
    468300   2554.0313     -8855.0772      4475.9874     -137155.1     
    468400   2847.8781      8840.9301      4413.7657     -137155.32    
    468500   2778.3951     -8605.5664      4384.5943     -137162.48    
    468600   2519.5931      6715.5149      4339.3926     -137160.63    
    468700   2360.0984      1535.3477      4347.5328     -137160.12    
    468800   2459.986      -7349.2325      4381.2256     -137163.53    
    468900   2514.0578     -3491.6536      4405.0271     -137158.62    
    469000   2625.021       7835.7468      4417.2851     -137155.98    
    469100   2564.6243      3404.1713      4460.7916     -137155.36    
    469200   2341.0352     -18746.293      4519.9331     -137152.24    
    469300   2543.2528     -1419.9976      4478.1465     -137154.24    
    469400   2773.704       688.8028       4396.467      -137150.89    
    469500   2660.0635      6570.2006      4326.6906     -137156.27    
    469600   2533.5566      15043.68       4309.0973     -137160.24    
    469700   2310.6624     -138.48638      4382.4268     -137159.07    
    469800   2266.5415     -14726.742      4449.5669     -137160.6     
    469900   2412.3722     -5530.0124      4440.4366     -137157.64    
    470000   2643.3005      9085.2153      4380.5865     -137158.74    
    470100   2562.1643     -853.41339      4345.8222     -137158.99    
    470200   2512.6111      2914.0475      4336.7758     -137162.19    
    470300   2416.8363     -2090.355       4336.1383     -137164.59    
    470400   2323.9604     -5913.4622      4312.4223     -137168.5     
    470500   2156.7548     -2227.6791      4255.171      -137167.17    
    470600   2385.3451      5777.2656      4174.101      -137163.36    
    470700   2651.0321      10837.935      4134.7842     -137167.52    
    470800   2433.5501      15943.775      4203.0587     -137165.41    
    470900   2376.8633     -15250.825      4344.0109     -137166.05    
    471000   2423.414      -11868.869      4417.0062     -137160.04    
    471100   2505.5437     -4287.9728      4437.2228     -137154.93    
    471200   2692.256       7725.3936      4438.8732     -137159.24    
    471300   2396.4481     -2482.2322      4474.1794     -137156.72    
    471400   2385.1754     -3318.0241      4488.32       -137158.91    
    471500   2618.8427     -1701.1677      4481.0536     -137159.12    
    471600   2623.5776      3906.0282      4483.4928     -137151.53    
    471700   2591.591      -10696.503      4495.6182     -137155.17    
    471800   2481.1778     -356.56244      4453.193      -137157.43    
    471900   2523.6891      7203.3394      4379.6546     -137160.41    
    472000   2514.2495     -97.523072      4323.5733     -137160.37    
    472100   2453.9979      4015.7713      4260.4908     -137161.88    
    472200   2360.6221      3895.9166      4219.7341     -137165.72    
    472300   2181.738       1367.4039      4191.3041     -137169.35    
    472400   2327.6317      7825.2654      4185.3888     -137170.02    
    472500   2380.5065      702.76118      4219.5581     -137167.25    
    472600   2384.2249      7059.993       4262.2732     -137163.43    
    472700   2569.7094      3603.9548      4334.2428     -137162.23    
    472800   2554.5081     -9381.2311      4425.5151     -137159.31    
    472900   2555.2261     -4351.5905      4475.9151     -137158.75    
    473000   2447.8777     -12953.686      4476.7622     -137159.63    
    473100   2325.3174     -3315.6548      4401.0899     -137159.54    
    473200   2599.121       10290.655      4270.8546     -137161.92    
    473300   2612.6441      17791.589      4178.6541     -137159.13    
    473400   2447.3751      8206.5771      4207.2105     -137162.1     
    473500   2378.9348     -5930.184       4317.7667     -137166.04    
    473600   2329.3603     -3330.6854      4417.6071     -137163.19    
    473700   2446.0158     -6802.6644      4470.4702     -137161.19    
    473800   2441.8275     -1994.3675      4441.0629     -137158.14    
    473900   2528.0981      4880.5744      4378.0308     -137158.73    
    474000   2425.1642      11290.464      4332.5889     -137158.04    
    474100   2260.7724     -2053.3921      4345.2919     -137163.48    
    474200   2316.9525      5425.2245      4357.8779     -137163.86    
    474300   2411.7865     -5778.8665      4388.5151     -137160.22    
    474400   2444.2547     -455.23529      4387.0928     -137157.01    
    474500   2667.6186     -2726.2712      4359.6962     -137161.82    
    474600   2401.77       -6785.6689      4327.4205     -137160.02    
    474700   2267.404       1884.9837      4255.3073     -137162.18    
    474800   2505.0025      3548.771       4191.1005     -137168.51    
    474900   2500.612       8405.9824      4188.9043     -137160.77    
    475000   2443.4294      15548.867      4242.6297     -137156.37    
    475100   2482.5842      3641.7334      4336.2815     -137161.69    
    475200   2348.7577     -12310.783      4436.9578     -137164.83    
    475300   2338.7459     -16059.774      4461.8461     -137161.28    
    475400   2609.1336      3207.4727      4399.4758     -137160.46    
    475500   2567.8543      4933.5033      4352.117      -137157.81    
    475600   2556.5586     -962.05096      4367.208      -137158.03    
    475700   2453.3525      3251.1885      4417.652      -137159.93    
    475800   2345.6146     -6013.7196      4475.5614     -137159.07    
    475900   2564.9495     -7041.3369      4496.593      -137158.63    
    476000   2717.4186     -448.07061      4474.7177     -137157.19    
    476100   2557.1316     -5428.8588      4427.6515     -137158.73    
    476200   2182.5626      1356.692       4330.3941     -137156.34    
    476300   2556.2304      21559.833      4236.2938     -137162.97    
    476400   2359.3802      13596.176      4222.2988     -137160.38    
    476500   2369.0677      14474.104      4261.8249     -137166.92    
    476600   2207.5952     -12487.488      4363.7711     -137165.05    
    476700   2369.8189     -6496.9488      4410.4561     -137157.61    
    476800   2647.3916     -1910.0752      4403.6247     -137159.23    
    476900   2663.8846     -4368.7331      4396.0383     -137158.74    
    477000   2373.247      -1573.6796      4384.4174     -137155.84    
    477100   2306.0041      4703.6638      4358.0412     -137159.1     
    477200   2424.2273     -481.09877      4333.0571     -137161.02    
    477300   2650.1029      7779.2234      4321.7034     -137158.27    
    477400   2734.5707      2175.5361      4360.6984     -137159.05    
    477500   2481.7314     -5692.9156      4431.5762     -137159.54    
    477600   2393.2625     -9761.0779      4479.8973     -137157.66    
    477700   2573.6904     -3576.5711      4437.9805     -137159.35    
    477800   2703.1178      9195.7049      4350.3046     -137161.27    
    477900   2411.116       6647.6394      4301.5279     -137160.84    
    478000   2236.0652     -913.65285      4285.4414     -137162.66    
    478100   2366.0587      5452.1661      4247.0788     -137163.44    
    478200   2605.3622      2302.1695      4211.8217     -137163.06    
    478300   2608.0346      13924.431      4205.0115     -137163.89    
    478400   2501.2536     -5893.1238      4267.0879     -137164.52    
    478500   2455.6806      7571.7666      4317.7165     -137163.66    
    478600   2451.5674      516.32582      4405.4757     -137160.23    
    478700   2538.9547     -10356.808      4488.5411     -137155.51    
    478800   2574.6608     -3735.1916      4506.4809     -137152.67    
    478900   2641.1681      523.01344      4490.4524     -137155.96    
    479000   2597.2374     -5280.2089      4479.0364     -137157.62    
    479100   2419.6983     -6896.7206      4460.9071     -137156.77    
    479200   2422.169      -4175.1854      4404.7098     -137160.18    
    479300   2549.0478     -2818.6732      4340.1074     -137163.36    
    479400   2490.0617      5800.1967      4280.5832     -137162.86    
    479500   2443.0297      3744.7412      4265.3771     -137163.48    
    479600   2293.6203      1638.456       4304.127      -137161.08    
    479700   2510.991      -2233.2686      4355.4271     -137159.17    
    479800   2588.0977      14071.315      4381.4262     -137157.3     
    479900   2479.8886     -15344.588      4445.7452     -137157.22    
    480000   2453.8826     -15775.892      4443.5707     -137157.96    
    480100   2754.0197      12131.917      4378.2387     -137155.55    
    480200   2709.2122      5726.8402      4375.4272     -137156.35    
    480300   2508.4397     -5146.117       4397.5382     -137158.55    
    480400   2456.6505      1456.3994      4371.9461     -137160.31    
    480500   2413.1336      12864.485      4318.4134     -137161.51    
    480600   2414.1678      4122.3503      4316.8229     -137163.17    
    480700   2417.7941      3376.8225      4338.827      -137163.16    
    480800   2537.5315      4082.3145      4394.3858     -137158.82    
    480900   2489.9757     -4133.8372      4493.0562     -137153.22    
    481000   2494.2609     -4563.8217      4592.2691     -137150.99    
    481100   2462.8358     -22868.18       4615.2322     -137152.85    
    481200   2338.1682     -7245.7583      4497.7597     -137156.42    
    481300   2270.4135      46.846809      4336.2726     -137158.28    
    481400   2479.5909      10230.042      4219.2581     -137161.58    
    481500   2766.9036      10306.677      4197.9098     -137161.66    
    481600   2590.7375      8125.579       4233.831      -137162.95    
    481700   2481.1557     -1104.28        4298.8249     -137166.01    
    481800   2470.9773     -8880.7751      4357.9136     -137164.47    
    481900   2550.2744     -6041.4031      4368.1937     -137162.97    
    482000   2553.2611     -6099.7307      4374.1394     -137158.46    
    482100   2820.6431      4083.6724      4368.7454     -137160.05    
    482200   2639.2815      6814.7932      4387.6213     -137159.28    
    482300   2309.1928     -7664.6557      4440.0408     -137158.08    
    482400   2359.6123     -11146.037      4438.94       -137157.39    
    482500   2587.7686      2977.689       4370.5493     -137158.66    
    482600   2592.3973      3464.9478      4321.8307     -137159.77    
    482700   2333.6046      4070.393       4315.992      -137163.32    
    482800   2407.5046     -899.62383      4344.6713     -137165.43    
    482900   2527.9154     -4476.0358      4360.4451     -137162.58    
    483000   2485.2399      2732.115       4358.572      -137158.02    
    483100   2490.0246     -2171.8904      4364.5183     -137158.96    
    483200   2437.7188     -3867.5603      4381.1001     -137157.61    
    483300   2884.1368     -7049.3515      4395.4608     -137159.47    
    483400   2664.1538      568.08742      4402.0368     -137154.52    
    483500   2370.4066      7478.0046      4415.9071     -137153.3     
    483600   2500.7145     -4065.1761      4444.3304     -137158.59    
    483700   2380.7529     -256.98228      4453.6344     -137154.63    
    483800   2716.6351      2553.3011      4424.9615     -137157.21    
    483900   2719.6105      15714.216      4411.7614     -137151.31    
    484000   2576.6593     -2714.417       4470.9539     -137158.67    
    484100   2481.8537     -10837.99       4527.3554     -137159.6     
    484200   2470.7469     -3010.4514      4513.7712     -137158.55    
    484300   2694.5463     -942.93499      4455.3564     -137161.89    
    484400   2454.8769      15818.314      4384.8026     -137158.78    
    484500   2147.9391     -534.6406       4356.1499     -137158.17    
    484600   2457.0347      5434.0503      4299.8559     -137165.02    
    484700   2525.3926      12004.683      4274.4858     -137163.01    
    484800   2524.0762     -6417.4206      4306.0056     -137162.47    
    484900   2522.7222      1431.0932      4318.0449     -137162.49    
    485000   2523.5658     -2819.3688      4336.473      -137162.2     
    485100   2517.7622     -5569.0466      4354.6266     -137160.2     
    485200   2640.5158      7443.8004      4351.4043     -137159.01    
    485300   2541.0174      12446.903      4392.043      -137152.6     
    485400   2433.1229     -12382.642      4490.123      -137153.46    
    485500   2149.7781     -10223.148      4532.5099     -137151.14    
    485600   2502.0422     -3038.6499      4468.4841     -137156.52    
    485700   2921.9918      7851.5556      4374.2056     -137162.22    
    485800   2482.9717      2488.9463      4357.4193     -137156.83    
    485900   2439.2748      6169.9015      4359.2722     -137158.33    
    486000   2444.5377      3319.6787      4361.5835     -137158.38    
    486100   2743.3349     -1245.499       4384.7819     -137163.86    
    486200   2452.2433     -7044.7622      4419.3063     -137156.22    
    486300   2347.6543     -3035.29        4410.0927     -137154.88    
    486400   2691.9862      7375.4539      4361.1151     -137161.98    
    486500   2545.8263      6121.466       4339.1039     -137163.54    
    486600   2419.7907     -8170.7148      4336.1133     -137166.67    
    486700   2358.6787     -3982.226       4281.3773     -137164.35    
    486800   2604.5207      16009.807      4220.0742     -137164.61    
    486900   2629.809       5397.5985      4248.4766     -137164.48    
    487000   2534.309      -13362.807      4327.0822     -137163.12    
    487100   2511.3123     -5148.107       4371.0565     -137161.97    
    487200   2501.4505     -8292.7018      4408.5441     -137154.53    
    487300   2767.2282      7738.3672      4415.4917     -137155.3     
    487400   2640.3745     -2045.2214      4474.6037     -137156.8     
    487500   2471.1758     -9126.5068      4505.9658     -137155.89    
    487600   2470.2538     -467.40695      4460.9648     -137158.27    
    487700   2467.7822     -1968.8832      4391.198      -137160.26    
    487800   2346.6772      8920.7158      4314.5729     -137156.46    
    487900   2579.0418      10735.256      4306.8857     -137158.17    
    488000   2579.0976      7703.079       4374.1327     -137156.6     
    488100   2347.6011     -16146.512      4468.1459     -137154.05    
    488200   2364.863       1010.5598      4478.6913     -137156.63    
    488300   2601.304      -3045.0046      4440.3091     -137156.7     
    488400   2738.7756     -782.79865      4363.7072     -137155.91    
    488500   2642.8545      7126.0257      4290.1839     -137161.22    
    488600   2539.5801      3790.4748      4260.9601     -137163.76    
    488700   2396.5723      11123.629      4267.1808     -137161.64    
    488800   2503.5246     -4091.4949      4312.4108     -137164       
    488900   2598.3273      2848.7336      4358.8278     -137162.23    
    489000   2536.3963     -235.72771      4412.7995     -137154.86    
    489100   2672.5947     -4100.1887      4449.493      -137156.33    
    489200   2444.3917     -1732.941       4462.7738     -137153.06    
    489300   2305.4456     -5202.6093      4438.563      -137156.36    
    489400   2508.6828     -2023.8109      4372.3854     -137160.89    
    489500   2708.2203      9954.1672      4320.1208     -137161.19    
    489600   2616.5222     -6634.5775      4337.01       -137159.33    
    489700   2447.7131     -2261.7495      4332.3905     -137162.25    
    489800   2425.3759      1324.9946      4316.2936     -137166.74    
    489900   2400.2054     -814.16936      4311.8421     -137164.48    
    490000   2727.1789      6866.5264      4289.3554     -137165.35    
    490100   2583.2767      10079.828      4293.8104     -137160.24    
    490200   2428.8968      11984.751      4362.9098     -137160.04    
    490300   2394.0872     -15818.243      4485.6831     -137159.33    
    490400   2363.0379     -9890.9159      4530.982      -137153.67    
    490500   2592.6317      146.23847      4497.7925     -137153.46    
    490600   2710.315       1808.9065      4458.571      -137157.41    
    490700   2390.8503     -6758.2003      4416.3969     -137157.4     
    490800   2459.8429      2319.4328      4339.7708     -137160.81    
    490900   2589.7882      8329.0424      4292.2257     -137163.59    
    491000   2487.6797      8683.2397      4296.4912     -137163.5     
    491100   2253.7206     -4782.7695      4338.4432     -137163.9     
    491200   2322.8026     -14414.083      4367.3126     -137166.11    
    491300   2535.3883      2771.4078      4349.5064     -137161.97    
    491400   2431.9269      6235.9919      4335.0072     -137157.77    
    491500   2482.29        1642.2796      4348.5154     -137159.21    
    491600   2338.1697     -1718.7019      4388.7911     -137157.9     
    491700   2413.2925     -6507.045       4422.3591     -137160.74    
    491800   2583.4956      9787.9846      4419.695      -137158.26    
    491900   2741.681      -990.30282      4428.715      -137159.93    
    492000   2575.1422     -8069.3244      4447.1873     -137159.52    
    492100   2324.4928     -7741.5078      4440.0753     -137161.45    
    492200   2395.6731     -8810.8559      4362.1922     -137162.7     
    492300   2631.8657      14114.054      4223.5994     -137164.86    
    492400   2427.516       16979.702      4162.2141     -137160.67    
    492500   2590.7058      7708.0741      4208.0241     -137168.2     
    492600   2338.8623     -1567.8851      4329.1727     -137161.98    
    492700   2345.0749     -3214.6693      4434.1292     -137155.23    
    492800   2496.5413     -8109.4282      4493.0793     -137154.25    
    492900   2578.5362     -3602.9248      4504.4145     -137154.53    
    493000   2494.0453     -9544.7667      4483.6355     -137152.53    
    493100   2555.2528      328.21054      4403.4011     -137158.52    
    493200   2367.8068      3475.7651      4308.6617     -137162.12    
    493300   2418.2476      15525.106      4242.3134     -137164.12    
    493400   2417.0745      3041.4132      4241.3542     -137161.72    
    493500   2650.1236      4002.2932      4261.5687     -137159.92    
    493600   2684.1209      1168.0448      4317.9691     -137155.07    
    493700   2535.9741      3799.5043      4368.9011     -137157.44    
    493800   2310.264      -6655.1609      4398.6272     -137155.19    
    493900   2574.2286     -8523.0269      4372.943      -137161.87    
    494000   2484.2176      2198.3764      4314.1318     -137160.35    
    494100   2507.6959      6202.7313      4294.7453     -137162.87    
    494200   2406.2823     -662.14075      4316.0359     -137165.15    
    494300   2307.5948     -9132.7111      4314.6958     -137164.82    
    494400   2391.8989      12778.186      4245.7874     -137161.22    
    494500   2727.6691      5544.4615      4237.5448     -137164.45    
    494600   2549.8306     -8635.9878      4294.7729     -137161.78    
    494700   2441.1322      5571.0381      4331.6129     -137161.05    
    494800   2461.1913     -5818.2733      4376.6717     -137163.27    
    494900   2389.9131     -628.45398      4391.8812     -137161.52    
    495000   2701.3822     -4869.697       4402.8532     -137164.47    
    495100   2548.9557     -4214.1087      4405.4962     -137158.15    
    495200   2613.188      -2720.9554      4392.088      -137160.48    
    495300   2377.411      -16144.968      4366.1534     -137160.81    
    495400   2423.7879     -1296.5595      4274.2393     -137162.38    
    495500   2735.4552      10973.554      4198.1419     -137164.18    
    495600   2411.6114      18640.598      4193.7208     -137163.1     
    495700   2230.0225     -1895.5183      4265.3447     -137163.73    
    495800   2564.2977     -2302.0703      4339.5811     -137167.42    
    495900   2410.0536     -5291.7097      4388.4442     -137157.55    
    496000   2594.729       2173.2235      4377.5272     -137157.97    
    496100   2558.0405     -5955.0014      4343.515      -137159.36    
    496200   2356.3341      9387.8905      4301.9739     -137158.37    
    496300   2081.0926      5607.5435      4297.9821     -137161.44    
    496400   2182.8293     -311.45812      4302.5113     -137163.64    
    496500   2438.9745      984.1343       4293.5425     -137163.07    
    496600   2529.3131      7028.0237      4289.811      -137160.53    
    496700   2649.2193      1538.6154      4304.3581     -137163.64    
    496800   2413.2573     -5178.4104      4338.0369     -137162.37    
    496900   2351.772      -5353.7922      4368.993      -137162.04    
    497000   2709.0615      1560.276       4368.9907     -137161.81    
    497100   2604.3529     -303.22019      4373.675      -137160.1     
    497200   2413.985      -3372.2537      4383.5371     -137160.6     
    497300   2412.9276      606.50732      4361.5373     -137161.93    
    497400   2458.4717      13124.878      4335.2368     -137158.63    
    497500   2865.9925      6151.5324      4354.5886     -137159.97    
    497600   2700.8378     -4969.1116      4418.7197     -137160.64    
    497700   2409.7571      272.60164      4458.0352     -137159.13    
    497800   2413.1345     -6052.6724      4458.8476     -137159.31    
    497900   2601.1969      720.49666      4401.9931     -137161.37    
    498000   2566.7356      2266.6848      4331.6069     -137159.8     
    498100   2414.2313      1460.1103      4284.8728     -137163.14    
    498200   2408.4888      7955.1339      4266.2438     -137168.45    
    498300   2341.1967      2610.8103      4284.1506     -137162.85    
    498400   2572.395       8704.3655      4342.4465     -137161.82    
    498500   2442.7185     -12455.717      4436.6728     -137156.78    
    498600   2592.3142     -373.38528      4461.3204     -137159.11    
    498700   2422.2301      646.6059       4481.6032     -137152.89    
    498800   2473.0776     -1973.655       4497.8232     -137150.03    
    498900   2719.9869      2704.4061      4475.4654     -137154.81    
    499000   2409.099      -1079.3632      4435.8879     -137154.24    
    499100   2559.295      -5747.469       4387.8575     -137162.77    
    499200   2602.8415     -2532.7307      4347.4138     -137167.31    
    499300   2375.8282      6698.0322      4348.1977     -137160.93    
    499400   2531.6929      1683.4005      4382.3193     -137157.71    
    499500   2791.3248     -5896.8112      4445.4188     -137156.05    
    499600   2455.7164      7799.6643      4509.0822     -137151.24    
    499700   2445.8029     -18205.713      4560.9194     -137156.59    
    499800   2554.4043     -7408.7843      4514.1076     -137158.68    
    499900   2503.9958      7112.0485      4398.8192     -137156.57    
    500000   2547.5982      8110.2464      4273.0769     -137165.09    
    500100   2281.3018      17631.95       4180.6511     -137165.25    
    500200   2289.8083      10658.272      4155.9728     -137166.64    
    500300   2427.7174      24524.132      4207.6411     -137164.79    
    500400   2314.3809      6351.2729      4368.7314     -137156.7     
    500500   2491.2005     -13232.02       4531.0935     -137157.21    
    500600   2396.153      -12079.194      4586.128      -137152.27    
    500700   2580.265      -6077.107       4548.8774     -137156.04    
    500800   2531.6542     -1652.5954      4471.1561     -137156.33    
    500900   2446.8227     -5203.3468      4382.5416     -137163.53    
    501000   2466.1583      6015.0328      4288.035      -137168.88    
    501100   2422.3251      2382.3952      4244.7252     -137167.13    
    501200   2550.7419      6594.8974      4247.5425     -137167.38    
    501300   2646.0655      3213.4762      4290.8316     -137163.45    
    501400   2666.1711     -1708.9305      4369.737      -137159.21    
    501500   2643.4513     -5315.0076      4444.5148     -137157.41    
    501600   2408.0165     -4379.2136      4467.4491     -137154.87    
    501700   2478.2345     -6999.8442      4445.9131     -137159.3     
    501800   2415.875       9582.098       4391.587      -137155.22    
    501900   2643.4929      9343.8935      4382.2031     -137156.1     
    502000   2701.8351     -11167.382      4415.934      -137162.73    
    502100   2271.9559     -1833.3255      4432.2947     -137157.52    
    502200   2424.9471     -12939.18       4440.7031     -137158.47    
    502300   2655.8432     -3176.408       4392.0248     -137161       
    502400   2562.9799      1438.0299      4326.9238     -137160.66    
    502500   2389.2909     -6770.8047      4271.9092     -137162.86    
    502600   2550.5847      3725.0617      4188.8638     -137168.82    
    502700   2508.5597      14175.321      4151.1407     -137166.39    
    502800   2551.9988      1275.5348      4215.2965     -137166.96    
    502900   2548.5551     -1379.4552      4311.3224     -137164.77    
    503000   2780.4435      2540.1548      4415.3334     -137164.81    
    503100   2582.8625     -8490.1405      4527.5551     -137153.86    
    503200   2625.4098     -3810.3155      4562.2228     -137153.5     
    503300   2544.6109     -12261.548      4543.1015     -137159.38    
    503400   2221.2413     -11726.349      4469.866      -137155.92    
    503500   2538.3905      2046.8671      4333.7282     -137161.17    
    503600   2648.8558      5666.8575      4241.8323     -137160.5     
    503700   2586.7697      10301.892      4214.59       -137166.54    
    503800   2383.628      -2694.69        4261.9053     -137168.06    
    503900   2243.9086      2826.9847      4301.4907     -137161.91    
    504000   2422.9948     -4067.5734      4328.1995     -137158.1     
    504100   2585.3082      7501.9424      4342.7458     -137159.7     
    504200   2504.1744     -1010.3999      4372.1834     -137161.13    
    504300   2278.11        1047.5261      4402.2398     -137159.26    
    504400   2545.1809     -2234.0066      4430.039      -137160.91    
    504500   2726.8083     -3889.4513      4427.9462     -137159.08    
    504600   2514.3945      4.9438249      4402.7364     -137158.44    
    504700   2396.8137     -2215.0926      4357.4207     -137160.69    
    504800   2520.378      -2660.647       4293.2184     -137162.88    
    504900   2439.6608      12368.723      4249.82       -137158.58    
    505000   2577.6344      2951.0781      4285.3257     -137161.63    
    505100   2517.7181     -12083.667      4348.2985     -137159.53    
    505200   2636.1853      3604.1028      4356.1617     -137160.62    
    505300   2645.1274     -4581.2         4384.4716     -137161.23    
    505400   2312.2537     -6603.5812      4408.9759     -137160.32    
    505500   2256.9322     -12626.312      4389.1599     -137160.2     
    505600   2604.723       14567.229      4303.1071     -137161.25    
    505700   2661.7079      9299.0195      4274.1388     -137163.03    
    505800   2483.8926     -3350.5261      4305.4612     -137162.54    
    505900   2536.0354     -5866.8966      4340.4783     -137165.02    
    506000   2468.0868      3092.1013      4362.6525     -137162.71    
    506100   2483.9939     -2532.8566      4409.9868     -137157.27    
    506200   2709.6035     -9022.2147      4421.8581     -137158.07    
    506300   2499.3683      7042.5496      4379.7033     -137156.58    
    506400   2337.005       8205.6006      4335.0938     -137160.53    
    506500   2428.5672      3862.2324      4295.3161     -137162.98    
    506600   2591.8925      8054.2565      4288.525      -137164.82    
    506700   2368.0885     -6832.1691      4348.0525     -137156.14    
    506800   2804.8888      6635.7726      4374.3372     -137157.41    
    506900   2538.2985      5580.1132      4425.7645     -137151.86    
    507000   2430.9992     -8576.2822      4496.1981     -137154.26    
    507100   2493.073      -7178.6746      4523.2002     -137156.08    
    507200   2628.6605     -4158.814       4482.5143     -137158.3     
    507300   2453.9061      2375.1312      4379.723      -137156.45    
    507400   2498.7949      1088.9723      4262.2002     -137165.25    
    507500   2361.2151      6366.9031      4167.2017     -137164.32    
    507600   2552.5287      14730.247      4126.342      -137166.36    
    507700   2829.8486      8498.1394      4184.2799     -137167.05    
    507800   2742.8247     -2972.141       4339.9062     -137159.84    
    507900   2578.3413     -14825.216      4502.815      -137155.78    
    508000   2366.0885     -15191.633      4566.3961     -137157.06    
    508100   2436.4211     -15136.223      4531.6301     -137161.29    
    508200   2448.3497      1094.2806      4421.4013     -137159.22    
    508300   2845.9779      1730.7681      4327.8338     -137160.95    
    508400   2796.3054      10276.741      4276.4618     -137162.97    
    508500   2553.2032     -4495.3353      4285.015      -137164.03    
    508600   2602.1767      2664.8308      4289.8872     -137166.26    
    508700   2496.5505      8854.4454      4318.1546     -137163.9     
    508800   2456.7978     -16499.164      4381.2678     -137159.4     
    508900   2788.8568      4249.047       4377.648      -137159.6     
    509000   2486.0753     -4014.8207      4377.491      -137155.03    
    509100   2355.367       6995.963       4369.1036     -137156.18    
    509200   2448.5569     -5929.6317      4387.0915     -137159.46    
    509300   2498.1243     -7843.3864      4356.8894     -137161.84    
    509400   2560.481       13429.722      4286.3534     -137163.68    
    509500   2475.0637     -4717.6888      4273.1291     -137165.22    
    509600   2409.9793      8725.1478      4243.8562     -137165.55    
    509700   2489.253       12941.29       4242.6469     -137162.44    
    509800   2555.2565      6856.0381      4284.1886     -137160.17    
    509900   2557.1472     -10913.972      4351.6139     -137161.68    
    510000   2434.7589     -6853.9678      4394.4806     -137162.55    
    510100   2223.6628     -8998.5831      4400.8418     -137158.74    
    510200   2494.0431      3569.2555      4346.8201     -137158.16    
    510300   2698.3693      19002.238      4284.0902     -137160.78    
    510400   2562.778      -7865.1247      4294.6661     -137163.3     
    510500   2451.6884      749.27069      4319.6337     -137163       
    510600   2461.4787      4394.0244      4340.346      -137161.45    
    510700   2445.8827      7540.3966      4357.9954     -137157.35    
    510800   2693.1551     -6193.6877      4375.7718     -137163.93    
    510900   2524.3216     -6814.7633      4363.831      -137160.34    
    511000   2657.2392      4256.1302      4324.0098     -137162.96    
    511100   2508.5342      1263.3614      4313.3242     -137162.82    
    511200   2333.647       4745.3114      4315.8701     -137164       
    511300   2446.5566     -3879.8276      4336.9842     -137165.08    
    511400   2599.7986      1418.4196      4363.8012     -137160.9     
    511500   2584.0283     -1414.5681      4413.1863     -137159.83    
    511600   2378.3236     -2001.4635      4472.9514     -137156.67    
    511700   2375.1539     -3194.2299      4509.7075     -137156.96    
    511800   2678.526      -6425.8516      4505.395      -137159.63    
    511900   2684.8542     -9056.8063      4439.5469     -137153.03    
    512000   2797.3499      12374.774      4310.6195     -137161.54    
    512100   2506.0319      11621.972      4215.1546     -137163.2     
    512200   2430.5763      18704.757      4180.2187     -137164.82    
    512300   2381.6207      11014.466      4264.208      -137167.08    
    512400   2274.8942     -9784.6666      4432.013      -137158.64    
    512500   2418.7533     -11804.573      4542.6068     -137153.17    
    512600   2569.9289     -8480.0539      4558.9509     -137155.53    
    512700   2594.8989     -3826.453       4531.9755     -137156.62    
    512800   2321.8521      1154.0635      4481.822      -137152.81    
    512900   2643.7725     -5473.1278      4384.6597     -137166.76    
    513000   2489.4015      2565.6733      4273.2453     -137165.79    
    513100   2267.9227      19771.79       4202.2409     -137165.92    
    513200   2286.3076      4053.0853      4211.4309     -137166.1     
    513300   2520.1852      4313.5568      4271.745      -137162.9     
    513400   2559.6203     -17823.413      4360.367      -137161.86    
    513500   2496.2369      3107.5367      4363.892      -137160.3     
    513600   2576.8618     -2231.8754      4350.8766     -137163.63    
    513700   2450.213       5618.9752      4349.5632     -137155.46    
    513800   2739.8575     -4920.2497      4379.282      -137157.55    
    513900   2771.8304     -1731.6172      4414.9367     -137163.85    
    514000   2453.728      -9766.5332      4461.2279     -137162.46    
    514100   2360.4499     -3633.3316      4457.8156     -137158.73    
    514200   2555.6242      9072.091       4427.2528     -137159.08    
    514300   2568.0551      6927.4562      4448.6057     -137158.48    
    514400   2184.9984     -2803.9862      4486.324      -137156       
    514500   2256.6437     -10423.513      4455.5337     -137160.74    
    514600   2519.8161      2277.0191      4356.9462     -137161.22    
    514700   2666.3393      4383.472       4277.9538     -137162.3     
    514800   2562.4696      8021.7058      4243.4005     -137162.92    
    514900   2441.7503      7576.8362      4248.5197     -137164.62    
    515000   2483.7398     -6084.8632      4304.3121     -137164.72    
    515100   2515.0825     -5557.2769      4358.2089     -137163.23    
    515200   2408.9753      973.88381      4403.4608     -137158.36    
    515300   2430.9287     -12607.709      4435.5406     -137157.13    
    515400   2505.4987     -2146.6485      4396.3497     -137159.57    
    515500   2458.9028      396.61633      4317.6058     -137160.77    
    515600   2334.011       12975.98       4247.6313     -137160.49    
    515700   2296.5208      7177.078       4251.8213     -137162.21    
    515800   2465.7966      6570.2344      4305.832      -137166.07    
    515900   2518.7252     -1221.6151      4399.0553     -137160.04    
    516000   2431.0839      2067.5304      4465.806      -137154.09    
    516100   2449.9795     -9688.4273      4491.0228     -137155.72    
    516200   2414.8004      4149.1572      4464.9808     -137155.01    
    516300   2424.0339      4953.8404      4415.6562     -137155.54    
    516400   2497.5982      3163.0625      4365.7686     -137157.65    
    516500   2605.9343      3234.9718      4345.9901     -137159.41    
    516600   2449.1803     -315.3725       4334.8671     -137161.11    
    516700   2365.356       1478.994       4335.0476     -137163.71    
    516800   2403.2036     -1056.7748      4340.3651     -137162.77    
    516900   2503.0718      14968.947      4351.0907     -137154.65    
    517000   2729.6028     -9131.1671      4417.2479     -137158.55    
    517100   2553.914      -7345.1685      4446.1439     -137159.5     
    517200   2369.7209     -7453.6933      4423.8855     -137157.66    
    517300   2657.5258      6373.8555      4355.3621     -137164.49    
    517400   2471.4304      9991.5085      4345.9799     -137156.22    
    517500   2704.0519      9884.5991      4383.6148     -137159.11    
    517600   2509.5849     -3065.7913      4478.3631     -137153.42    
    517700   2245.1992      6692.8162      4546.747      -137149.6     
    517800   2358.5267     -12463.178      4574.4847     -137155.29    
    517900   2477.498      -2665.5682      4504.6634     -137158.4     
    518000   2717.4156     -1314.924       4436.2009     -137158.76    
    518100   2454.2508      4298.8701      4409.4482     -137152.34    
    518200   2477.3692     -3193.7897      4401.5262     -137160.44    
    518300   2380.5203      5897.3409      4382.4424     -137163.19    
    518400   2385.2122     -2485.9573      4389.7408     -137162.54    
    518500   2594.6337     -7316.4646      4398.6631     -137156.36    
    518600   2564.989      -576.56096      4396.8934     -137156.67    
    518700   2379.0174     -5922.7305      4406.1801     -137158.02    
    518800   2417.6343     -1163.5992      4377.5038     -137160.27    
    518900   2626.7321      8621.1457      4321.5872     -137162.5     
    519000   2767.5562     -4675.89        4315.413      -137165.21    
    519100   2390.9771     -3337.7472      4326.4812     -137161.79    
    519200   2283.0474      2214.3496      4320.313      -137163.97    
    519300   2372.1604      2237.4078      4335.6419     -137161.02    
    519400   2414.6195      7390.0506      4369.5876     -137156.58    
    519500   2539.6277     -9161.3286      4424.3697     -137157.44    
    519600   2475.6624      11845.549      4447.7337     -137152.93    
    519700   2485.8633     -2177.8024      4466.7921     -137156.87    
    519800   2204.8465     -7612.6876      4447.4314     -137157.21    
    519900   2437.6074      7979.9172      4372.6948     -137160.98    
    520000   2578.1658      6036.4981      4326.4421     -137161.23    
    520100   2468.876       614.15387      4325.6371     -137159.36    
    520200   2484.1779     -4299.5459      4336.4651     -137160.65    
    520300   2511.4611      8258.607       4351.7669     -137163.05    
    520400   2566.4727     -2512.5798      4418.6266     -137167.56    
    520500   2099.9548     -2019.4153      4484.037      -137156.92    
    520600   2480.7025     -4333.4712      4498.3262     -137157.85    
    520700   2566.5956     -4115.9088      4476.0506     -137155.83    
    520800   2587.8805     -6259.572       4428.4436     -137158.33    
    520900   2451.7263      2405.0787      4337.3965     -137161.02    
    521000   2340.0892      8382.3072      4253.2598     -137163.44    
    521100   2410.0999      5266.8557      4224.8548     -137169.3     
    521200   2384.1424     -10783.493      4239.9382     -137171.3     
    521300   2425.8506      5742.4123      4225.6952     -137166.43    
    521400   2520.564       11901.846      4252.7991     -137161.84    
    521500   2667.6945     -2782.6725      4365.4485     -137163.87    
    521600   2424.3541     -7545.2081      4479.7409     -137155.7     
    521700   2569.4914     -9641.2111      4539.7431     -137156.89    
    521800   2778.8769     -21306.867      4546.5656     -137155.01    
    521900   2865.4194      4605.0031      4461.9185     -137159.21    
    522000   2556.8799      4490.0164      4408.9017     -137159.37    
    522100   2371.7568      13261.137      4384.2741     -137156.23    
    522200   2618.6517     -5608.5207      4387.6323     -137162.2     
    522300   2428.9173      829.13726      4375.3414     -137159.45    
    522400   2290.1093     -1967.5938      4354.8774     -137161.14    
    522500   2464.8422      1078.9232      4305.233      -137165.68    
    522600   2610.7038      7618.9256      4266.5997     -137160.51    
    522700   2625.9027      5372.3488      4261.7166     -137160.11    
    522800   2563.2879      5086.8547      4278.8697     -137164.78    
    522900   2382.3356      27.02712       4325.9372     -137162.62    
    523000   2565.1362     -54.745443      4399.1748     -137164.94    
    523100   2355.8208     -3473.0218      4484.0661     -137153.46    
    523200   2584.4359     -4429.8499      4522.6797     -137157.08    
    523300   2409.2549     -10146.379      4521.0456     -137153.47    
    523400   2433.0467     -1930.8843      4469.8826     -137155.82    
    523500   2470.2402     -7056.0106      4403.563      -137160.78    
    523600   2340.7107      11940.665      4307.5823     -137162.49    
    523700   2245.1895      9248.1911      4261.2682     -137164.91    
    523800   2443.4925      7338.8998      4289.8188     -137165.21    
    523900   2549.066      -7095.2212      4374.4221     -137160.82    
    524000   2550.282      -13381.024      4429.7641     -137158.53    
    524100   2430.8075      393.78174      4413.7081     -137156.74    
    524200   2421.492      -9995.1943      4387.4329     -137160.98    
    524300   2200.138       2449.8893      4334.9159     -137162.37    
    524400   2335.562       1855.5938      4279.5705     -137164.48    
    524500   2533.5114      7322.8942      4236.3005     -137159.9     
    524600   2540.7214      18164.668      4235.1009     -137159.05    
    524700   2538.0918      462.24846      4314.4383     -137163.4     
    524800   2373.4407     -11710.627      4385.0538     -137163.76    
    524900   2413.1009     -5188.0623      4388.3206     -137162.56    
    525000   2516.5026      7899.8923      4356.9024     -137161.65    
    525100   2509.8757      2701.6114      4347.2345     -137161.27    
    525200   2519.0049     -7064.9072      4364.4643     -137161.46    
    525300   2571.3756      3134.3919      4374.5663     -137160.91    
    525400   2549.6186      564.07406      4409.5785     -137155.82    
    525500   2674.9942     -910.78256      4435.3523     -137154.3     
    525600   2792.374      -708.92931      4431.283      -137155.45    
    525700   2560.5137     -10391.954      4415.6338     -137159.99    
    525800   2430.4762      2641.4344      4350.5324     -137160.53    
    525900   2451.3537     -75.079488      4273.9925     -137162.41    
    526000   2557.7049      3348.9736      4219.1571     -137164.4     
    526100   2761.491       4893.554       4216.8407     -137166.65    
    526200   2456.5684      476.43418      4298.0603     -137161.79    
    526300   2385.7173     -10525.789      4424.9835     -137161.99    
    526400   2489.6138     -16280.681      4507.5544     -137157.78    
    526500   2626.2469     -4561.3175      4524.4217     -137155.36    
    526600   2458.6278     -8429.4063      4495.2749     -137152.8     
    526700   2648.87        2485.1877      4386.3922     -137162.23    
    526800   2726.6961     -1649.2555      4269.9859     -137169.28    
    526900   2488.0342      11752.69       4196.0254     -137165.78    
    527000   2354.3258      6279.6183      4209.8806     -137164.11    
    527100   2461.3685      2405.8084      4279.3683     -137161.89    
    527200   2589.8094     -773.79771      4391.5596     -137157.15    
    527300   2509.5767     -10274.406      4512.8847     -137154.56    
    527400   2476.4598     -7306.1871      4567.172      -137154.25    
    527500   2437.2143     -7751.1789      4536.1145     -137152.94    
    527600   2642.6421      4288.2147      4432.603      -137157.74    
    527700   2524.219       793.03717      4364.431      -137157.17    
    527800   2557.4555     -1089.5117      4328.7521     -137160.71    
    527900   2512.6165      9199.3296      4343.3128     -137163.41    
    528000   2267.6232     -8132.4342      4410.4749     -137156.88    
    528100   2650.5405     -10055.363      4410.5221     -137161.75    
    528200   2635.3068      11910.722      4369.1726     -137156.31    
    528300   2729.5813      2864.3546      4376.5858     -137159.3     
    528400   2323.7671     -3290.7059      4414.6684     -137157.49    
    528500   2424.6955     -4533.266       4410.0096     -137161.77    
    528600   2519.6234      5568.4261      4376.8988     -137161.66    
    528700   2599.1167      10597.755      4355.3398     -137158.99    
    528800   2551.2213      4425.9233      4370.9727     -137154.04    
    528900   2593.5005     -3361.4145      4411.0469     -137157.28    
    529000   2466.8568     -15247.486      4430.7049     -137162.35    
    529100   2468.1354     -13797.885      4385.7368     -137162.42    
    529200   2498.2258      17136.173      4280.3047     -137158.6     
    529300   2615.3705      6707.988       4242.0163     -137164.14    
    529400   2356.5832     -9199.4957      4270.9761     -137167.53    
    529500   2479.3478     -1802.0523      4297.1641     -137167.54    
    529600   2571.0044     -5322.0825      4343.596      -137164.09    
    529700   2488.3627     -1171.6819      4384.1973     -137158.19    
    529800   2583.649      -572.19963      4413.5682     -137157.54    
    529900   2414.9341     -2338.8433      4462.7609     -137155.09    
    530000   2269.0713     -13152.861      4493.1324     -137158.25    
    530100   2555.8137     -4645.471       4443.4316     -137162.27    
    530200   2655.5339     -726.204        4378.483      -137159.88    
    530300   2638.6785     -3065.8976      4338.6464     -137161.91    
    530400   2358.4872      2977.7376      4309.9603     -137165.04    
    530500   2417.7517     -69.080849      4287.9741     -137166.42    
    530600   2466.5583      1762.5359      4293.7764     -137162.47    
    530700   2662.029       513.54627      4360.3737     -137162.03    
    530800   2613.956      -6048.8281      4448.2286     -137159.96    
    530900   2322.4338     -4500.8882      4502.5206     -137154.07    
    531000   2289.9189     -1735.9013      4480.3921     -137156.24    
    531100   2292.0763      5385.5331      4408.89       -137158.11    
    531200   2589.7658      3739.1018      4363.3571     -137160.56    
    531300   2691.2089      5105.4461      4327.6252     -137163.17    
    531400   2396.5672     -5075.6296      4327.5595     -137160.97    
    531500   2407.4972     -2138.1365      4333.89       -137160.98    
    531600   2769.6303      2152.6033      4330.7448     -137163.64    
    531700   2753.546       1548.1662      4337.3657     -137158.5     
    531800   2436.1886     -12672.196      4362.0635     -137156.58    
    531900   2475.3701     -10098.337      4350.8892     -137162.6     
    532000   2514.7338      291.49516      4313.9686     -137161.02    
    532100   2606.86        7768.885       4306.7662     -137161.82    
    532200   2475.7365     -6126.5045      4340.4041     -137161.68    
    532300   2410.8894      1898.8945      4371.4604     -137159.59    
    532400   2667.735       216.19644      4392.7876     -137162.13    
    532500   2650.5706      5035.9684      4420.5544     -137156.34    
    532600   2737.5299     -7083.7433      4492.7615     -137153.13    
    532700   2630.4804     -12699.21       4533.2685     -137156.56    
    532800   2596.4781     -8136.2636      4511.4869     -137162.44    
    532900   2586.8201     -2295.0821      4440.46       -137162.36    
    533000   2688.4381     -8543.7203      4368.43       -137161.68    
    533100   2742.0541      7876.1144      4300.3324     -137160.53    
    533200   2582.2371      268.93538      4309.7632     -137162.01    
    533300   2324.662       2313.79        4345.7584     -137162       
    533400   2345.111      -3768.2819      4388.6617     -137161.54    
    533500   2568.4073      2138.9404      4418.5342     -137160.42    
    533600   2403.2798     -416.16852      4457.1472     -137151.53    
    533700   2560.2719     -8921.104       4484.7592     -137155.87    
    533800   2443.4603     -5407.8548      4464.6184     -137153.02    
    533900   2554.4898      4309.0795      4406.8821     -137155.97    
    534000   2477.2312     -2981.3174      4373.9211     -137160.93    
    534100   2468.0401     -7412.4238      4298.9281     -137167.64    
    534200   2363.648       10076.84       4188.6926     -137164.75    
    534300   2584.4582      9102.8864      4133.8311     -137164.22    
    534400   2763.6558      14010.276      4166.3014     -137165.43    
    534500   2183.4212      2070.3962      4281.1211     -137161.16    
    534600   2279.4297     -11968.612      4409.565      -137161.25    
    534700   2458.1285     -5989.8343      4477.2913     -137158.74    
    534800   2543.1148     -13836.564      4467.1903     -137157.82    
    534900   2789.8905      14842.944      4388.2156     -137162.52    
    535000   2479.1291      584.07736      4374.253      -137160.71    
    535100   2401.1909     -7485.8291      4377.7161     -137164.87    
    535200   2449.8274      4776.0253      4362.3366     -137161.3     
    535300   2676.9663     -354.2584       4348.36       -137162.94    
    535400   2591.7685      7476.4109      4345.5745     -137160.68    
    535500   2437.4469      1752.4747      4367.4608     -137159.36    
    535600   2308.5239     -260.45178      4382.2983     -137162.61    
    535700   2409.6406     -14051.17       4393.1192     -137170.47    
    535800   2437.2109     -2817.955       4343.4545     -137164.09    
    535900   2500.1365      7254.9721      4276.616      -137159.79    
    536000   2510.2022      13613.736      4245.5354     -137159.71    
    536100   2360.9443      9293.7558      4264.7089     -137159.96    
    536200   2341.779       21.989202      4337.6009     -137164.28    
    536300   2404.3936     -8736.6069      4427.4385     -137159.98    
    536400   2480.6463     -9041.2928      4494.2806     -137153.51    
    536500   2595.0897     -10768.062      4511.6943     -137154.51    
    536600   2578.9492     -1793.6559      4459.8043     -137156.17    
    536700   2533.5249     -3000.869       4369.8004     -137164.5     
    536800   2442.6292      9167.4873      4258.6219     -137164.66    
    536900   2429.5016      11088.45       4188.9863     -137164.59    
    537000   2696.235       8247.8616      4205.2153     -137167.23    
    537100   2826.8439      1309.6803      4320.5371     -137162.02    
    537200   2395.8122      2904.0146      4480.418      -137150.89    
    537300   2264.6803     -15241.318      4613.5243     -137155.73    
    537400   2311.8203      2136.1641      4658.5153     -137157.57    
    537500   2351.9946     -3697.8968      4667.504      -137154.22    
    537600   2507.6147     -4548.5357      4617.8496     -137154.78    
    537700   2434.8121     -5124.2824      4534.4268     -137151.19    
    537800   2673.419      -248.68259      4416.5703     -137161.6     
    537900   2345.7972      1649.0461      4317.0255     -137161.55    
    538000   2404.5303      10550.252      4245.1034     -137164.17    
    538100   2576.3195      4567.6213      4246.6377     -137166.56    
    538200   2689.8279     -10460.529      4295.8279     -137165.15    
    538300   2852.3129      9169.5943      4327.9206     -137160.5     
    538400   2640.982       50.729772      4395.2113     -137157.26    
    538500   2272.5938     -1929.2658      4459.7772     -137156.81    
    538600   2337.2633     -6456.6875      4500.7662     -137157.23    
    538700   2427.8572     -863.10224      4490.3602     -137152.87    
    538800   2706.3842      2467.317       4464.1027     -137157.25    
    538900   2420.2115     -5618.4337      4431.1159     -137155.78    
    539000   2539.2032      1684.8338      4364.1427     -137160.97    
    539100   2489.6716      3991.2814      4316.737      -137159.72    
    539200   2604.8685      5012.7434      4308.1754     -137161.89    
    539300   2384.5778     -5722.1036      4327.8504     -137159.43    
    539400   2406.5632     -5557.7622      4325.0001     -137167.47    
    539500   2390.6357      2449.823       4296.3794     -137167.46    
    539600   2521.6249      12776.496      4287.6041     -137162.64    
    539700   2550.0755     -3303.0757      4336.6166     -137160.82    
    539800   2558.2222     -14466.911      4369.766      -137160.15    
    539900   2474.1252      5987.2925      4350.8776     -137156.4     
    540000   2536.8657     -4284.9317      4360.7076     -137160.14    
    540100   2336.2662     -10295.726      4378.6018     -137160.16    
    540200   2369.7197      7650.6402      4342.2469     -137159.71    
    540300   2522.964       7611.7657      4316.6602     -137156.26    
    540400   2519.0703      3655.0462      4331.5435     -137156.04    
    540500   2352.9164      3063.4047      4384.7459     -137157.46    
    540600   2389.2665     -7588.1508      4460.8559     -137158.54    
    540700   2426.3355     -5622.0911      4481.0455     -137156.08    
    540800   2545.4351      6014.9966      4428.8448     -137156.57    
    540900   2578.9315      4676.875       4394.1521     -137159.33    
    541000   2245.3994      3932.6169      4389.7759     -137160.2     
    541100   2336.3588     -9339.0043      4376.2059     -137163.47    
    541200   2538.806      -2387.8164      4315.2634     -137162.8     
    541300   2543.3354      6599.1552      4242.1003     -137160.67    
    541400   2499.5929      1903.8369      4217.6152     -137162.76    
    541500   2410.1827      5878.3942      4236.2703     -137166.01    
    541600   2301.752       1539.7923      4295.5823     -137163.41    
    541700   2583.3853      4801.4871      4373.3359     -137158.74    
    541800   2757.5223     -9344.0787      4490.7985     -137161.04    
    541900   2373.6703     -10595.85       4573.8156     -137153.9     
    542000   2253.8318     -10671.057      4577.0516     -137148.32    
    542100   2940.1425      9245.6144      4495.1528     -137161.93    
    542200   2399.6948      1207.661       4432.0473     -137156.04    
    542300   2487.6521      9163.9941      4361.4423     -137159.22    
    542400   2501.3361      1988.1316      4316.9473     -137157.98    
    542500   2579.7947      11505.588      4287.3604     -137162.2     
    542600   2290.9255     -11949.286      4322.7918     -137162.51    
    542700   2358.8903     -4963.692       4304.0547     -137162.96    
    542800   2620.6054      10600.428      4262.0087     -137163.02    
    542900   2429.5454      17714.424      4298.5195     -137158.27    
    543000   2364.6267     -12705.614      4417.4236     -137157.46    
    543100   2431.5477     -9238.2928      4472.1752     -137155.35    
    543200   2579.6982     -518.9141       4470.8077     -137150.83    
    543300   2647.0146     -5892.2208      4448.1148     -137153.84    
    543400   2481.227       10639.187      4398.1593     -137155.63    
    543500   2576.2269      2407.1349      4376.754      -137161.88    
    543600   2408.9502     -1676.4407      4389.9559     -137159.79    
    543700   2429.5717      61.154482      4404.2207     -137160.73    
    543800   2578.6131     -7760.4276      4406.6113     -137160.38    
    543900   2618.7548      9601.6157      4383.3082     -137155.26    
    544000   2650.8756     -7034.2812      4380.7252     -137158.64    
    544100   2459.1796     -6744.0042      4361.3876     -137162.31    
    544200   2340.7359      10109.745      4329.0907     -137160.93    
    544300   2509.8024     -8296.9327      4323.6374     -137162.87    
    544400   2555.8477      6287.3957      4297.9657     -137162.05    
    544500   2710.3725     -2675.7145      4323.6396     -137165.53    
    544600   2370.2842     -235.68978      4363.5769     -137161.51    
    544700   2290.9395     -9447.7394      4399.4751     -137162.69    
    544800   2558.1442     -5447.8177      4397.1236     -137164.59    
    544900   2561.9799      6203.9177      4387.2155     -137157.73    
    545000   2704.6897     -2648.8972      4400.8713     -137163.12    
    545100   2307.6571     -3526.3988      4414.902      -137157.67    
    545200   2455.4146     -718.7702       4381.1076     -137159.88    
    545300   2630.0371      6034.3614      4320.6859     -137163.52    
    545400   2504.6572     -1592.6674      4294.0236     -137162.47    
    545500   2510.1109      5964.0973      4293.3185     -137164.24    
    545600   2515.5081     -3408.2182      4341.4629     -137163.43    
    545700   2658.8839      3770.2684      4409.9409     -137158.53    
    545800   2529.703      -2003.0239      4473.6028     -137151.77    
    545900   2454.0383     -8198.4726      4492.9977     -137154.52    
    546000   2388.9471     -4832.2448      4448.8854     -137160.8     
    546100   2328.2118     -2930.4162      4351.7037     -137163.6     
    546200   2619.7902      8223.8899      4246.4728     -137163.9     
    546300   2704.0571      5399.0658      4208.3268     -137161.34    
    546400   2621.8688      5716.512       4241.8603     -137163.78    
    546500   2626.8403     -7409.6432      4327.6727     -137170.02    
    546600   2322.1284     -4294.069       4403.701      -137161.3     
    546700   2542.2455     -8960.5855      4443.3109     -137158.18    
    546800   2551.2899     -4737.3872      4434.8455     -137156.71    
    546900   2736.0852     -7239.7675      4397.0562     -137165.8     
    547000   2462.1727      765.65341      4341.5965     -137164.15    
    547100   2421.8345      2920.9807      4275.1542     -137164.78    
    547200   2501.1883      8949.3372      4226.5604     -137163.87    
    547300   2812.327       11207.925      4258.58       -137161.47    
    547400   2746.9934      2844.0265      4378.224      -137160.5     
    547500   2483.1965     -11960.178      4520.0231     -137160.61    
    547600   2434.4303     -10328.17       4564.7464     -137158.98    
    547700   2445.604       100.65934      4514.5135     -137153.94    
    547800   2722.4301     -2608.3333      4462.0474     -137157.85    
    547900   2444.4481      3294.1705      4395.1666     -137154.97    
    548000   2383.3102     -1930.098       4335.0995     -137156.01    
    548100   2518.5932      12658.005      4255.4527     -137161.45    
    548200   2538.5716      2815.3194      4226.0817     -137163.9     
    548300   2509.4934      15378.835      4258.8561     -137165.16    
    548400   2228.0815     -8996.3894      4383.3712     -137156.91    
    548500   2584.2116     -1184.0104      4458.8696     -137156.38    
    548600   2662.965      -12485.372      4501.9989     -137157.69    
    548700   2409.5084     -7341.0435      4484.8578     -137155.73    
    548800   2442.0055      1649.9007      4406.7084     -137160.7     
    548900   2391.0693     -1462.6005      4316.0847     -137164.44    
    549000   2251.513       9046.7618      4239.0822     -137167.03    
    549100   2390.5915      3197.8983      4210.7422     -137168.02    
    549200   2637.8791      12544.725      4221.3033     -137165.75    
    549300   2513.0063     -1532.781       4310.0676     -137163.85    
    549400   2367.001      -1204.6032      4402.6834     -137159.98    
    549500   2663.8929     -6588.9506      4469.2296     -137160.92    
    549600   2588.4545      7490.1235      4473.6743     -137154.47    
    549700   2557.6648      6530.6329      4466.6024     -137156.62    
    549800   2321.4589     -9774.7879      4464.3222     -137160.32    
    549900   2203.0728     -5368.2512      4380.7616     -137160.73    
    550000   2555.7325      9113.0362      4259.1154     -137165.28    
    550100   2689.6807      11906.98       4216.0693     -137164.72    
    550200   2615.0872      11040.069      4264.4584     -137165.12    
    550300   2303.0752     -9664.7212      4359.5692     -137162.75    
    550400   2328.8442     -1307.7959      4381.6898     -137162.68    
    550500   2644.9483      1975.5042      4366.571      -137160.45    
    550600   2627.7194      992.80774      4364.8552     -137162.62    
    550700   2361.4507     -10986.285      4378.2021     -137160.71    
    550800   2461.0447      7604.7457      4342.0944     -137161.98    
    550900   2612.8307      10169.288      4338.7418     -137157.24    
    551000   2592.1491      3415.8263      4389.4629     -137156.28    
    551100   2301.5315     -5630.7727      4456.8731     -137152.9     
    551200   2530.2928      2166.6123      4467.99       -137158.77    
    551300   2696.7801      11.778747      4459.3885     -137161.5     
    551400   2371.8638     -2442.1388      4469.1149     -137158.89    
    551500   2159.79       -5148.2394      4467.9865     -137157.14    
    551600   2363.1334     -4514.2683      4421.1801     -137156.17    
    551700   2630.961       2594.3078      4332.904      -137159.79    
    551800   2596.2985      3691.9686      4270.4544     -137162.65    
    551900   2495.0052      666.52826      4256.746      -137164.31    
    552000   2525.0241      7491.4277      4273.5847     -137167.23    
    552100   2424.3667     -5086.8888      4318.5933     -137164.93    
    552200   2845.2555      2200.1041      4340.0905     -137163.11    
    552300   2561.6708      1714.0094      4383.5121     -137156.61    
    552400   2462.054       4872.8149      4456.0644     -137160.44    
    552500   2341.6876     -12330.424      4515.6376     -137159.02    
    552600   2518.8944     -9521.2852      4485.3386     -137156.74    
    552700   2684.6965      6042.8139      4375.8397     -137158.62    
    552800   2507.4291      7764.3432      4311.3412     -137157.33    
    552900   2560.6616      5867.7254      4321.0539     -137161.31    
    553000   2545.374      -6220.914       4367.4794     -137162.94    
    553100   2390.292      -8417.5131      4386.1297     -137159.7     
    553200   2608.3625     -1307.2784      4381.4859     -137162.69    
    553300   2589.1408      13323.503      4369.4186     -137152.46    
    553400   2897.8208      607.03273      4411.5375     -137159       
    553500   2505.2795     -1789.5209      4458.5962     -137156.69    
    553600   2449.478      -2904.4603      4471.5576     -137157.11    
    553700   2473.7978     -1256.0117      4433.1622     -137158.18    
    553800   2554.6691     -979.44028      4363.0345     -137160.39    
    553900   2652.9868      9019.4642      4297.0831     -137162.53    
    554000   2455.9608     -3938.1272      4285.0281     -137159.27    
    554100   2548.2743      2134.2674      4289.7664     -137166.44    
    554200   2425.0186     -8564.2428      4321.4317     -137165.52    
    554300   2485.6296      7419.0502      4337.0825     -137161.62    
    554400   2628.6992     -766.25911      4376.4075     -137158.27    
    554500   2603.2146      92.934142      4421.1743     -137160.04    
    554600   2425.8998     -6801.3013      4460.1772     -137160.22    
    554700   2291.1797      4467.5836      4451.6251     -137156.43    
    554800   2555.3962     -4011.8001      4425.108      -137158.56    
    554900   2665.033       7720.6093      4383.5587     -137156.89    
    555000   2542.9707     -1417.4387      4366.5681     -137160.36    
    555100   2367.3311     -3485.3754      4368.6004     -137161.8     
    555200   2439.4725     -4178.294       4340.6758     -137163.01    
    555300   2597.7774      564.1937       4280.161      -137161.53    
    555400   2567.2385      14822.281      4219.7843     -137159.72    
    555500   2513.817      -2102.2675      4219.9924     -137164.62    
    555600   2385.3518      3167.7378      4258.3676     -137167.58    
    555700   2310.6397     -5391.5247      4336.5802     -137163.97    
    555800   2297.7604     -3353.2243      4389.8193     -137158.02    
    555900   2506.1972     -2918.4752      4398.2122     -137159.41    
    556000   2598.5811      963.39951      4369.5189     -137160.04    
    556100   2383.728       2.1273904      4355.9743     -137156.24    
    556200   2382.7641      4368.2422      4346.4404     -137161.44    
    556300   2340.0938     -2938.8609      4358.3566     -137163.8     
    556400   2531.6942     -12763.163      4357.0899     -137164.64    
    556500   2743.2385      6597.5826      4295.0519     -137163.18    
    556600   2658.2981      1215.2138      4265.9468     -137163.09    
    556700   2375.8414      11421.044      4294.6346     -137160.54    
    556800   2298.9603     -14496.556      4373.2993     -137164.73    
    556900   2113.734      -4548.6687      4392.7456     -137165.03    
    557000   2473.2033     -272.22863      4332.9213     -137168.86    
    557100   2616.9091      7401.3146      4252.949      -137165.29    
    557200   2640.7269      4868.9         4216.5172     -137165.98    
    557300   2387.473       7587.0589      4209.5054     -137163.27    
    557400   2392.5489      1216.3357      4241.2554     -137165.76    
    557500   2340.4519     -7044.1556      4303.3976     -137164.74    
    557600   2482.0634     -4036.443       4351.0912     -137160.28    
    557700   2582.1016     -5931.3584      4373.527      -137157.64    
    557800   2619.4237      5251.6013      4380.9357     -137159.89    
    557900   2377.2424     -5232.3098      4420.9639     -137160.29    
    558000   2333.2843     -11148.926      4434.4956     -137160.94    
    558100   2699.7544     -4085.8761      4374.8711     -137162.38    
    558200   2739.7915      20203.867      4302.1412     -137159.07    
    558300   2668.4984     -1429.6326      4328.7006     -137163.25    
    558400   2399.2906     -6305.422       4367.3911     -137160.5     
    558500   2523.6039     -8598.1271      4362.3235     -137163.43    
    558600   2549.1959     -648.45303      4334.0337     -137159.1     
    558700   2734.9293      9357.0247      4322.8143     -137157.89    
    558800   2461.1561     -1047.6957      4358.7874     -137155.82    
    558900   2286.5778     -4951.9445      4380.7153     -137159.18    
    559000   2542.6522      8144.8121      4338.2003     -137164.77    
    559100   2618.6951      3539.1692      4304.6002     -137162.48    
    559200   2638.7328      432.51366      4283.1681     -137165.14    
    559300   2301.3142      10535.541      4292.906      -137166.74    
    559400   2320.454      -6726.1698      4351.6939     -137164.83    
    559500   2416.5947     -2302.7328      4379.2128     -137160.17    
    559600   2670.5503     -12412.794      4373.3254     -137162.88    
    559700   2480.4654      13248.878      4344.4136     -137157.67    
    559800   2382.6949     -4978.9501      4363.0513     -137159.36    
    559900   2453.1557     -13236.233      4354.8664     -137168.61    
    560000   2336.8414      7579.1534      4288.9528     -137167.41    
    560100   2513.2607      21104.537      4253.4577     -137162.85    
    560200   2615.4067     -92.307527      4313.7494     -137160.64    
    560300   2601.9463     -14802.463      4392.7011     -137160.79    
    560400   2511.8831     -910.3223       4416.0491     -137158.12    
    560500   2835.4978     -3170.8299      4413.512      -137164.5     
    560600   2477.4135     -3645.5116      4404.4178     -137160.83    
    560700   2332.5326     -4459.8023      4384.604      -137161.75    
    560800   2511.6887     -1220.8318      4330.7624     -137165.17    
    560900   2720.8897      13515.339      4280.301      -137162.95    
    561000   2793.2238      3091.2572      4302.7849     -137160.46    
    561100   2332.9337     -2601.2883      4367.157      -137159.57    
    561200   2296.4553     -5859.3766      4424.5854     -137159.38    
    561300   2606.9135     -2568.9376      4442.4601     -137161.05    
    561400   2619.5474     -4337.4208      4443.3624     -137158.97    
    561500   2430.0249     -2917.1578      4438.9893     -137157.18    
    561600   2528.0821     -11591.805      4432.1162     -137167.92    
    561700   2254.9397     -4642.7042      4394.4874     -137163.1     
    561800   2560.9638      6327.2758      4335.3561     -137161.55    
    561900   2637.9345      950.4766       4312.68       -137159.97    
    562000   2461.4714      4325.0897      4312.8803     -137160.48    
    562100   2474.144       3062.7037      4335.4871     -137164.45    
    562200   2460.9139     -7813.1993      4363.5033     -137161.93    
    562300   2636.3157      6586.2832      4347.6424     -137156.92    
    562400   2623.5211      2187.4933      4355.1202     -137157.62    
    562500   2609.3537     -4848.5129      4385.0538     -137164.73    
    562600   2274.1963     -7336.3076      4397.8677     -137158.48    
    562700   2562.3736      4667.2948      4365.0431     -137161.44    
    562800   2509.6318      1990.0503      4358.4851     -137157.36    
    562900   2410.8763      3770.1596      4380.3918     -137155.95    
    563000   2300.3352     -4140.9167      4428.4486     -137157.09    
    563100   2497.7366     -12164.159      4445.8119     -137165.22    
    563200   2259.7122     -915.08248      4390.6441     -137156.5     
    563300   2574.4302      23434.591      4302.6081     -137157.29    
    563400   2641.9784      4444.1599      4266.0988     -137162.12    
    563500   2404.6456      4641.2855      4264.9768     -137161.38    
    563600   2534.2124     -5385.6733      4299.7021     -137164.14    
    563700   2628.1224     -8119.5304      4322.4963     -137164.63    
    563800   2541.3901     -7762.8421      4317.8306     -137160.97    
    563900   2590.7695      6443.9433      4309.0578     -137158.34    
    564000   2653.2899      200.55656      4329.3942     -137157.8     
    564100   2478.6732     -4661.9078      4366.0363     -137159.63    
    564200   2434.5155     -5669.4236      4389.5319     -137162.75    
    564300   2409.3538     -723.74855      4373.705      -137159.32    
    564400   2676.4491     -1251.0051      4350.2626     -137158.11    
    564500   2777.1703      4104.9515      4347.4498     -137160.85    
    564600   2597.9499     -3033.8674      4379.427      -137162.33    
    564700   2612.2789     -5537.4503      4413.2429     -137167.53    
    564800   2387.6728     -3974.3664      4411.5241     -137162.05    
    564900   2515.4428      2956.4017      4383.2227     -137158.31    
    565000   2700.3039     -3387.9331      4365.6587     -137158.33    
    565100   2648.1621     -10085.357      4372.6035     -137164.65    
    565200   2313.5338     -8353.1559      4356.2025     -137162.77    
    565300   2440.3276      5709.3341      4293.1582     -137161.29    
    565400   2769.5591      10918.048      4257.9511     -137165.06    
    565500   2430.8345      5544.2008      4288.8366     -137161.11    
    565600   2361.7914      1479.5881      4338.5029     -137164.08    
    565700   2467.3994     -3460.9911      4375.8358     -137165.13    
    565800   2460.8301     -1383.3178      4404.7161     -137161.08    
    565900   2573.949      -9340.7517      4446.698      -137161.39    
    566000   2423.3694     -8738.8106      4468.2065     -137155.55    
    566100   2517.1683     -8115.1953      4438.8917     -137157.97    
    566200   2406.8243      2729.3322      4347.772      -137159.93    
    566300   2428.0086      5294.3183      4253.096      -137163.59    
    566400   2507.5938      4583.011       4186.161      -137164.68    
    566500   2645.6241      14038.157      4175.2493     -137165.4     
    566600   2619.9721     -5812.4955      4254.9257     -137162.56    
    566700   2456.7958     -414.43147      4343.6267     -137161.14    
    566800   2250.7531     -14220.177      4432.4083     -137158.09    
    566900   2492.6075     -2270.4188      4429.5138     -137157.09    
    567000   2782.1306     -4511.702       4393.0963     -137160.22    
    567100   2544.0488      3495.2736      4359.5051     -137157.68    
    567200   2405.8719      11112.846      4328.8778     -137159.35    
    567300   2315.214       1266.9773      4316.7296     -137158.91    
    567400   2446.7153     -1381.689       4296.8215     -137160.63    
    567500   2588.3667      1418.7749      4287.5242     -137160.8     
    567600   2414.9712      10394.64       4300.9957     -137154.84    
    567700   2355.7488      1324.9819      4364.1476     -137159.51    
    567800   2185.5954     -17994.738      4435.8443     -137159.57    
    567900   2392.4056     -9261.0452      4414.9473     -137158.45    
    568000   2630.901       9357.5016      4351.6823     -137160.82    
    568100   2657.9932      2881.4294      4346.6806     -137162.86    
    568200   2253.993       2389.5959      4374.2482     -137157.37    
    568300   2521.4142      1538.4121      4398.7502     -137163.55    
    568400   2661.7251      1525.4766      4444.9336     -137155.88    
    568500   2562.2599      3083.9518      4521.3261     -137151.6     
    568600   2434.343      -12091.285      4579.2212     -137152.14    
    568700   2418.5077     -2985.3481      4525.0869     -137157.44    
    568800   2446.8182     -12978.536      4398.293      -137164.66    
    568900   2384.9322      5699.4698      4240.222      -137166.43    
    569000   2505.8491      16269.996      4166.3624     -137165.84    
    569100   2642.4707      3536.0794      4200.7038     -137162.91    
    569200   2609.2042      1771.7852      4296.7272     -137160.06    
    569300   2339.58       -2530.2346      4412.1327     -137158.71    
    569400   2337.5987     -13393.132      4482.3997     -137163.29    
    569500   2509.2353     -1758.9798      4474.6565     -137157.15    
    569600   2486.2496      4696.6562      4442.7272     -137153.56    
    569700   2644.0144     -7318.4921      4442.7276     -137159.44    
    569800   2410.9707     -8664.7778      4439.6914     -137157.14    
    569900   2325.9585     -696.54812      4394.3089     -137156.26    
    570000   2528.1292      2028.1236      4328.602      -137161.37    
    570100   2627.9094      2255.6375      4288.247      -137164.57    
    570200   2435.0557      2884.1543      4285.0577     -137165.58    
    570300   2276.8787      2738.8922      4303.1944     -137163.29    
    570400   2538.2794     -147.37564      4334.1582     -137161.72    
    570500   2547.1363     -8377.3753      4375.4934     -137159.69    
    570600   2477.0981     -1630.0807      4378.7259     -137159.48    
    570700   2484.1406     -3131.165       4354.4668     -137160.75    
    570800   2581.2517     -4953.8436      4313.1823     -137166.26    
    570900   2384.3385      4154.6547      4272.3425     -137166.2     
    571000   2346.6486     -1604.7569      4258.4583     -137165.65    
    571100   2500.8066      7268.4078      4256.4737     -137161.52    
    571200   2567.9924      6980.7199      4271.7591     -137160.46    
    571300   2511.8244     -1360.9017      4305.6911     -137163.18    
    571400   2395.2974      4396.7682      4347.6095     -137160.96    
    571500   2466.3036     -17765.142      4381.8616     -137160.18    
    571600   2708.3973      5651.4607      4360.5101     -137164.04    
    571700   2516.0079     -3075.4712      4383.961      -137162.48    
    571800   2434.4988     -2972.5005      4407.8003     -137165.63    
    571900   2225.6149     -9109.0543      4421.5609     -137160.51    
    572000   2521.106       3459.0542      4384.3461     -137159.02    
    572100   2496.4057      5357.9968      4354.3076     -137153.58    
    572200   2584.4958      9349.0737      4354.1416     -137157.8     
    572300   2380.1158     -3540.9694      4379.47       -137157.68    
    572400   2436.1329      1554.5983      4386.7094     -137160.24    
    572500   2599.6844     -2569.8819      4381.6123     -137161.36    
    572600   2720.2009      1406.9113      4367.4999     -137158.61    
    572700   2546.9639      14912.488      4380.3574     -137158.77    
    572800   2416.2952     -9205.5032      4452.306      -137163.06    
    572900   2309.963      -762.55305      4477.2475     -137159.05    
    573000   2538.2934     -6077.4794      4468.8345     -137159.57    
    573100   2716.1126     -1308.6886      4422.421      -137161.85    
    573200   2473.3743      2309.8717      4370.8694     -137157.44    
    573300   2708.2339      1241.2261      4332.5681     -137165.16    
    573400   2472.9481      6178.3564      4327.9956     -137159.25    
    573500   2443.8273      976.60544      4349.7433     -137158.9     
    573600   2478.1325     -3154.3979      4381.9417     -137159.13    
    573700   2674.736      -3311.6712      4419.4464     -137157.95    
    573800   2739.4829     -8654.147       4437.7935     -137156.41    
    573900   2637.5036     -13095.238      4421.3315     -137162.49    
    574000   2501.1313      3716.4803      4377.4763     -137162.71    
    574100   2552.1827     -9245.2027      4343.9078     -137164.61    
    574200   2489.8872      12028.327      4302.0637     -137161.3     
    574300   2624.5173      5331.8008      4329.1856     -137158.57    
    574400   2680.7393     -7729.3699      4384.2233     -137155.91    
    574500   2479.6581     -10106.428      4400.2586     -137158.26    
    574600   2370.7794     -3180.5283      4370.8581     -137159.85    
    574700   2552.417      -196.95412      4306.6127     -137162.78    
    574800   2464.8314      16554.055      4262.6789     -137159.06    
    574900   2658.395      -5839.6404      4312.0152     -137163.56    
    575000   2710.0324     -4620.7784      4369.7716     -137159.37    
    575100   2609.0191     -7765.4153      4395.5375     -137161.14    
    575200   2279.6863      473.41363      4356.3019     -137157.9     
    575300   2590.6891      4227.6283      4298.5271     -137164.28    
    575400   2419.4245      7926.7156      4268.5143     -137158.83    
    575500   2445.4578      6181.5353      4262.7062     -137163.27    
    575600   2288.0477     -6718.8524      4267.6561     -137165.76    
    575700   2494.6881     -444.44319      4252.9952     -137168.19    
    575800   2573.0166      12467.001      4253.3891     -137163.33    
    575900   2428.2183      3285.2282      4325.1653     -137159.21    
    576000   2580.9647     -11167.014      4402.2789     -137163.91    
    576100   2455.7874     -8938.9343      4423.4566     -137160.87    
    576200   2590.7592     -5714.8507      4403.9119     -137162.61    
    576300   2674.854      -5728.4058      4384.1        -137161.09    
    576400   2714.9945      6114.1027      4370.6362     -137155.03    
    576500   2791.227       11018.393      4378.5895     -137153.04    
    576600   2564.7876     -8028.6813      4428.3621     -137158.32    
    576700   2414.91       -7704.2686      4436.2891     -137158.61    
    576800   2457.5095     -6795.9142      4399.2517     -137161.8     
    576900   2624.9827     -6397.7854      4333.3745     -137166.62    
    577000   2455.5619      7270.2412      4242.3524     -137163.37    
    577100   2377.1901      7071.7461      4182.0236     -137166.85    
    577200   2243.8361      6539.7263      4167.7036     -137165.09    
    577300   2624.6186      6904.3597      4192.5018     -137166.83    
    577400   2684.8423      2064.7535      4243.7465     -137167.06    
    577500   2418.9683     -3158.0294      4305.2111     -137162.58    
    577600   2356.3795     -2593.8426      4359.362      -137156.86    
    577700   2570.8024     -3528.2838      4372.3701     -137158.07    
    577800   2626.0173      3075.0047      4368.1293     -137161.78    
    577900   2547.5365      3324.8016      4365.3397     -137164.01    
    578000   2467.0177      2966.0271      4360.8647     -137164.26    
    578100   2472.3323     -2094.957       4369.3596     -137161.42    
    578200   2651.2739      6671.6069      4371.271      -137156.72    
    578300   2614.8367     -1535.2982      4368.7622     -137159.12    
    578400   2591.4492     -3385.1348      4364.7807     -137164.42    
    578500   2346.3227     -2165.2273      4381.296      -137160.21    
    578600   2469.4341     -6189.8555      4388.5101     -137161.76    
    578700   2673.491       4172.9181      4387.0378     -137166.36    
    578800   2419.9244     -7447.2391      4419.7282     -137159.6     
    578900   2641.9648     -8739.4058      4411.6394     -137162.49    
    579000   2842.2303      6198.503       4351.4801     -137158.17    
    579100   2755.8538      6730.9283      4324.236      -137158.74    
    579200   2385.895       2721.1269      4367.2216     -137156.44    
    579300   2498.2107     -6421.4339      4417.2486     -137161.11    
    579400   2439.9031     -6808.0467      4415.3711     -137159.4     
    579500   2633.386       7918.3847      4365.5261     -137160.74    
    579600   2487.6739      10175.098      4324.6036     -137158.34    
    579700   2327.2457      2883.2562      4312.8377     -137163.02    
    579800   2296.3939      8094.2481      4316.8197     -137162.49    
    579900   2506.5439     -10821.876      4358.0219     -137162.13    
    580000   2562.3989     -166.33838      4379.1824     -137161.76    
    580100   2387.4423     -2046.0056      4380.8216     -137159.26    
    580200   2444.003       873.48581      4358.1984     -137158.58    
    580300   2718.8532      4890.787       4349.653      -137158.41    
    580400   2727.3573     -3670.9342      4387.7513     -137158.87    
    580500   2433.311      -11402.237      4419.031      -137162.85    
    580600   2495.9539     -12850.701      4395.9832     -137166.08    
    580700   2454.5529     -7715.1944      4327.9966     -137160.4     
    580800   2689.3625      19968.374      4238.2678     -137160.51    
    580900   2525.5592      14081.228      4253.8368     -137159.69    
    581000   2486.8909     -11148.608      4359.6421     -137163.38    
    581100   2227.2845     -1866.3333      4449.9802     -137154.45    
    581200   2387.6241     -7950.8126      4489.702      -137154.5     
    581300   2713.4181     -9329.6195      4478.7434     -137160.86    
    581400   2487.345       1221.3684      4414.0843     -137159.34    
    581500   2306.5605      6119.185       4363.1481     -137157.16    
    581600   2530.8536     -1876.8508      4346.8097     -137161.65    
    581700   2596.1431      7334.9666      4328.4895     -137154.91    
    581800   2768.9974     -1674.0067      4341.7537     -137160.51    
    581900   2387.7665     -242.69667      4364.4422     -137158.56    
    582000   2396.6416     -4298.9852      4366.9842     -137160.11    
    582100   2487.5387      636.16761      4347.8222     -137158.67    
    582200   2713.8133      5414.0015      4332.7852     -137157.01    
    582300   2692.2211      4076.3733      4349.6371     -137154.73    
    582400   2477.1435     -2636.8556      4379.6803     -137160.65    
    582500   2488.4419     -7012.4814      4381.6297     -137162.36    
    582600   2474.5442      6715.512       4348.2662     -137159.36    
    582700   2743.2487     -1535.2151      4343.4754     -137160.73    
    582800   2648.9272     -3056.1058      4350.8884     -137158.73    
    582900   2394.0714      1792.8477      4349.528      -137160.81    
    583000   2391.8753      4762.0046      4354.9924     -137161.9     
    583100   2446.387      -2635.8863      4369.5615     -137161.84    
    583200   2530.8376      496.63484      4368.8213     -137161.19    
    583300   2465.3984      2091.0085      4369.5589     -137158.02    
    583400   2497.794      -5053.3787      4358.1451     -137159.95    
    583500   2500.5851     -517.7954       4303.3676     -137160.2     
    583600   2553.0367      3306.0261      4245.2097     -137162.11    
    583700   2376.3738      8887.9319      4193.5025     -137160.46    
    583800   2490.736       12012.204      4175.2632     -137165.69    
    583900   2204.1045     -249.09173      4235.2877     -137166.32    
    584000   2102.9697     -6211.2027      4292.1021     -137162.64    
    584100   2562.6903     -4204.7071      4301.2053     -137166.31    
    584200   2430.9844     -2054.1556      4333.0357     -137159.04    
    584300   2698.9448     -621.65905      4360.5759     -137162.36    
    584400   2570.281      -186.46216      4373.5922     -137159.62    
    584500   2451.0802     -12314.698      4394.8634     -137162.52    
    584600   2265.3468      5460.9806      4363.2305     -137162.15    
    584700   2505.7714      6277.3302      4348.5879     -137162.94    
    584800   2526.7266     -587.4443       4388.1511     -137154.97    
    584900   2562.148      -2249.4047      4419.0541     -137155.71    
    585000   2602.3373     -5468.0613      4413.1631     -137160.66    
    585100   2405.914      -545.96481      4381.8358     -137159.91    
    585200   2432.7169     -446.24486      4353.9502     -137163.04    
    585300   2285.1077     -4234.6609      4325.5483     -137164.57    
    585400   2435.0428      1729.036       4288.2626     -137167.32    
    585500   2474.2075     -233.19949      4273.7024     -137160.21    
    585600   2695.9249      11165.144      4274.9761     -137162.75    
    585700   2440.5916     -486.50523      4362.4223     -137157.41    
    585800   2223.5621     -5711.9416      4481.1693     -137154.25    
    585900   2173.0637     -19027.976      4532.1794     -137154.83    
    586000   2546.7243     -1112.4209      4462.0357     -137156.97    
    586100   2832.4293     -2429.2206      4359.6021     -137164.46    
    586200   2575.6018     -6729.3471      4283.8639     -137165.53    
    586300   2417.6456     -2342.943       4233.755      -137163.8     
    586400   2559.4195      7804.9657      4214.3335     -137166.45    
    586500   2472.0504      12511.912      4263.9389     -137161.72    
    586600   2541.0788      672.52343      4368.5066     -137159.38    
    586700   2612.687      -9498.9768      4467.8736     -137155.53    
    586800   2704.4842     -8555.928       4508.1717     -137157.17    
    586900   2438.1025     -7601.0523      4497.0142     -137158.76    
    587000   2424.2084     -8682.1134      4439.2378     -137159.99    
    587100   2534.7699      10844.665      4346.3959     -137159.35    
    587200   2573.6979      3102.4166      4312.4649     -137159.94    
    587300   2544.6592      2903.7428      4295.1348     -137160.6     
    587400   2522.5751     -2272.9927      4307.2043     -137160.66    
    587500   2544.4887     -578.1954       4332.1199     -137162.29    
    587600   2416.3514     -7702.4035      4366.7782     -137158.91    
    587700   2481.3428      7530.8782      4361.4099     -137156.52    
    587800   2627.0681     -1751.6914      4361.4194     -137156.16    
    587900   2494.337       2856.2173      4372.6868     -137157.91    
    588000   2414.849      -3752.9778      4378.5066     -137161.43    
    588100   2493.4988      4445.7468      4347.2022     -137163.48    
    588200   2613.0226      13361.379      4327.0019     -137158.62    
    588300   2667.6647      2670.8326      4351.9136     -137154.78    
    588400   2560.0825      285.66965      4374.5477     -137157.41    
    588500   2423.4956     -8117.2244      4393.5507     -137160.44    
    588600   2525.9607     -8635.6521      4401.2773     -137162.07    
    588700   2592.1558      6714.796       4390.6863     -137161.12    
    588800   2546.7863      3153.1527      4407.2862     -137160.29    
    588900   2439.7905     -11303.228      4464.9178     -137159       
    589000   2568.2965     -162.96027      4478.8643     -137159.69    
    589100   2555.189      -8027.336       4436.1124     -137159.81    
    589200   2518.5916      1019.3846      4352.6415     -137163.15    
    589300   2339.329       8155.6591      4286.4977     -137163.03    
    589400   2457.5686     -450.06443      4253.1795     -137165.46    
    589500   2707.707       3731.8543      4236.7139     -137162.44    
    589600   2672.924       2723.6346      4271.5149     -137160.76    
    589700   2454.8312     -6417.6794      4356.3357     -137161.75    
    589800   2401.4988     -3880.2013      4420.9523     -137160.34    
    589900   2382.8085     -6172.325       4432.3864     -137155.39    
    590000   2553.3951     -627.18844      4380.0964     -137157.74    
    590100   2595.8268     -6701.9989      4315.6165     -137160.74    
    590200   2580.7252      6391.2349      4245.3909     -137162.54    
    590300   2414.8029      10057.322      4219.6601     -137160.85    
    590400   2430.9335      3524.4136      4262.0901     -137162.47    
    590500   2600.7726     -7729.5505      4332.2565     -137166.8     
    590600   2459.3302     -1683.6937      4371.0832     -137160.22    
    590700   2642.0555     -2965.8181      4394.7289     -137159.68    
    590800   2565.2398      3905.5087      4409.8586     -137155.98    
    590900   2594.5533      6962.0791      4438.4318     -137158.41    
    591000   2359.4629     -7604.2437      4488.6932     -137158.46    
    591100   2317.5961     -11021.819      4494.8622     -137159.18    
    591200   2447.4051     -283.7888       4435.555      -137156.14    
    591300   2685.7365      28.574301      4375.2328     -137157.58    
    591400   2589.8604     -1976.2032      4327.6519     -137158.47    
    591500   2363.15        17696.187      4274.3779     -137157.56    
    591600   2503.3947      3649.1437      4285.645      -137162.55    
    591700   2447.6725     -474.55449      4322.3474     -137162.01    
    591800   2442.9478     -7156.4108      4360.7447     -137160.47    
    591900   2676.5126      8.3845693      4380.0534     -137156.85    
    592000   2551.8509      8710.8013      4395.976      -137153.33    
    592100   2383.0984     -686.46233      4443.543      -137155.24    
    592200   2382.4668     -6368.0028      4495.6077     -137156.38    
    592300   2495.4399     -2994.7041      4495.0524     -137157.75    
    592400   2740.796      -7322.3576      4468.9909     -137158.79    
    592500   2444.2271      6834.7777      4414.3017     -137153.4     
    592600   2493.9254     -5575.5747      4353.6596     -137162.68    
    592700   2380.7864      14517.225      4261.3459     -137163.33    
    592800   2465.4136      4568.4695      4239.5626     -137164.25    
    592900   2448.2057      4994.4295      4276.9399     -137160.02    
    593000   2547.3059      6618.0037      4362.6386     -137150.89    
    593100   2754.2536     -10771.703      4477.8559     -137153.96    
    593200   2390.2682      774.17501      4531.882      -137151.07    
    593300   2437.073      -8804.4206      4510.5365     -137157.46    
    593400   2466.6275     -2674.0822      4407.6411     -137161.38    
    593500   2469.5787      6784.0192      4283.2331     -137163.99    
    593600   2307.7298      12395.02       4205.4578     -137165.7     
    593700   2262.6799      4818.8558      4178.9688     -137167.17    
    593800   2416.1598      12508.279      4202.1587     -137163.52    
    593900   2469.9735     -981.33004      4305.8182     -137160.12    
    594000   2528.0403     -13625.133      4390.7172     -137159.83    
    594100   2395.8868     -1383.3251      4407.6355     -137157.92    
    594200   2478.1769     -12519.945      4404.1635     -137158.74    
    594300   2714.5506      4998.1325      4337.6175     -137158.18    
    594400   2622.7387      12749.172      4298.489      -137159.5     
    594500   2230.9991      10345.753      4327.3091     -137157.39    
    594600   2385.6702      6218.4878      4379.3875     -137161.49    
    594700   2350.3592      5429.1884      4460.9779     -137154.83    
    594800   2487.8865     -4841.1588      4528.877      -137153.08    
    594900   2546.8955     -11552.557      4532.5582     -137154.6     
    595000   2585.0006     -4100.9584      4480.8216     -137157.41    
    595100   2346.1877      7461.2397      4408.2771     -137157.53    
    595200   2319.9591     -4333.8766      4340.0288     -137163.57    
    595300   2404.4324      9554.5525      4273.5116     -137161.06    
    595400   2683.8934      9416.4527      4270.426      -137165.27    
    595500   2448.8175      5486.2731      4348.1648     -137159.74    
    595600   2397.9433     -476.48764      4449.2785     -137159.43    
    595700   2576.0941     -12219.006      4524.5059     -137156.73    
    595800   2697.798      -1302.125       4516.0135     -137153.69    
    595900   2575.0952     -1743.6031      4497.8828     -137154.64    
    596000   2585.258      -6286.75        4462.9136     -137162.29    
    596100   2514.099      -18.827909      4414.8644     -137163.25    
    596200   2637.9202     -6655.3347      4370.3463     -137167.79    
    596300   2594.9512      1541.585       4319.6764     -137168.12    
    596400   2349.8296      6419.4998      4294.8071     -137162.39    
    596500   2371.408       15612.725      4313.6076     -137160.52    
    596600   2587.4543     -4165.6213      4380.4523     -137161.16    
    596700   2581.4544     -6246.7359      4431.0693     -137156.76    
    596800   2523.3639      740.00425      4438.7939     -137154.75    
    596900   2442.3675     -2044.635       4427.9442     -137157.89    
    597000   2371.4903      1436.3968      4381.4935     -137162.9     
    597100   2359.0176     -1088.5312      4332.8017     -137162.27    
    597200   2823.4636     -4207.091       4308.3019     -137167.05    
    597300   2595.4738      913.13665      4324.824      -137158.13    
    597400   2417.8703      20309.535      4356.7943     -137155.93    
    597500   2293.5236     -10761.999      4435.0139     -137160.83    
    597600   2249.5953     -18054.807      4447.6472     -137165.65    
    597700   2493.6361     -8650.0385      4387.6389     -137165.82    
    597800   2524.7804      6755.5596      4312.6922     -137161.11    
    597900   2619.9026      10593.454      4284.5317     -137160.98    
    598000   2290.6733      9475.9106      4307.1665     -137156.36    
    598100   2296.9495     -6400.2148      4370.4677     -137163.74    
    598200   2337.028      -6344.8702      4410.0796     -137161.38    
    598300   2673.5134     -9015.8355      4408.9041     -137159.84    
    598400   2610.4009     -5291.7695      4364.0035     -137158.76    
    598500   2493.2014      706.17534      4284.6455     -137163.16    
    598600   2256.6856     -503.0439       4215.9464     -137162.56    
    598700   2329.4258      22436.417      4168.9814     -137163.55    
    598800   2516.5629      5694.8626      4229.42       -137163.62    
    598900   2532.2092      5099.4769      4340.2944     -137157.99    
    599000   2502.14       -12015.719      4453.309      -137156.86    
    599100   2582.3939     -8619.3743      4485.1284     -137159.09    
    599200   2581.4581     -7413.2564      4453.8326     -137159.73    
    599300   2461.546       3693.9628      4399.2683     -137160.66    
    599400   2417.8954     -8076.5968      4372.1758     -137164.33    
    599500   2512.5971     -7591.9843      4324.3077     -137169.54    
    599600   2340.0551      7088.424       4257.9198     -137163.01    
    599700   2765.758      -7111.538       4230.1976     -137165.64    
    599800   2749.2397      4366.3749      4218.6703     -137165.67    
    599900   2560.9103      7596.7226      4260.2231     -137168.14    
    600000   2421.4367     -7413.063       4360.6128     -137166.37    
    600100   2446.3132     -17737.727      4428.0384     -137162.62    
    600200   2414.2508      1848.142       4416.4989     -137157.3     
    600300   2589.6025     -1182.7839      4377.6697     -137160.96    
    600400   2471.7918      3774.4913      4317.1556     -137160.5     
    600500   2421.7725      8231.9644      4287.2858     -137160.35    
    600600   2464.1109      129.42617      4321.464      -137161.3     
    600700   2330.0831      12919.412      4368.6544     -137157.42    
    600800   2552.9524     -1970.402       4443.2576     -137161.18    
    600900   2463.5069     -7380.2276      4521.1434     -137157.69    
    601000   2522.4694     -1195.2987      4564.3153     -137152.59    
    601100   2593.3206      2675.2679      4561.6359     -137150.28    
    601200   2615.7501     -7260.6285      4548.0619     -137156.46    
    601300   2457.318      -7870.8306      4490.3958     -137158.61    
    601400   2431.8968      8072.3633      4390.9942     -137157.6     
    601500   2395.7019      8781.7952      4347.2564     -137156.46    
    601600   2628.0909     -6363.6203      4348.9019     -137162.87    
    601700   2460.775      -4060.3158      4337.6211     -137157.39    
    601800   2505.7688      2203.3243      4299.4519     -137155.52    
    601900   2712.0034      3658.6341      4259.0392     -137163.7     
    602000   2291.5547      2582.0837      4262.4007     -137161.89    
    602100   2341.3384      2438.7911      4289.457      -137164.17    
    602200   2511.3159      9345.5274      4331.6917     -137163.81    
    602300   2759.3581     -13035.867      4416.2982     -137164.85    
    602400   2541.2438     -2433.831       4465.9919     -137158.45    
    602500   2514.9222     -6658.2384      4486.7782     -137157.21    
    602600   2551.7279      3195.3385      4479.7985     -137159.83    
    602700   2515.2436     -7929.2241      4475.8495     -137161.6     
    602800   2330.9982     -353.44761      4440.148      -137159.41    
    602900   2449.8576     -8256.1081      4376.6764     -137163.75    
    603000   2669.8243      2648.3736      4285.8618     -137163.53    
    603100   2776.7841      794.13962      4233.18       -137165.01    
    603200   2352.9399      9538.0814      4225.9806     -137161.67    
    603300   2343.4371      1629.6864      4258.9866     -137164.35    
    603400   2258.518       2286.5582      4313.3525     -137158.12    
    603500   2497.518      -1427.8411      4376.804      -137159.36    
    603600   2453.424      -3199.3577      4442.5764     -137155.54    
    603700   2458.2941      2302.0241      4473.802      -137152.21    
    603800   2660.9584     -5813.4599      4486.6955     -137156.02    
    603900   2367.5169     -10840.205      4474.2972     -137157.97    
    604000   2376.123      -5952.3361      4409.9135     -137160.67    
    604100   2624.6317      7084.5396      4332.3526     -137162.15    
    604200   2577.8338      15656.915      4308.7414     -137160.68    
    604300   2433.7015     -5563.5175      4355.1871     -137166.52    
    604400   2237.6483     -3412.036       4375.5468     -137161.56    
    604500   2418.4496     -4287.3558      4348.0825     -137160.32    
    604600   2446.1949      4945.3439      4303.9514     -137157.92    
    604700   2579.3248      565.06015      4287.0132     -137161.69    
    604800   2471.5149      2837.3057      4288.4476     -137162.27    
    604900   2353.8756     -1379.4129      4299.6128     -137165.05    
    605000   2284.2173      2409.9007      4299.0282     -137162.44    
    605100   2600.4794      6443.815       4301.3929     -137160.94    
    605200   2548.493       1578.229       4341.052      -137159.63    
    605300   2481.7775     -3266.0923      4382.0344     -137160.56    
    605400   2343.9014     -987.12401      4397.7166     -137160.55    
    605500   2248.6172     -2517.8437      4390.2353     -137159.88    
    605600   2403.3822      5640.8448      4355.5076     -137156.35    
    605700   2854.6836      1169.032       4346.8523     -137164.65    
    605800   2436.9855      3354.2786      4363.8792     -137160.85    
    605900   2322.7156     -1364.9242      4402.3188     -137159.26    
    606000   2491.007      -4127.9584      4426.5398     -137159.69    
    606100   2599.4665      852.45932      4425.2642     -137159.92    
    606200   2519.7871     -7751.6891      4425.4551     -137159.6     
    606300   2490.1451     -3456.6019      4400.8624     -137158.79    
    606400   2498.0114      6453.4362      4358.4512     -137159.16    
    606500   2527.2096     -5536.5417      4329.3626     -137159.61    
    606600   2469.1334      12907.195      4275.5378     -137159.55    
    606700   2287.7825      3109.7242      4274.5147     -137163.96    
    606800   2265.2724      3979.4055      4296.2916     -137163.65    
    606900   2393.7515      3251.7624      4336.858      -137159.44    
    607000   2460.1151     -4978.5829      4404.3635     -137157.5     
    607100   2371.6689     -9299.3468      4455.1943     -137155.33    
    607200   2365.146      -12454.156      4460.0378     -137157.85    
    607300   2310.6114     -3227.0952      4394.6369     -137155.45    
    607400   2778.0351      9275.0131      4289.7859     -137158.91    
    607500   2733.9072      9741.1992      4243.9714     -137162.35    
    607600   2542.57        1406.8421      4272.4787     -137164.96    
    607700   2295.317       2359.6775      4337.0622     -137160.14    
    607800   2450.1621     -10275.306      4423.5455     -137158.96    
    607900   2582.7968     -8230.9952      4452.507      -137156.2     
    608000   2522.0259      161.60603      4426.1677     -137152.92    
    608100   2487.3278      7704.672       4400.5417     -137153.69    
    608200   2643.8136     -746.94527      4391.6458     -137160.21    
    608300   2495.0653     -446.26154      4368.2156     -137159.33    
    608400   2374.3062      3641.5391      4340.6266     -137159.93    
    608500   2356.6113      38.251257      4318.2775     -137159.82    
    608600   2828.3059      7494.6106      4312.1967     -137159.92    
    608700   2722.1807     -2777.0026      4349.9097     -137160.86    
    608800   2306.1183     -2849.3275      4404.9345     -137156.63    
    608900   2471.5553     -1454.1898      4466.9423     -137161       
    609000   2424.9874     -12532.406      4508.5495     -137155.4     
    609100   2763.1824     -8118.8016      4457.7867     -137156.15    
    609200   2739.4511      3096.519       4377.6005     -137157.22    
    609300   2650.1532      5926.902       4331.7239     -137160.95    
    609400   2415.1907      4408.0181      4321.9303     -137159.33    
    609500   2456.336      -5078.2521      4340.6298     -137163.37    
    609600   2382.2592      3624.9708      4351.7753     -137161.64    
    609700   2763.7694      3622.5991      4373.2527     -137164.96    
    609800   2527.8823      6407.8636      4426.0198     -137155.29    
    609900   2328.7195     -8606.9856      4505.297      -137152.02    
    610000   2313.988      -1773.4114      4537.6423     -137152.52    
    610100   2713.475      -13153.593      4533.1068     -137156.64    
    610200   2611.2848      1660.6831      4482.6465     -137152.96    
    610300   2588.1107     -1060.7216      4421.3816     -137160.28    
    610400   2540.4039      1263.6063      4339.7605     -137162       
    610500   2568.6638      11781.146      4275.5252     -137164.35    
    610600   2391.0162      3178.8109      4287.0899     -137163.23    
    610700   2349.6305      4211.3689      4320.395      -137163.8     
    610800   2534.5807      5954.903       4353.2501     -137163.2     
    610900   2603.6797     -4880.8963      4410.394      -137159.25    
    611000   2481.7475     -3741.8143      4459.8775     -137157.11    
    611100   2350.1592     -13005.29       4484.9851     -137158.79    
    611200   2272.408      -10601.594      4426.6758     -137157.36    
    611300   2591.8023      11252.553      4280.4192     -137155.8     
    611400   2667.3473      22893.571      4182.9539     -137158.08    
    611500   2647.3333      12146.088      4198.1413     -137167.32    
    611600   2346.6033     -8092.1531      4296.2474     -137163.63    
    611700   2474.7215      2513.9188      4356.96       -137163.68    
    611800   2597.1312     -3722.7565      4397.3155     -137159.89    
    611900   2722.4107     -15893.689      4409.6216     -137161.88    
    612000   2412.5311      5454.3318      4368.2791     -137157.57    
    612100   2447.803       2938.9908      4348.7927     -137159.74    
    612200   2416.0092      3679.3231      4340.0902     -137158.09    
    612300   2546.8838      1712.5452      4342.5559     -137157.89    
    612400   2559.2073      4031.6293      4354.4802     -137155.26    
    612500   2523.8289      3072.5538      4349.971      -137158.97    
    612600   2340.1057     -2019.1764      4336.1993     -137161.65    
    612700   2426.3344     -573.2562       4317.4739     -137164.98    
    612800   2690.649      -686.19363      4304.6559     -137169.95    
    612900   2613.5409     -3294.5671      4296.4899     -137165.11    
    613000   2522.7613      928.90791      4313.3725     -137162.99    
    613100   2456.2298     -2030.7483      4368.0484     -137160.3     
    613200   2722.7042     -14367.604      4421.8102     -137161.03    
    613300   2607.6924      911.34264      4408.0553     -137157.84    
    613400   2382.5202     -1607.0119      4379.5259     -137160.87    
    613500   2296.8286     -5961.4285      4313.5027     -137161.88    
    613600   2481.1684      16106.3        4210.1026     -137163.53    
    613700   2624.5079      11984.147      4176.3215     -137165.05    
    613800   2492.5641      2699.6169      4230.7762     -137162.79    
    613900   2218.6055     -5447.3412      4314.4653     -137161.9     
    614000   2467.3381     -11255.979      4374.2914     -137167.4     
    614100   2582.4046      5423.2891      4382.4507     -137161.78    
    614200   2596.4258     -5002.2107      4401.4539     -137161.3     
    614300   2403.568      -4051.3198      4408.7192     -137158.51    
    614400   2528.9903     -170.73747      4382.4685     -137162.39    
    614500   2415.9921      8540.4994      4344.0831     -137159.79    
    614600   2476.7916     -2938.434       4324.5157     -137164.03    
    614700   2575.2571     -331.67941      4301.1823     -137168.42    
    614800   2407.3957      11494.368      4293.2933     -137164.94    
    614900   2534.3085     -1776.6789      4346.8639     -137165.28    
    615000   2566.38       -7835.5202      4416.7046     -137157.95    
    615100   2532.0095     -9326.2797      4445.242      -137156.03    
    615200   2444.9564      934.2886       4401.5831     -137158.55    
    615300   2327.6654     -984.7504       4330.7049     -137160.57    
    615400   2246.0341      4565.585       4250.5976     -137166.07    
    615500   2441.031       1253.1956      4179.6796     -137170.11    
    615600   2465.301       21227.42       4149.0114     -137162.24    
    615700   2562.4451      5258.7804      4241.7473     -137163.78    
    615800   2398.0636     -7460.2946      4386.6504     -137159.2     
    615900   2453.5281     -15475.348      4469.8773     -137157.62    
    616000   2475.0017     -9938.1527      4446.8953     -137155.63    
    616100   2696.2472     -5093.2631      4344.3986     -137161.76    
    616200   2679.5361      11451.058      4268.1759     -137163.75    
    616300   2412.8847     -5540.6536      4285.9402     -137159.89    
    616400   2515.1065     -3616.9985      4286.339      -137165.4     
    616500   2418.7798     -3989.9638      4301.005      -137161.42    
    616600   2947.9942     -230.08784      4309.4527     -137165.84    
    616700   2626.4472      7275.3526      4349.2466     -137159.91    
    616800   2404.826      -15497.026      4427.3747     -137159.04    
    616900   2472.4112     -1858.6808      4420.4317     -137158.71    
    617000   2414.7523      8306.1248      4376.1612     -137157.58    
    617100   2657.9749     -5251.9405      4364.4377     -137163.73    
    617200   2544.7549     -4909.6501      4347.0235     -137162.19    
    617300   2388.5442      169.1875       4322.4959     -137165.72    
    617400   2357.2023      1880.1488      4304.8906     -137166.24    
    617500   2461.4044     -4259.7522      4274.7988     -137163.85    
    617600   2674.0639      10213.578      4244.5021     -137162.01    
    617700   2643.2604     -2501.0914      4287.9564     -137162.6     
    617800   2539.6542      592.62507      4348.3632     -137161.67    
    617900   2319.4133     -956.28984      4391.966      -137157.76    
    618000   2722.5471     -4088.7136      4401.376      -137162.68    
    618100   2785.4091      5834.1179      4409.3787     -137157.47    
    618200   2304.8584      1782.8758      4457.9525     -137151.45    
    618300   2559.7408     -4104.4743      4496.279      -137160.45    
    618400   2419.4206     -10780.313      4508.3636     -137155.82    
    618500   2783.0128      10886.16       4477.9715     -137157.38    
    618600   2579.6467     -8971.8722      4465.0956     -137152.13    
    618700   2443.4396      2400.2978      4392.3777     -137161       
    618800   2404.57        6341.0554      4317.4698     -137162.53    
    618900   2500.5754      7623.356       4289.937      -137165.24    
    619000   2498.8701     -2711.5356      4346.7273     -137160.92    
    619100   2572.6241      173.57688      4428.4057     -137155.45    
    619200   2604.6286     -9374.2536      4504.2237     -137153.64    
    619300   2496.8661     -1598.4351      4513.1261     -137159.67    
    619400   2296.5527     -1516.4203      4484.5147     -137158.71    
    619500   2575.7658     -2850.6885      4424.8661     -137160.81    
    619600   2645.2109      8071.9478      4352.3554     -137160.89    
    619700   2489.6042      6148.7119      4333.2665     -137163.63    
    619800   2290.153       1472.4641      4356.9506     -137161.3     
    619900   2401.3051     -1739.003       4375.0421     -137160.45    
    620000   2571.1311      2108.1557      4383.2831     -137161.76    
    620100   2450.266      -9035.1204      4412.5552     -137157.51    
    620200   2473.0391      3915.4891      4419.1331     -137156.34    
    620300   2705.6503     -5306.1539      4426.4297     -137160.62    
    620400   2523.9141     -1706.5115      4423.3337     -137158.11    
    620500   2497.7416      152.56316      4400.1838     -137163.28    
    620600   2220.4276     -2798.8856      4364.5939     -137159.71    
    620700   2491.8869      9421.8268      4304.3901     -137160.84    
    620800   2649.3823      945.82355      4284.8844     -137159.89    
    620900   2549.692      -269.85625      4292.3937     -137159.97    
    621000   2628.6002     -2427.2655      4305.4579     -137165.11    
    621100   2495.8787     -2251.0143      4346.9658     -137165.37    
    621200   2379.2916     -1672.7632      4404.7745     -137162.7     
    621300   2677.8576     -8878.472       4452.4147     -137159.02    
    621400   2690.0898     -5182.8806      4456.0417     -137159.79    
    621500   2344.0688     -8318.7175      4455.26       -137156.11    
    621600   2454.9613     -7964.0638      4417.8774     -137159.44    
    621700   2660.8049      3716.5378      4330.7582     -137158.37    
    621800   2881.1228      16712.852      4265.1503     -137158.19    
    621900   2469.1664      124.61575      4299.1334     -137160.91    
    622000   2442.8389     -12773.126      4380.3757     -137160.61    
    622100   2648.9748     -11406.265      4411.1259     -137161.9     
    622200   2431.3427      12606.851      4396.8473     -137152.3     
    622300   2481.0697     -1827.8514      4430.32       -137153.27    
    622400   2474.3706     -11379.297      4460.2974     -137158.41    
    622500   2410.316      -3384.9807      4417.5384     -137164.19    
    622600   2379.1826     -183.46258      4350.3286     -137162.24    
    622700   2623.4026      10364.308      4291.7844     -137161.68    
    622800   2707.0549      7236.6952      4300.0716     -137163.97    
    622900   2374.4633     -7371.4064      4361.7628     -137157.71    
    623000   2448.6535      5905.5829      4380.1793     -137158.6     
    623100   2605.6905      7928.3422      4417.5527     -137156.07    
    623200   2787.4244     -9514.8654      4484.7371     -137156.31    
    623300   2306.2145     -5781.7638      4497.5523     -137153.49    
    623400   2518.1258     -9803.0571      4456.4389     -137163.21    
    623500   2602.2835     -3055.183       4382.7834     -137163.31    
    623600   2662.2349     -1348.0811      4310.8743     -137162.34    
    623700   2487.1242      11690.31       4266.5914     -137159.13    
    623800   2438.9706      4718.8163      4283.1715     -137166.16    
    623900   2209.4808     -4738.4595      4333.8399     -137161.72    
    624000   2599.9601     -8118.0801      4365.0525     -137164.76    
    624100   2592.8099      5207.9389      4357.095      -137161.05    
    624200   2459.2346      6781.3211      4368.8007     -137159.57    
    624300   2463.3888      1399.0398      4426.6114     -137161.09    
    624400   2536.9098     -8454.5074      4484.2428     -137159.09    
    624500   2618.9741      2751.8525      4486.1161     -137152.66    
    624600   2563.2036     -8810.545       4474.0856     -137152.86    
    624700   2393.0866      909.29381      4427.4523     -137154.48    
    624800   2328.0926      1350.4562      4357.1913     -137159.32    
    624900   2520.7216      6766.0286      4294.035      -137163.68    
    625000   2698.9308      4831.7547      4261.9308     -137163.9     
    625100   2430.9661      9812.2101      4261.8008     -137158.85    
    625200   2516.2555     -7445.981       4311.3793     -137166.31    
    625300   2308.0086     -3044.1322      4354.6776     -137161.58    
    625400   2642.614      -1401.4175      4361.4744     -137162.09    
    625500   2633.7613      842.20789      4368.9066     -137160.34    
    625600   2469.1232     -5601.4373      4419.4155     -137158.72    
    625700   2344.3297      1360.1498      4429.9487     -137157.35    
    625800   2411.0606     -7044.7891      4420.0143     -137156.43    
    625900   2546.1134      4085.9719      4392.8848     -137158.42    
    626000   2498.2596     -4527.1572      4388.338      -137159.33    
    626100   2375.0202      4160.8458      4361.8742     -137159.44    
    626200   2369.7435     -4052.2253      4332.8576     -137162.75    
    626300   2518.0272      11120.252      4321.9954     -137165.04    
    626400   2576.3232      3057.4409      4360.2022     -137159.79    
    626500   2631.4554      650.85739      4400.1574     -137157.48    
    626600   2460.0239     -2123.4675      4426.1131     -137157.86    
    626700   2311.3904     -3955.5939      4445.4457     -137158.81    
    626800   2471.4488      1703.2071      4426.8027     -137159.65    
    626900   2883.8551     -2690.868       4387.131      -137159.8     
    627000   2671.9936     -1458.1658      4349.4077     -137159.95    
    627100   2460.424       904.22822      4310.6435     -137160.82    
    627200   2500.9374      2531.6251      4290.5394     -137162.48    
    627300   2693.8097     -2844.4944      4309.9506     -137165.7     
    627400   2672.3566      3655.5941      4361.5917     -137160.06    
    627500   2624.0027      7157.3439      4444.9361     -137157.49    
    627600   2223.423      -9659.9955      4523.9133     -137154.23    
    627700   2515.1805     -9646.5466      4518.506      -137159.41    
    627800   2595.3659      4327.2462      4446.592      -137157.45    
    627900   2527.5188     -2057.5686      4373.6814     -137157.25    
    628000   2564.7017     -4391.5268      4302.8684     -137159.97    
    628100   2487.9747      14452.983      4228.7522     -137162.76    
    628200   2413.0598      8176.2717      4217.1504     -137162.8     
    628300   2352.9984      9038.0166      4235.1539     -137163.34    
    628400   2344.159       58.238098      4287.9723     -137162.74    
    628500   2590.5334     -7748.4063      4355.1309     -137159.23    
    628600   2584.7212      1134.4281      4391.3633     -137155.42    
    628700   2468.0855     -403.29332      4410.9787     -137158.04    
    628800   2454.6438     -8940.0953      4414.7413     -137161.43    
    628900   2476.5462      3000.6332      4359.9666     -137159.38    
    629000   2814.3282      4491.0021      4295.9027     -137161.67    
    629100   2839.2471      8210.2719      4286.8855     -137160.97    
    629200   2417.4175      2525.1785      4358.9835     -137161.31    
    629300   2314.6233      6714.2802      4432.3291     -137161.27    
    629400   2226.2186     -2366.5609      4481.4801     -137156.81    
    629500   2447.2172     -2967.5304      4471.1974     -137155.5     
    629600   2568.6695      5152.9318      4417.1399     -137154.34    
    629700   2509.8725      6046.7944      4362.2016     -137155.85    
    629800   2499.9488      7187.604       4332.3851     -137157.94    
    629900   2541.965      -358.44559      4324.9755     -137161.21    
    630000   2477.9637      2450.0878      4324.9402     -137161.27    
    630100   2411.0616      2832.5149      4337.4382     -137161.89    
    630200   2287.5043      8736.3463      4353.5936     -137160.3     
    630300   2548.8887     -5330.448       4375.0433     -137161.42    
    630400   2773.5128      4041.0736      4385.1518     -137161.2     
    630500   2546.4618     -6272.8479      4428.5601     -137155.51    
    630600   2372.7416     -4133.8417      4443.0965     -137156.42    
    630700   2200.8367     -2713.6785      4433.5378     -137156.5     
    630800   2505.1226      4733.4712      4395.0526     -137161.37    
    630900   2775.4647      4821.3447      4377.7765     -137160.99    
    631000   2525.9773     -3219.4726      4405.2336     -137158.26    
    631100   2228.2231      2349.4469      4426.8578     -137156.77    
    631200   2490.9573     -10824.26       4453.3101     -137162.32    
    631300   2509.0055      597.42456      4438.1698     -137159.4     
    631400   2648.1686      3278.268       4414.672      -137161.31    
    631500   2414.7795     -6794.6374      4386.6482     -137158.66    
    631600   2456.1832      3187.8074      4328.3299     -137162.08    
    631700   2488.8737      3675.2335      4283.2978     -137162.21    
    631800   2479.3751      7268.1891      4261.0715     -137161.45    
    631900   2386.8868     -1985.8527      4291.2647     -137160.07    
    632000   2436.4929     -7373.0312      4330.0578     -137160.95    
    632100   2642.9063      1966.4132      4354.0186     -137159.16    
    632200   2568.1088      5701.4512      4383.4134     -137155.64    
    632300   2516.2643      1383.307       4425.7566     -137162.24    
    632400   2432.5692     -7774.8679      4474.4308     -137162.67    
    632500   2439.9371     -12676.024      4469.1974     -137158.25    
    632600   2580.3151      7535.5146      4386.3518     -137159.83    
    632700   2556.7473     -4092.7715      4328.6923     -137160.11    
    632800   2519.0048      5706.4205      4291.4032     -137164.48    
    632900   2239.4093      1765.1733      4270.6366     -137163.93    
    633000   2430.6973      7970.5371      4264.9666     -137166.36    
    633100   2299.9264      12722.108      4338.6447     -137160.25    
    633200   2270.1834     -9115.1323      4465.8008     -137155.92    
    633300   2498.3482     -13404.628      4543.3428     -137155.6     
    633400   2515.5318     -5681.9521      4557.5245     -137152.65    
    633500   2592.4166     -11567.735      4510.572      -137155.23    
    633600   2595.9591      2568.3536      4421.9024     -137161.26    
    633700   2250.3866      2170.372       4348.0013     -137159.48    
    633800   2448.492       7706.5491      4290.4585     -137162.62    
    633900   2623.3913      6851.2811      4284.6732     -137163.26    
    634000   2519.7603     -2147.2995      4321.4245     -137161.62    
    634100   2116.3        -2622.3395      4345.9845     -137160.7     
    634200   2242.5771     -1547.8301      4334.8233     -137162.12    
    634300   2381.5513      11365.844      4294.4991     -137159.86    
    634400   2529.2717      701.63549      4282.0583     -137160.29    
    634500   2671.7066     -567.84594      4303.088      -137163.17    
    634600   2460.5038      2074.3743      4345.8585     -137163.31    
    634700   2220.004      -8290.7143      4384.1603     -137161.36    
    634800   2402.4302      1001.6302      4359.1323     -137159.18    
    634900   2613.5785      4323.2676      4322.6602     -137160.27    
    635000   2508.4592      4999.7353      4322.631      -137158.01    
    635100   2462.8024      8598.9587      4352.2211     -137158.87    
    635200   2378.0571     -2355.4737      4395.7076     -137162.73    
    635300   2226.9981     -4584.9409      4420.5747     -137159.28    
    635400   2528.1248      5449.1656      4431.4929     -137156.68    
    635500   2555.4532      1483.1437      4455.9743     -137156.75    
    635600   2492.5111     -12112.891      4474.8043     -137157.37    
    635700   2520.6159     -10361.248      4421.2574     -137162.48    
    635800   2341.2632      3668.5382      4298.4612     -137163.78    
    635900   2369.3622      16049.472      4167.9284     -137169.02    
    636000   2274.0725      19264.227      4118.9375     -137169.29    
    636100   2453.2737     -7164.626       4195.8198     -137167.78    
    636200   2484.7593      1076.3606      4293.5613     -137160.02    
    636300   2510.4804     -4414.0391      4388.5446     -137157.12    
    636400   2581.2446     -1084.6811      4469.6098     -137156.75    
    636500   2646.8831     -14591.107      4532.2293     -137157.2     
    636600   2517.3006      60.002104      4544.0081     -137153.96    
    636700   2326.6607     -1753.8288      4532.786      -137154.71    
    636800   2404.8165     -4577.6766      4487.2664     -137160.09    
    636900   2562.7971      4851.9042      4398.3717     -137159.8     
    637000   2799.5374      8973.8748      4320.1602     -137159.73    
    637100   2759.8747     -791.53439      4318.2933     -137166.9     
    637200   2398.4788     -10476.231      4348.6313     -137161.05    
    637300   2559.1147     -5612.0323      4351.3523     -137159.76    
    637400   2622.689      -615.88924      4341.4162     -137158.44    
    637500   2466.3051     -7641.4889      4339.7273     -137157.11    
    637600   2350.0857      5269.7268      4301.1564     -137160.58    
    637700   2278.9474     -50.291032      4275.2634     -137163.67    
    637800   2359.7751      8368.0459      4250.8254     -137162.69    
    637900   2566.9756      11544.337      4265.1978     -137158.01    
    638000   2648.4532      4677.863       4329.2608     -137160.73    
    638100   2397.0443     -8835.7352      4418.6706     -137159.78    
    638200   2237.9719     -4168.0912      4449.8226     -137154.79    
    638300   2722.706      -10023.491      4422.6436     -137158.7     
    638400   2556.8775      13472.943      4370.4371     -137156.77    
    638500   2371.524       1013.5221      4386.1654     -137157.61    
    638600   2299.1859      1872.3332      4411.1834     -137156.72    
    638700   2604.3796     -4064.2991      4425.3927     -137159.37    
    638800   2810.8719     -4285.8483      4446.6505     -137158.28    
    638900   2672.1955     -9353.7461      4488.3777     -137154.48    
    639000   2408.5697     -17598.975      4480.2687     -137158.16    
    639100   2441.489       4927.6471      4366.5512     -137161.12    
    639200   2648.7953      10310.878      4272.2663     -137166.9     
    639300   2478.5498      1799.0291      4273.572      -137165.02    
    639400   2351.2179     -12177.491      4303.9278     -137165.75    
    639500   2359.6223      3202.0445      4314.8977     -137163.68    
    639600   2472.1959      2204.9478      4344.7504     -137157.66    
    639700   2523.3367     -1496.088       4371.8061     -137158.63    
    639800   2331.0188      1864.8259      4374.7528     -137156.04    
    639900   2414.3022     -2885.318       4333.8246     -137161.73    
    640000   2446.0401      9205.6847      4285.1557     -137164.91    
    640100   2593.5774     -7750.4497      4298.52       -137167.14    
    640200   2663.9185     -2196.044       4317.4518     -137162.45    
    640300   2509.6338      9280.0222      4350.3657     -137157.7     
    640400   2229.5655     -7727.042       4416.1335     -137156.52    
    640500   2203.361       1081.2445      4422.1681     -137159.89    
    640600   2698.4945      5701.829       4413.1848     -137163.82    
    640700   2542.6788      3083.5756      4413.2999     -137156.11    
    640800   2603.8983     -7246.5201      4405.2907     -137160.71    
    640900   2252.9178      3440.1719      4387.0616     -137157.62    
    641000   2520.0736     -5432.8642      4385.0678     -137164.16    
    641100   2438.707       3593.2248      4373.9433     -137160.56    
    641200   2635.967      -2567.8673      4372.3805     -137159.15    
    641300   2801.0911      10651.351      4379.803      -137161.19    
    641400   2449.8076     -12518.954      4452.6177     -137159.55    
    641500   2499.3396     -13417.695      4478.1838     -137162.03    
    641600   2419.3026     -756.4073       4422.6603     -137157.43    
    641700   2826.7276      10659.027      4349.9854     -137159.48    
    641800   2674.1614      4696.875       4325.2377     -137159.13    
    641900   2389.1372      1560.132       4322.7263     -137161.48    
    642000   2479.2939      4697.9833      4322.1229     -137163.92    
    642100   2524.9646     -3152.0258      4348.6522     -137162.65    
    642200   2617.2812     -3114.8272      4358.4951     -137160.95    
    642300   2445.1673      5035.5511      4336.3506     -137156.34    
    642400   2416.2021      4077.8782      4317.6199     -137161.91    
    642500   2311.0137      1462.9188      4339.1621     -137164.58    
    642600   2389.777      -4037.5784      4402.7438     -137161.91    
    642700   2666.8813     -8151.2059      4453.2984     -137162.14    
    642800   2526.7266      410.7167       4467.7174     -137158.38    
    642900   2390.7365     -3466.6893      4444.9931     -137157.69    
    643000   2342.9703     -1897.4796      4376.8069     -137159.4     
    643100   2471.8542      7858.4501      4299.588      -137165.68    
    643200   2220.0435     -4171.729       4267.7948     -137162.75    
    643300   2564.5554      7041.1267      4225.0576     -137165.75    
    643400   2741.0669      3121.7195      4240.6164     -137165.69    
    643500   2577.2547     -9949.366       4322.4176     -137164.47    
    643600   2257.7319     -167.6806       4394.0064     -137157.33    
    643700   2574.4508     -6418.4835      4436.3319     -137159.15    
    643800   2565.649      -4485.6327      4412.7995     -137156.77    
    643900   2490.0733      10888.745      4364.1286     -137158.28    
    644000   2550.1189     -6262.3269      4331.8968     -137164.7     
    644100   2556.7502      4034.6653      4270.5015     -137166.27    
    644200   2317.5202      2199.8888      4218.2354     -137161.75    
    644300   2510.4355      17744.498      4186.5649     -137163.29    
    644400   2613.0518      2216.7505      4235.6993     -137159.82    
    644500   2525.8926     -1056.1452      4309.4978     -137160.48    
    644600   2428.9166     -19206.997      4374.0433     -137164.35    
    644700   2341.8243     -6811.1159      4338.8881     -137163.88    
    644800   2702.9568      18984.207      4270.3872     -137161.26    
    644900   2692.1885      6661.827       4312.2354     -137160.54    
    645000   2477.6745     -14743.383      4408.1267     -137160.98    
    645100   2358.6179     -4551.8005      4446.8344     -137159.72    
    645200   2450.3898     -16171.23       4449.9926     -137156.76    
    645300   2833.7006      6261.5274      4386.5646     -137159.05    
    645400   2550.6069      3914.4233      4328.5786     -137155.49    
    645500   2598.6454      2075.1132      4296.8623     -137162.05    
    645600   2537.8692     -3244.4572      4299.2468     -137165.5     
    645700   2438.6461     -7140.4316      4314.8502     -137164.36    
    645800   2458.3288     -4317.9501      4318.2943     -137160.98    
    645900   2685.9429      10153.599      4321.6706     -137156.36    
    646000   2513.6945     -3266.4473      4360.7954     -137155.16    
    646100   2541.0534      1567.457       4374.5109     -137160.23    
    646200   2339.5632      4058.7847      4390.0897     -137156.83    
    646300   2574.1193     -3053.4537      4392.6169     -137161.77    
    646400   2772.1404      210.63664      4369.5292     -137159.69    
    646500   2941.5195      665.78226      4363.9608     -137159       
    646600   2562.9842     -3302.9656      4397.2848     -137159.31    
    646700   2404.9782      5150.6902      4437.832      -137159.58    
    646800   2276.5449     -12008.618      4482.312      -137155.93    
    646900   2375.7863      5726.9006      4463.4019     -137150.2     
    647000   2548.3557      3108.4656      4425.1038     -137152.51    
    647100   2508.98        4561.228       4381.0878     -137155.71    
    647200   2552.3389     -6494.282       4350.4663     -137162.12    
    647300   2516.813      -331.56728      4303.7982     -137163.34    
    647400   2502.0899      11789.632      4277.4077     -137162.38    
    647500   2459.1805     -4565.6688      4299.8803     -137161.79    
    647600   2480.1272      245.86348      4306.8991     -137161.66    
    647700   2493.997       400.48221      4315.0517     -137158.01    
    647800   2703.4025      11293.069      4334.7822     -137154.89    
    647900   2585.7868     -2144.8381      4386.77       -137156.09    
    648000   2525.2385     -5087.2607      4418.4601     -137162.86    
    648100   2538.2819     -1906.3187      4388.4426     -137164.14    
    648200   2575.727       675.71907      4312.9578     -137163.75    
    648300   2569.657       14828.458      4257.6061     -137163.18    
    648400   2447.2837      664.40989      4299.0208     -137165.44    
    648500   2247.622      -3073.731       4358.7546     -137162.95    
    648600   2467.6716     -3121.1204      4373.2972     -137160.91    
    648700   2440.7542     -1942.6002      4356.0751     -137153.89    
    648800   2628.5203     -1795.6131      4329.7566     -137160.95    
    648900   2342.6593      2352.3168      4296.6489     -137161.93    
    649000   2402.7983      3381.3296      4270.9086     -137165.03    
    649100   2622.5637     -5062.7237      4268.2065     -137166.68    
    649200   2588.8265      9820.6078      4271.3127     -137161.84    
    649300   2560.51        3000.7622      4362.4738     -137160.81    
    649400   2355.1102     -12581.552      4480.739      -137156.9     
    649500   2424.7598     -11148.275      4528.0517     -137157.8     
    649600   2585.6231     -10614.018      4517.4875     -137155.08    
    649700   2702.4762      2162.9249      4442.701      -137156.9     
    649800   2512.1534      4971.6061      4370.4138     -137160.3     
    649900   2357.1683      4795.1432      4325.0482     -137160.36    
    650000   2460.6374      3147.2604      4294.2299     -137161.63    
    650100   2773.9142      6495.6652      4279.6453     -137165.15    
    650200   2806.7359      3864.5723      4335.3809     -137161.22    
    650300   2702.2043     -2093.7764      4463.4312     -137156.2     
    650400   2373.1713     -21575.024      4581.9836     -137155.95    
    650500   2386.1991     -10731.124      4599.468      -137156.04    
    650600   2665.1294     -8540.0475      4532.4073     -137158.72    
    650700   2657.2234      4838.057       4416.166      -137158.91    
    650800   2629.9738     -4626.2377      4324.8488     -137165       
    650900   2330.9285      26929.886      4264.6395     -137159.03    
    651000   2532.4826     -3516.9913      4323.7591     -137163.04    
    651100   2546.9932     -1647.2575      4392.7715     -137159.78    
    651200   2456.6294     -1914.0724      4449.6116     -137150.67    
    651300   2732.5004     -17121.881      4455.7901     -137153.86    
    651400   2480.0946      11684.96       4392.722      -137151.77    
    651500   2690.2063     -9557.0845      4357.4374     -137160.87    
    651600   2567.8094      5236.3305      4324.1619     -137162.45    
    651700   2397.689      -6583.4003      4347.5457     -137161.2     
    651800   2522.3256      617.31794      4356.7827     -137161.52    
    651900   2572.6551      5310.8351      4374.1287     -137154.23    
    652000   2769.4821     -5307.5856      4424.72       -137159.95    
    652100   2580.8297     -12295.554      4470.6518     -137158.81    
    652200   2501.5419     -216.96538      4457.3122     -137157.33    
    652300   2430.4407      10243.106      4418.0457     -137155.82    
    652400   2504.3897     -2422.6179      4396.2024     -137159.55    
    652500   2420.7161     -3800.4707      4364.0971     -137162.88    
    652600   2258.2069      7914.2774      4326.2516     -137162.98    
    652700   2428.5351      1644.9157      4309.5594     -137162.58    
    652800   2716.9318      7907.9185      4298.4131     -137163.7     
    652900   2443.6551      8941.6971      4339.9288     -137158.1     
    653000   2614.8063     -4664.293       4416.5275     -137166.08    
    653100   2265.2484     -5949.5683      4478.1342     -137159.29    
    653200   2542.9434     -10965.94       4496.421      -137155.88    
    653300   2532.0859      6108.7669      4447.0812     -137153.03    
    653400   2467.575       3442.47        4407.3658     -137157.01    
    653500   2395.1074      1425.0187      4377.1402     -137159.3     
    653600   2539.674       8203.5805      4355.8518     -137163.81    
    653700   2341.8209     -3496.1885      4386.8036     -137164.11    
    653800   2206.5734     -13590.887      4407.4814     -137164.25    
    653900   2423.2689      668.39898      4354.8312     -137161.92    
    654000   2628.0955      5459.2901      4270.0415     -137163.39    
    654100   2538.9825      18009.479      4219.0758     -137162.68    
    654200   2364.7376     -285.38963      4267.4127     -137163.9     
    654300   2319.2397     -6561.7644      4325.1618     -137163.01    
    654400   2645.9149      2443.026       4347.5164     -137160.19    
    654500   2698.2949      405.8977       4376.4065     -137161.48    
    654600   2396.9838     -2664.8789      4404.6394     -137158.76    
    654700   2330.7299      554.35795      4390.8342     -137158.86    
    654800   2532.7269      7653.3309      4346.0796     -137159.09    
    654900   2931.2091      1100.6537      4332.6064     -137160.44    
    655000   2625.7327      6104.8868      4347.2988     -137158.47    
    655100   2463.6883      1714.2014      4374.9457     -137159.48    
    655200   2411.698       207.10061      4413.9435     -137160.5     
    655300   2392.1247     -5196.7302      4471.6216     -137157.52    
    655400   2556.093       6254.2858      4483.8112     -137152.71    
    655500   2657.5022     -2351.7299      4484.9074     -137152.92    
    655600   2354.6567      6459.7356      4443.7871     -137149.1     
    655700   2524.3111      819.58455      4392.2933     -137155.28    
    655800   2542.207       3071.191       4335.5883     -137160.11    
    655900   2487.5197      5311.3742      4297.236      -137166.86    
    656000   2336.2935      1785.819       4289.9342     -137162.47    
    656100   2429.8115      11748.68       4291.6372     -137160.59    
    656200   2550.9541      12258.11       4342.5575     -137158.3     
    656300   2616.0215     -4567.2693      4451.3421     -137158.77    
    656400   2344.3029     -6952.841       4536.616      -137155.7     
    656500   2203.2943     -16499.121      4550.89       -137157.79    
    656600   2381.4468     -1845.3457      4451.4104     -137156.88    
    656700   2628.0769      16653.977      4324.2581     -137157.18    
    656800   2726.0875      12596.544      4299.3286     -137165.49    
    656900   2391.85       -6799.5627      4357.5272     -137162.24    
    657000   2388.7056      2530.7324      4392.6305     -137160.38    
    657100   2709.2979     -4415.8071      4417.3211     -137162.09    
    657200   2587.2023      4191.6622      4405.3738     -137159.39    
    657300   2403.469      -3735.5613      4405.4897     -137158.07    
    657400   2425.9647     -56.886205      4411.9485     -137158.86    
    657500   2539.2874     -5006.2574      4408.6794     -137158       
    657600   2880.9345      8302.4756      4391.4745     -137155.67    
    657700   2886.968       1805.4454      4436.7578     -137156.27    
    657800   2579.8802     -16832.809      4507.0171     -137156.57    
    657900   2567.5247     -6961.8119      4500.8767     -137158.77    
    658000   2515.6401      1388.6415      4441.2478     -137155.9     
    658100   2694.1674      4684.4424      4354.193      -137161.68    
    658200   2395.0035     -1516.7831      4289.2172     -137162.48    
    658300   2481.9225     -1496.6207      4234.068      -137166.23    
    658400   2588.3671      8455.5754      4211.038      -137166.97    
    658500   2543.3965      3216.9568      4243.426      -137164.98    
    658600   2340.6769     -607.12012      4289.6543     -137160.43    
    658700   2529.7576     -2362.6584      4327.4563     -137162.8     
    658800   2592.479       13968.07       4370.0064     -137160.24    
    658900   2508.6676     -6003.7046      4446.6851     -137158.83    
    659000   2355.4174     -14839.146      4474.4212     -137156.8     
    659100   2679.725      -5103.3324      4415.6155     -137161.27    
    659200   2696.1957      5017.9304      4347.5272     -137156.94    
    659300   2635.7099      2002.7819      4344.7338     -137159.96    
    659400   2294.4088      1946.5494      4366.3724     -137159.92    
    659500   2443.9118     -7481.7151      4374.839      -137163.36    
    659600   2459.3496      3563.9977      4350.477      -137158.59    
    659700   2504.3692      3776.151       4335.6104     -137157.2     
    659800   2548.834       3717.7994      4343.8107     -137161.8     
    659900   2203.3944     -4620.5742      4366.916      -137163.22    
    660000   2233.8357      2039.9477      4360.4015     -137161.59    
    660100   2512.488      -2980.3842      4342.1672     -137162.77    
    660200   2598.6822      10040.504      4328.8666     -137161.34    
    660300   2667.051      -3379.2527      4375.3122     -137161.83    
    660400   2468.6421     -2493.9112      4428.4134     -137159.98    
    660500   2417.3617     -9609.2523      4461.135      -137165.06    
    660600   2285.63       -2217.3937      4454.3221     -137161.98    
    660700   2755.2084      2211.8107      4423.8653     -137164.82    
    660800   2524.1745     -1741.3039      4421.5974     -137157.35    
    660900   2489.6265     -10540.351      4435.7629     -137159.44    
    661000   2524.7869     -20358.771      4425.4904     -137163.42    
    661100   2334.5125     -16343.723      4312.7208     -137165.37    
    661200   2389.275       15720.192      4137.4398     -137169.88    
    661300   2542.5359      23518.477      4058.0434     -137167.19    
    661400   2655.3662      14095.874      4140.5798     -137166.04    
    661500   2398.7409     -6108.6208      4334.2119     -137161.33    
    661600   2359.0689     -9896.471       4479.0326     -137156.06    
    661700   2736.1492     -8955.9918      4508.9781     -137154.83    
    661800   2707.9883     -5066.2455      4459.2223     -137158.17    
    661900   2394.4872      2598.3873      4366.4598     -137157.94    
    662000   2388.166       13376.352      4296.2379     -137158.81    
    662100   2497.474       6256.0218      4283.7331     -137159.53    
    662200   2638.6075      10120.672      4301.8919     -137157.71    
    662300   2705.0932     -1082.7246      4370.0651     -137158.33    
    662400   2311.7871     -4835.2023      4438.2015     -137157.54    
    662500   2385.5359     -5505.823       4458.4285     -137160.51    
    662600   2509.4767     -7181.6949      4432.7097     -137159.13    
    662700   2732.2934      915.26492      4372.0913     -137162.74    
    662800   2305.5469      11427.146      4353.892      -137157.48    
    662900   2272.8554     -10677.485      4380.0956     -137165.86    
    663000   2411.1146     -5421.5446      4345.5437     -137168.13    
    663100   2341.922       10337.15       4304.1473     -137161.05    
    663200   2556.8565     -5195.0758      4325.2003     -137160.91    
    663300   2462.4225      4112.75        4329.546      -137154.9     
    663400   2524.221       7672.3701      4321.9954     -137156.99    
    663500   2367.4507     -7086.9766      4327.1872     -137162.14    
    663600   2371.3788     -8824.6614      4297.6539     -137163.28    
    663700   2501.4415      10367.034      4247.4541     -137163       
    663800   2521.6296     -6669.5868      4251.4625     -137164.09    
    663900   2561.401       623.08761      4279.4301     -137164.22    
    664000   2368.3505     -6126.5418      4322.5598     -137159.04    
    664100   2597.8554     -2063.1878      4343.4434     -137164.56    
    664200   2643.0269     -15801.758      4382.6712     -137165.19    
    664300   2487.7443     -1612.4239      4386.0851     -137160.39    
    664400   2667.0885     -6639.2145      4387.7412     -137162.08    
    664500   2729.244      -5252.2725      4394.1411     -137159.8     
    664600   2570.3324      1704.2778      4410.819      -137155.57    
    664700   2441.8555     -17725.789      4425.1706     -137156.27    
    664800   2498.5774     -5822.2569      4358.2499     -137159.2     
    664900   2594.083       11861.288      4269.1057     -137162.84    
    665000   2378.8572      2623.3483      4258.7939     -137162.07    
    665100   2429.0022      299.27809      4273.7683     -137164.84    
    665200   2507.0282      14751.902      4316.6409     -137159.51    
    665300   2555.5265     -2604.4005      4434.0523     -137154.99    
    665400   2524.0446     -11120.552      4519.8842     -137153.83    
    665500   2555.1743     -10670.614      4532.644      -137157.39    
    665600   2163.0969      978.58368      4479.494      -137155.13    
    665700   2187.6566     -311.01296      4389.8212     -137159.3     
    665800   2736.8518      5447.0377      4276.2779     -137162.41    
    665900   2692.2273      16625.946      4200.6236     -137162.69    
    666000   2498.4068      11171.413      4238.0655     -137165.19    
    666100   2446.3418     -11198.539      4372.7435     -137164.62    
    666200   2335.7786     -11351.903      4460.6607     -137154.18    
    666300   2609.361      -12132.708      4469.6185     -137156.56    
    666400   2621.0783     -8671.9964      4448.832      -137159.09    
    666500   2425.2436     -2604.5711      4405.4965     -137158.21    
    666600   2603.2832     -9457.9745      4339.9957     -137164.75    
    666700   2443.3814      15020.724      4283.0382     -137165.1     
    666800   2128.3685     -3333.0978      4303.9197     -137163.21    
    666900   2409.7552     -3425.6522      4294.6891     -137165.36    
    667000   2573.728       8177.3706      4280.5886     -137163.44    
    667100   2411.7118      12404.686      4328.887      -137156.82    
    667200   2606.5033      628.20397      4417.3169     -137161.17    
    667300   2396.9569     -8340.3838      4483.772      -137156       
    667400   2652.262       27.433314      4480.4768     -137157.36    
    667500   2663.7479     -3061.0205      4459.1453     -137155.77    
    667600   2584.1251     -6782.9952      4427.7228     -137159.55    
    667700   2405.9978      501.15379      4363.7834     -137161.27    
    667800   2476.2319      5438.9126      4301.5232     -137162.79    
    667900   2530.9692      4358.3322      4270.4176     -137161.11    
    668000   2546.1589      2664.1964      4269.7847     -137158.09    
    668100   2646.4755      5841.0688      4273.6699     -137157.09    
    668200   2489.725      -2825.0149      4304.4218     -137159.71    
    668300   2380.0207     -10648.745      4333.933      -137161.04    
    668400   2631.4537     -2014.5046      4332.7806     -137165.44    
    668500   2807.3344     -231.03831      4329.4637     -137166.58    
    668600   2686.1607     -8168.7977      4355.6555     -137163.26    
    668700   2485.972       176.64859      4388.124      -137160.3     
    668800   2569.0966      640.15858      4408.0153     -137162.7     
    668900   2466.7852     -4708.0727      4405.7564     -137163.37    
    669000   2358.5636     -1776.965       4377.5755     -137163.57    
    669100   2571.5979      2884.9674      4339.6174     -137163.72    
    669200   2668.8937      8812.7201      4321.0892     -137158.8     
    669300   2655.2632     -4057.1727      4346.7961     -137162.28    
    669400   2513.0376     -13305.575      4362.4721     -137162.47    
    669500   2433.5713      1426.6752      4329.3924     -137160.76    
    669600   2450.8063      6308.4477      4301.5227     -137159.58    
    669700   2667.5928      11385.67       4296.8129     -137160.89    
    669800   2617.6871      3688.7124      4347.1436     -137158.25    
    669900   2307.1152     -3328.9622      4415.4401     -137156.62    
    670000   2264.7151      3201.5245      4464.9622     -137158.15    
    670100   2377.9404     -9705.3044      4494.2885     -137155.87    
    670200   2702.2125     -2314.3946      4453.5185     -137156.38    
    670300   2541.4369      5778.3898      4398.4357     -137155.71    
    670400   2369.7336      18958.974      4351.8346     -137157.5     
    670500   2440.3567     -3261.3668      4372.6564     -137161.17    
    670600   2451.8202      4029.9361      4385.4705     -137162.95    
    670700   2469.5137     -8029.5734      4405.2482     -137162.36    
    670800   2564.0366     -6251.5974      4417.7085     -137156.54    
    670900   2624.472       8137.5371      4377.7629     -137156.44    
    671000   2535.6072      7589.1938      4332.8002     -137162.1     
    671100   2491.608      -7483.9427      4325.709      -137163.95    
    671200   2570.9543      8891.8699      4308.8288     -137164.14    
    671300   2507.8677     -559.10449      4332.3439     -137160.22    
    671400   2523.9557     -2875.2615      4348.5776     -137159.89    
    671500   2649.3703     -2107.8311      4373.0975     -137160.77    
    671600   2598.7056     -11574.236      4418.4335     -137160.57    
    671700   2407.4173     -10475.921      4406.2724     -137159.96    
    671800   2331.5166     -324.41728      4318.1466     -137160.71    
    671900   2536.4475     -350.23135      4243.2003     -137163.46    
    672000   2847.9882      12548.56       4209.7616     -137165.36    
    672100   2713.0883      1296.6502      4281.3822     -137163.14    
    672200   2272.7318     -1122.2402      4383.1595     -137159.95    
    672300   2345.479      -11692.831      4445.3418     -137160.54    
    672400   2462.9026     -9252.1633      4411.0829     -137159.26    
    672500   2575.7006      6726.6872      4318.5314     -137161.72    
    672600   2501.0249      12055.369      4258.2513     -137161.43    
    672700   2446.2707      2952.755       4246.9747     -137163.56    
    672800   2345.6938      13125.684      4255.9473     -137163       
    672900   2454.6551     -3506.8267      4312.014      -137166.51    
    673000   2462.0258     -1649.8625      4367.6795     -137163.01    
    673100   2555.6564     -2679.5335      4390.4635     -137160.3     
    673200   2568.3851      6691.5527      4385.3997     -137155       
    673300   2598.524      -5204.564       4411.739      -137157.87    
    673400   2178.1431     -5478.4696      4417.6272     -137156.09    
    673500   2357.8954      3890.7491      4344.0083     -137160.61    
    673600   2418.0442      7067.8896      4275.737      -137159.01    
    673700   2567.2604      3037.6218      4258.254      -137163.07    
    673800   2408.4526     -3358.148       4268.5926     -137165.14    
    673900   2132.4333     -521.86685      4279.3739     -137164.12    
    674000   2590.9977      2141.01        4295.0434     -137167.54    
    674100   2568.0559     -8493.102       4356.2591     -137161.65    
    674200   2479.94       -3481.3057      4405.0736     -137158.31    
    674300   2640.2027     -9294.398       4409.6936     -137163.08    
    674400   2504.1079     -11679.118      4383.5738     -137160.41    
    674500   2519.0206      6501.1554      4319.0145     -137161.22    
    674600   2543.1305      1195.1697      4260.294      -137162.95    
    674700   2407.7487      9001.6997      4233.4231     -137159.06    
    674800   2596.5828      3600.8999      4274.346      -137163.62    
    674900   2578.6843     -11635.561      4360.1439     -137163.76    
    675000   2232.4687      994.36082      4413.2361     -137154.51    
    675100   2496.7814     -3378.9354      4451.3783     -137153.35    
    675200   2749.3065     -6514.2771      4456.8894     -137157.55    
    675300   2513.6329     -12347.902      4430.3326     -137156.41    
    675400   2421.2285      8321.7349      4339.715      -137158.96    
    675500   2303.3872      14887.094      4273.8834     -137156.44    
    675600   2573.9552      2269.125       4255.6223     -137163.48    
    675700   2572.8443     -2070.5923      4254.2041     -137165.81    
    675800   2322.5224      8792.1109      4259.6842     -137162.02    
    675900   2408.2183     -5743.4751      4298.6342     -137165.21    
    676000   2580.2925     -4287.7112      4330.4744     -137161.27    
    676100   2640.0579     -6546.3005      4368.8493     -137158.26    
    676200   2408.9307      4254.0435      4403.6331     -137154.3     
    676300   2334.9088     -6135.0702      4425.9223     -137153.88    
    676400   2765.1575      4105.6696      4408.1839     -137159.4     
    676500   2656.9837      740.90608      4426.983      -137152.16    
    676600   2623.0028     -317.70602      4460.1288     -137158.21    
    676700   2464.7703     -13129.475      4488.1159     -137160.96    
    676800   2427.1314     -1755.6279      4444.637      -137160.62    
    676900   2452.959       3595.4955      4349.0588     -137156.58    
    677000   2934.9507      10177.874      4258.289      -137165.44    
    677100   2548.7663      11755.684      4263.8388     -137161.6     
    677200   2466.1757      6106.6492      4377.9472     -137161.63    
    677300   2390.2902     -17724.986      4519.1221     -137156.48    
    677400   2456.2564     -9137.2812      4547.2222     -137149.85    
    677500   2596.2271     -1856.374       4484.6202     -137152.7     
    677600   2718.6318     -2823.5388      4391.1578     -137160.88    
    677700   2542.6998      3468.284       4302.7561     -137162.26    
    677800   2398.4189      2729.9482      4239.7678     -137160.01    
    677900   2372.768       14517.221      4195.7469     -137158.29    
    678000   2571.7047      5569.0235      4205.4413     -137162.83    
    678100   2438.5325      4373.5306      4252.3772     -137161.1     
    678200   2347.7271     -2864.2935      4320.4182     -137162.77    
    678300   2381.1833     -9686.1605      4401.7965     -137160.84    
    678400   2482.7731     -1833.1538      4429.5736     -137155.06    
    678500   2621.6599     -246.34505      4424.9764     -137158.92    
    678600   2570.4575     -9731.2084      4415.5261     -137162.93    
    678700   2317.8024      650.50716      4374.6208     -137157.72    
    678800   2497.9465     -606.24269      4312.5395     -137160.84    
    678900   2552.8099      11840.684      4263.3255     -137162.82    
    679000   2498.3589      4571.9217      4290.142      -137164.77    
    679100   2355.0245     -2984.8897      4337.0683     -137163.5     
    679200   2333.3249      6817.696       4364.0228     -137156.69    
    679300   2465.6607      6451.6251      4397.0364     -137152.39    
    679400   2642.9583      9271.6301      4451.5809     -137156.86    
    679500   2318.1996     -5668.5858      4522.5705     -137155.46    
    679600   2351.0138     -3793.7037      4548.4503     -137156.24    
    679700   2415.7354     -12659.34       4514.3414     -137154.83    
    679800   2431.4513     -5548.8782      4416.3878     -137153.33    
    679900   2592.6341      14020.022      4315.1352     -137158.89    
    680000   2369.2857      6845.2164      4289.6268     -137158.55    
    680100   2467.4058      1591.1248      4302.454      -137162.55    
    680200   2620.5304     -4449.1361      4339.4031     -137165.33    
    680300   2698.6734     -1497.2465      4373.0626     -137163.16    
    680400   2721.1765     -1116.1547      4423.5223     -137154.67    
    680500   2427.2259     -4689.7716      4477.2389     -137148.92    
    680600   2434.688      -8878.4292      4496.7074     -137155.55    
    680700   2248.6947     -5529.7072      4451.43       -137154.3     
    680800   2603.2656      14494.513      4368.1936     -137159.4     
    680900   2657.2036     -1007.9549      4364.509      -137160.43    
    681000   2292.6219     -5209.0429      4373.1851     -137163.48    
    681100   2327.0978     -3747.6729      4363.4383     -137162.87    
    681200   2507.2987      736.26557      4319.2054     -137159.79    
    681300   2713.785       12175.771      4289.6285     -137162.34    
    681400   2511.9943     -6675.4724      4324.871      -137163.05    
    681500   2396.9177     -422.95117      4319.9036     -137164.13    
    681600   2344.9576      10459.983      4303.471      -137160.78    
    681700   2411.9321      5314.0034      4329.7491     -137159.67    
    681800   2436.2881     -7422.6033      4382.9759     -137158.87    
    681900   2519.3511     -4486.4244      4377.923      -137159.74    
    682000   2534.8232     -7424.2395      4339.6193     -137160.87    
    682100   2344.5865      6887.7536      4304.6949     -137162.43    
    682200   2126.6738      9712.7162      4289.7989     -137160.73    
    682300   2353.3515      5147.0762      4299.0387     -137160.6     
    682400   2637.7215     -12640.967      4329.8603     -137162.65    
    682500   2526.2003      8872.4285      4323.6219     -137160.16    
    682600   2334.6256      3564.3218      4328.7904     -137158.84    
    682700   2268.5282      8989.6012      4341.167      -137161.77    
    682800   2246.203      -5461.4137      4389.2237     -137163.77    
    682900   2504.5415     -8876.4745      4416.6267     -137162.93    
    683000   2553.2236      993.27512      4411.3211     -137157.81    
    683100   2609.5149      2006.8001      4420.2109     -137159.62    
    683200   2529.9495     -10155.424      4459.3186     -137160.32    
    683300   2570.3045     -11644.149      4472.7176     -137157.31    
    683400   2832.586      -5743.5132      4428.5363     -137158.5     
    683500   2561.0863      10105.808      4343.0653     -137159.58    
    683600   2412.5115      5478.6406      4293.807      -137159.41    
    683700   2452.0194      11112.662      4289.7122     -137160.93    
    683800   2458.5366      1640.765       4343.8063     -137160.22    
    683900   2459.8573      3302.5443      4414.6038     -137154.78    
    684000   2686.5494     -9640.9752      4495.5904     -137154.23    
    684100   2526.2528     -8281.2326      4551.6155     -137150.11    
    684200   2266.4072     -14191.179      4556.9594     -137152.66    
    684300   2373.7683     -3191.7625      4480.5034     -137155.88    
    684400   2584.4582     -1437.5796      4355.2334     -137159.15    
    684500   2705.908       13618.491      4220.3092     -137163.46    
    684600   2328.3041      16560.431      4188.7921     -137158.44    
    684700   2389.172       962.15434      4249.2007     -137161.95    
    684800   2403.0485     -5635.1641      4334.4071     -137160.67    
    684900   2570.8953     -5932.2052      4401.4037     -137159.88    
    685000   2654.5621     -3182.0292      4433.2099     -137153.3     
    685100   2927.6683     -6578.5852      4435.6448     -137157.96    
    685200   2701.7989     -73.059174      4397.1807     -137158.31    
    685300   2618.3605      10.454084      4364.106      -137161.9     
    685400   2378.948      -356.39163      4343.3935     -137161.6     
    685500   2349.8889     -822.79801      4329.3299     -137160.76    
    685600   2623.6654      5409.2139      4324.956      -137160.8     
    685700   2710.852       1038.684       4348.3797     -137160.71    
    685800   2450.9426     -7034.4142      4386.8392     -137157.96    
    685900   2550.432       4479.0718      4390.4818     -137161.4     
    686000   2463.6658     -6562.0472      4394.7159     -137160.31    
    686100   2451.6764      964.47334      4371.6899     -137161.69    
    686200   2341.3625      1551.2515      4346.1533     -137165.01    
    686300   2270.6328     -7972.542       4323.4654     -137167.91    
    686400   2486.7932      7502.4602      4281.3847     -137166.22    
    686500   2336.9388      9294.9093      4299.4827     -137158.6     
    686600   2574.5109      9551.2714      4389.7855     -137162       
    686700   2518.4249     -9638.6818      4518.4506     -137158.85    
    686800   2489.5885     -4743.6115      4569.6606     -137151.55    
    686900   2695.9782     -9606.7418      4581.5122     -137149.46    
    687000   2570.2228     -5700.2948      4552.8528     -137149.5     
    687100   2574.7674     -12222.887      4481.9974     -137156.95    
    687200   2480.944       983.04429      4359.3421     -137158.33    
    687300   2655.2364      14270.236      4259.1612     -137163.78    
    687400   2708.0987     -2434.0658      4247.6331     -137169.37    
    687500   2488.9376     -1316.1654      4258.0022     -137168.28    
    687600   2397.8584     -6380.9737      4289.7806     -137164.53    
    687700   2356.1455      10712.588      4315.8631     -137158.59    
    687800   2617.1871      3283.9477      4361.7365     -137162.35    
    687900   2572.9585     -5326.6119      4392.8587     -137162.7     
    688000   2358.8123     -622.08106      4401.8011     -137161.24    
    688100   2248.3909     -7195.3224      4381.6033     -137163.36    
    688200   2449.1704      2175.601       4307.2039     -137162.83    
    688300   2737.6953      5267.9972      4246.0335     -137165.68    
    688400   2556.1012     -15.599652      4238.0833     -137165.06    
    688500   2403.5349      7774.0482      4264.8815     -137165.58    
    688600   2389.7241     -1879.2858      4318.2931     -137164.56    
    688700   2535.4981     -934.87543      4367.9944     -137164.26    
    688800   2338.6333      15.494227      4407.3473     -137155.62    
    688900   2645.4089     -10977.535      4409.4791     -137161.1     
    689000   2692.3259     -6019.2254      4372.335      -137162.96    
    689100   2399.1306     -2694.5825      4307.9054     -137165.54    
    689200   2549.2708      7923.0582      4246.3995     -137170.56    
    689300   2543.3632      6560.5327      4244.6214     -137166.37    
    689400   2531.8528     -7030.609       4280.5044     -137161.19    
    689500   2771.3808      7810.0646      4300.7048     -137158.29    
    689600   2654.8531     -3368.4181      4366.2972     -137157.42    
    689700   2311.9818     -1723.3178      4439.3936     -137157.39    
    689800   2477.9007     -9302.5965      4476.8445     -137158.6     
    689900   2629.1585      4957.2005      4477.3483     -137158.07    
    690000   2588.1463     -7415.9184      4495.5808     -137157.43    
    690100   2283.7332      1092.3542      4470.4227     -137156.57    
    690200   2394.0215     -9480.629       4415.336      -137162.73    
    690300   2614.6245      4814.9922      4315.8221     -137163.84    
    690400   2921.3239      4914.2251      4263.321      -137164.46    
    690500   2529.0116      6186.4234      4291.1571     -137160.97    
    690600   2268.9376     -6397.9837      4351.7958     -137156.81    
    690700   2565.325      -2124.2231      4386.4454     -137160.04    
    690800   2533.0331      7049.1097      4412.7671     -137156.98    
    690900   2472.3086     -10578.869      4435.6502     -137156.19    
    691000   2443.4253      6303.791       4412.2993     -137157.07    
    691100   2232.5808     -6147.4926      4414.6969     -137159.61    
    691200   2042.1616      4403.3013      4387.7368     -137154.51    
    691300   2552.177       9798.4216      4338.5028     -137160.36    
    691400   2538.7072      5143.5781      4334.996      -137159.09    
    691500   2370.6776     -389.75188      4359.5497     -137157.05    
    691600   2335.5623     -1546.6378      4376.8845     -137158.08    
    691700   2418.795       750.17613      4371.0967     -137159.02    
    691800   2719.2856      1258.2058      4352.6873     -137159.53    
    691900   2754.1662     -541.42433      4347.5296     -137163.37    
    692000   2366.4162      4481.4369      4357.8208     -137160.96    
    692100   2405.5882     -10899.477      4372.6172     -137162.44    
    692200   2621.4769     -339.11227      4344.5389     -137163.01    
    692300   2529.638       11021.801      4322.6812     -137157.54    
    692400   2325.8199      7034.1505      4342.1296     -137158.77    
    692500   2292.8294     -5733.878       4375.5298     -137162.35    
    692600   2446.4996     -3075.9048      4378.1225     -137160.31    
    692700   2711.6116     -7917.9276      4362.317      -137162.37    
    692800   2502.1752     -5244.0182      4336.7375     -137156.78    
    692900   2608.8844      11711.434      4294.6703     -137161.64    
    693000   2402.4238      7847.2968      4323.5106     -137165.87    
    693100   2401.3682     -5829.4829      4419.7253     -137169.33    
    693200   2392.5324     -14996.21       4480.0744     -137165.04    
    693300   2387.5156     -941.6847       4472.504      -137159.34    
    693400   2644.3819     -2215.2216      4463.244      -137162.45    
    693500   2479.078      -4515.3901      4437.9988     -137159.3     
    693600   2350.1103     -2909.2273      4384.1194     -137159.47    
    693700   2401.1381      1393.4146      4320.5169     -137163.07    
    693800   2509.4812     -661.63498      4261.4927     -137166.97    
    693900   2419.2399      14815.235      4205.0602     -137165.95    
    694000   2412.6781      6355.7445      4209.7633     -137165.6     
    694100   2569.7972      9840.2663      4266.6231     -137162.65    
    694200   2626.906       462.00608      4350.3615     -137160.49    
    694300   2558.3297     -7266.5419      4433.6668     -137161.5     
    694400   2294.9702     -12715.855      4456.4189     -137163.42    
    694500   2320.338      -9541.1213      4397.9671     -137163.13    
    694600   2465.0244      8231.144       4313.0715     -137163.63    
    694700   2709.2647      8150.788       4289.0462     -137167.07    
    694800   2427.2594     -1208.2741      4331.5415     -137160.75    
    694900   2248.0695     -2944.2797      4387.893      -137157.39    
    695000   2635.9812     -3888.8962      4424.6974     -137160.11    
    695100   2538.5331     -3242.2441      4401.2508     -137154.47    
    695200   2590.1176      13256.132      4363.3151     -137161.24    
    695300   2295.5694     -8987.4211      4380.3913     -137160.78    
    695400   2356.9851     -887.65454      4352.4816     -137159.83    
    695500   2638.5828      2276.3139      4304.3869     -137162.49    
    695600   2492.9809      12575.661      4273.3598     -137159.59    
    695700   2333.2929     -4856.6658      4308.2621     -137162.55    
    695800   2181.8227     -9634.8516      4330.5536     -137163.48    
    695900   2567.5361      1167.2594      4318.8453     -137163.65    
    696000   2504.3638      4994.9517      4330.2728     -137157.24    
    696100   2591.0049     -4006.1301      4375.8695     -137162.01    
    696200   2411.0815     -4596.0198      4397.97       -137164.38    
    696300   2258.8716      1232.4191      4380.7721     -137161.43    
    696400   2476.5595      4609.5486      4343.3578     -137161.57    
    696500   2631.1949      11953.197      4326.4023     -137161.4     
    696600   2553.5703     -4673.0908      4364.8775     -137161.68    
    696700   2416.085      -4847.7533      4399.4433     -137161.13    
    696800   2490.4039     -5592.2461      4409.7019     -137164.09    
    696900   2527.5771     -147.64508      4371.4021     -137161.07    
    697000   2712.7383      4955.1908      4310.5795     -137158.17    
    697100   2567.6695      16921.644      4279.7034     -137157.97    
    697200   2443.4774     -3618.6167      4330.1207     -137159.79    
    697300   2486.6629     -4707.1011      4360.971      -137161.62    
    697400   2406.4362     -489.89532      4364.5097     -137158.29    
    697500   2552.4382      5596.4016      4355.1399     -137160.3     
    697600   2449.3499      5685.8748      4371.7476     -137161.97    
    697700   2131.0081     -15641.019      4420.0559     -137162.53    
    697800   2232.7114      5183.5645      4390.6391     -137161.02    
    697900   2393.0486     -2390.4268      4342.015      -137158.23    
    698000   2587.3371      13477.515      4263.2781     -137159.56    
    698100   2514.6887      7667.6508      4229.4963     -137160.2     
    698200   2325.0604      2895.7911      4257.4067     -137163.37    
    698300   2339.5065     -3352.5735      4332.9167     -137164.1     
    698400   2276.9395     -881.55371      4410.5503     -137157.49    
    698500   2402.7844     -11227.866      4465.6576     -137155.35    
    698600   2411.6294      2571.9532      4454.3027     -137151.59    
    698700   2600.9831     -2513.2126      4441.9235     -137155.11    
    698800   2473.969      -6934.276       4437.2815     -137157.28    
    698900   2267.773       693.12912      4400.5457     -137159.19    
    699000   2430.6808      3173.6753      4352.248      -137160.26    
    699100   2669.6232     -3098.3095      4302.4482     -137162.19    
    699200   2669.9735      13250.508      4255.6032     -137162.18    
    699300   2520.6798     -65.584789      4295.1727     -137161.95    
    699400   2386.8412      8288.7772      4358.2563     -137158.77    
    699500   2235.1842      2541.5849      4448.4063     -137152.14    
    699600   2582.4288     -4377.5489      4517.2787     -137156.43    
    699700   2499.9786     -7917.0058      4517.0563     -137154.25    
    699800   2442.7329     -7409.4482      4444.58       -137157.19    
    699900   2294.291       7098.3241      4316.7441     -137161.88    
    700000   2363.0142      16948.426      4242.9856     -137162.62    
    700100   2650.5263      5047.3982      4257.43       -137165.45    
    700200   2650.0113     -1241.7246      4313.1689     -137163.66    
    700300   2389.274      -4280.6127      4373.1784     -137161.83    
    700400   2226.0841     -2198.8039      4401.8749     -137161.79    
    700500   2332.1145      2196.3534      4398.7221     -137158.61    
    700600   2610.1434     -1300.9736      4384.815      -137160.37    
    700700   2589.5061     -1086.9003      4359.9726     -137159.89    
    700800   2536.2182     -8959.7921      4333.3618     -137160.06    
    700900   2487.7385      3270.3207      4271.5161     -137163.4     
    701000   2384.234       383.93923      4212.2202     -137169.13    
    701100   2379.6709      5125.5562      4173.132      -137166.38    
    701200   2459.4912      13919.023      4175.1239     -137163.27    
    701300   2583.862       801.25314      4252.345      -137163.65    
    701400   2568.356      -12680.365      4353.2432     -137162.81    
    701500   2311.0563      516.55968      4405.0827     -137156.87    
    701600   2347.3799     -3654.3253      4433.3572     -137155.23    
    701700   2597.1598     -9690.2091      4432.0586     -137156.68    
    701800   2636.722       3933.4631      4379.769      -137159.08    
    701900   2646.6665     -1187.824       4348.9168     -137164.24    
    702000   2451.2577      5193.1374      4340.6414     -137162.37    
    702100   2469.6622     -1763.9106      4347.4576     -137162.47    
    702200   2432.8431     -2386.5329      4339.4562     -137156.54    
    702300   2602.4118      14031.792      4329.0268     -137155.92    
    702400   2578.3524      6928.5192      4385.733      -137156.71    
    702500   2222.8156     -14327.421      4445.6133     -137155.8     
    702600   2465.3663     -9432.3055      4402.6763     -137160.99    
    702700   2700.6801      3902.3137      4318.7095     -137160.69    
    702800   2531.2861      14935.729      4287.733      -137157.29    
    702900   2431.6097      2805.8901      4318.3324     -137161.68    
    703000   2375.0891      9369.7364      4347.784      -137163.34    
    703100   2262.0424     -2669.132       4388.5516     -137159.04    
    703200   2506.8831     -6368.9901      4401.3281     -137161.26    
    703300   2489.3458      1683.8045      4397.3495     -137157.23    
    703400   2551.123      -8932.7189      4406.5557     -137157.25    
    703500   2634.7101     -5591.4065      4380.152      -137163.32    
    703600   2377.1308      702.28265      4338.2563     -137164.81    
    703700   2397.7825      3054.93        4305.1596     -137164.14    
    703800   2507.6046      1634.2519      4274.9333     -137162.02    
    703900   2745.604       9487.3716      4287.7891     -137162.16    
    704000   2945.3947      991.56599      4373.8283     -137156.73    
    704100   2818.125       4376.2529      4463.4484     -137154.7     
    704200   2348.7817     -8978.1393      4561.3729     -137151.22    
    704300   2481.0239     -11511.276      4608.8055     -137154.62    
    704400   2470.8248     -3196.1613      4589.0555     -137151.49    
    704500   2596.7126     -1347.5704      4516.1445     -137151.67    
    704600   2725.564       23.161823      4446.8348     -137155.6     
    704700   2531.0453     -2065.2189      4388.2258     -137161.45    
    704800   2435.3506      12816.658      4334.1995     -137162.37    
    704900   2469.0038     -1097.4093      4340.7939     -137161.91    
    705000   2737.7051      2731.5135      4358.8222     -137162.74    
    705100   2490.457       6143.8447      4415.5274     -137154.11    
    705200   2359.2807     -13440.537      4503.1922     -137157.77    
    705300   2317.0355     -11950.404      4527.0271     -137161.66    
    705400   2360.7794     -6197.9591      4457.3816     -137158.23    
    705500   2608.4508      6444.5905      4335.0189     -137160.09    
    705600   2606.0179      15017.225      4279.7233     -137161.49    
    705700   2389.8887      2527.0903      4315.3104     -137160.2     
    705800   2358.6732     -940.45455      4367.1222     -137159.13    
    705900   2414.1626      3042.4918      4387.7554     -137157.84    
    706000   2674.4671     -4824.295       4394.1428     -137157.89    
    706100   2946.7281      5346.2036      4396.1138     -137153.3     
    706200   2605.1894      7756.6594      4436.7823     -137149.42    
    706300   2619.8036     -13570.611      4504.2916     -137157.67    
    706400   2441.916      -8898.225       4506.7782     -137156.74    
    706500   2286.2203      3350.4573      4442.9024     -137154.48    
    706600   2685.0877     -372.74735      4382.859      -137162.29    
    706700   2341.2089      6435.4582      4328.2562     -137154.83    
    706800   2510.2043      1613.6012      4292.9759     -137165.58    
    706900   2245.8989     -2685.2184      4256.9784     -137163.93    
    707000   2609.2549      9249.5603      4206.3809     -137169.72    
    707100   2735.9949      2196.5288      4228.9477     -137166.5     
    707200   2462.2419      3826.8814      4300.3176     -137160.3     
    707300   2450.663      -3745.1468      4393.0754     -137161.3     
    707400   2444.9279     -2118.6043      4481.8042     -137158.41    
    707500   2432.8877     -271.8882       4548.9351     -137152.23    
    707600   2599.2281     -9690.8209      4558.9574     -137151.89    
    707700   2495.6946     -10488.527      4495.2694     -137149.14    
    707800   2556.9237      6020.9173      4415.0809     -137159.17    
    707900   2449.2376      86.702471      4393.3282     -137163.1     
    708000   2480.4233     -10946.355      4393.3126     -137160.75    
    708100   2570.5821      3023.2057      4365.3561     -137156.5     
    708200   2631.267       373.9427       4331.6226     -137159.3     
    708300   2501.8892      8731.1421      4299.9988     -137160.19    
    708400   2382.9102      5562.8398      4311.1959     -137160.05    
    708500   2503.7465     -3425.3057      4336.9225     -137162.11    
    708600   2443.2225      2953.2169      4351.0123     -137159.17    
    708700   2558.8557     -4972.4055      4379.563      -137162.26    
    708800   2300.2925     -5703.9297      4415.1939     -137159.31    
    708900   2344.9227     -6116.5765      4423.8723     -137161.74    
    709000   2350.6107     -1610.6578      4388.4261     -137156.54    
    709100   2702.0349      5286.7804      4368.5072     -137159.24    
    709200   2810.8636     -16102.304      4387.1546     -137163.95    
    709300   2348.636       2907.422       4345.1022     -137159.48    
    709400   2344.0208      10512.744      4292.8997     -137161.83    
    709500   2395.0384      8174.115       4288.7723     -137162.4     
    709600   2492.5583      7651.0182      4346.1702     -137161.83    
    709700   2625.2727     -690.18577      4446.096      -137158.67    
    709800   2781.0762     -9339.2386      4536.7959     -137153.63    
    709900   2756.1849     -6580.2166      4588.1295     -137150.18    
    710000   2380.5156     -10861.187      4608.2996     -137151.89    
    710100   2386.4873     -5796.8525      4540.933      -137153.28    
    710200   2481.8838      6179.4135      4400.1211     -137151.51    
    710300   2724.5645      16705.785      4280.3299     -137159.62    
    710400   2441.5858      2983.8097      4239.4217     -137162.95    
    710500   2358.1921      6131.286       4228.1914     -137161.84    
    710600   2456.613       13165.897      4263.7049     -137163.12    
    710700   2548.7368      1468.412       4390.2498     -137161.47    
    710800   2583.2379     -7415.389       4550.7285     -137154.94    
    710900   2494.4359     -22069.488      4654.3497     -137149.5     
    711000   2710.8247     -18381.434      4605.4061     -137155.86    
    711100   2408.0101      2983.8496      4479.3063     -137155.99    
    711200   2358.0895     -741.84252      4376.9348     -137159.92    
    711300   2514.3937      1067.1381      4288.5195     -137163.78    
    711400   2566.0591      5930.6521      4244.2754     -137162.57    
    711500   2609.7723      7025.0238      4261.4345     -137163.96    
    711600   2284.4217      4590.1223      4327.7331     -137161.44    
    711700   2190.7684     -4997.6745      4389.3266     -137158.2     
    711800   2569.287       6830.5032      4396.2619     -137158.95    
    711900   2662.6079     -10061.918      4422.6338     -137159.98    
    712000   2645.2582     -3241.6609      4405.9436     -137162.22    
    712100   2351.6334      5437.2313      4361.204      -137159.14    
    712200   2374.1433      93.012637      4342.0499     -137159.8     
    712300   2728.4056     -224.92401      4325.527      -137158.92    
    712400   2739.6329      8195.8949      4329.6286     -137159.86    
    712500   2503.4101     -8936.4653      4410.3607     -137162.16    
    712600   2480.0384     -11300.531      4457.494      -137160.88    
    712700   2596.6271     -9578.6615      4434.3772     -137159.35    
    712800   2589.2022      7312.618       4377.3        -137156.68    
    712900   2496.591       942.80729      4346.0482     -137158.75    
    713000   2294.7526     -9578.7306      4314.1462     -137164.09    
    713100   2552.2786      5696.2086      4249.4708     -137168.88    
    713200   2587.6807      9578.4193      4239.6043     -137166.09    
    713300   2561.6614      5508.8667      4292.2362     -137163.93    
    713400   2427.4744     -4613.675       4375.6481     -137159.46    
    713500   2612.5927     -7263.6881      4455.0662     -137159.73    
    713600   2566.9827      965.58949      4481.7261     -137155.93    
    713700   2511.5397     -8643.0331      4469.1292     -137158.93    
    713800   2357.111      -4087.3526      4392.888      -137160.17    
    713900   2480.5276      4802.3823      4298.6809     -137162.99    
    714000   2635.3064      9923.4723      4279.3568     -137158.53    
    714100   2573.7984      5345.8847      4313.6383     -137158.21    
    714200   2512.6655     -14162.389      4364.7986     -137163.57    
    714300   2427.6753     -9599.6718      4372.9779     -137162.08    
    714400   2561.6446      9698.9474      4340.3275     -137163.19    
    714500   2474.4601     -4010.0331      4333.2125     -137159.01    
    714600   2627.6339     -7847.7821      4316.6255     -137162.64    
    714700   2499.7531      11990.153      4272.6764     -137160.72    
    714800   2550.5163     -3274.7146      4276.3921     -137162.55    
    714900   2373.1467      4120.9319      4291.6406     -137159.79    
    715000   2441.2741      3815.2441      4319.9223     -137161.38    
    715100   2644.256      -1212.0243      4373.3426     -137160.48    
    715200   2689.6587     -1506.2788      4448.7238     -137155.87    
    715300   2545.4131     -11379.76       4506.7408     -137155.21    
    715400   2414.3722     -11199.318      4498.2088     -137158.29    
    715500   2492.9785     -10642.091      4433.6441     -137161.08    
    715600   2513.6745      7141.1179      4344.1752     -137157.04    
    715700   2888.5975      9278.3801      4303.582      -137155.4     
    715800   2471.914       8565.5431      4331.1723     -137154.98    
    715900   2436.3185     -7630.4361      4386.8051     -137159.02    
    716000   2510.1364     -13690.533      4391.0092     -137162.32    
    716100   2520.1729     -2949.8868      4343.2427     -137159.7     
    716200   2662.5522      12417.786      4293.8236     -137160.61    
    716300   2514.1231     -2463.0715      4318.4483     -137163.75    
    716400   2342.1055     -666.85381      4356.4131     -137162.34    
    716500   2510.3638     -3926.3065      4368.6754     -137162.4     
    716600   2589.0172      2355.3395      4353.4817     -137159.21    
    716700   2657.6083     -6858.0603      4361.2119     -137161.21    
    716800   2562.676       3332.309       4362.5867     -137160.34    
    716900   2608.6127     -1550.706       4373.5842     -137165       
    717000   2428.9126     -17779.969      4372.1688     -137164.84    
    717100   2427.6098      5874.9618      4294.6653     -137161.55    
    717200   2612.9762      16306.071      4218.6284     -137158.69    
    717300   2699.2928      7634.4685      4222.3083     -137165.29    
    717400   2472.5429     -3956.2349      4301.0097     -137166.26    
    717500   2488.3906     -8494.5848      4384.476      -137165.73    
    717600   2361.0618      247.99274      4415.0868     -137156.74    
    717700   2630.9823     -8674.6123      4432.4485     -137157.29    
    717800   2558.9153     -1935.715       4412.8795     -137156.36    
    717900   2634.7921     -9476.3291      4366.234      -137161.07    
    718000   2459.4724      16809.854      4285.9259     -137161.69    
    718100   2358.0341      8807.8688      4269.0296     -137162.37    
    718200   2504.9354      5633.7365      4313.9257     -137158.75    
    718300   2669.5183      1984.8598      4404.6153     -137156.08    
    718400   2385.3394     -5939.3632      4485.031      -137153.47    
    718500   2565.286      -5750.9053      4490.0189     -137162.12    
    718600   2370.6323     -2624.5702      4434.8709     -137159.84    
    718700   2310.8312      9220.0207      4368.2984     -137159.21    
    718800   2502.269       4503.1906      4355.2207     -137158.72    
    718900   2697.7245      55.03948       4393.6378     -137160.11    
    719000   2652.5262     -9211.0139      4460.9487     -137160.34    
    719100   2257.9267     -5897.1235      4483.53       -137158.76    
    719200   2392.9156     -9119.2366      4445.6171     -137162.03    
    719300   2540.4083      5511.6527      4354.2497     -137161.47    
    719400   2497.8495      10207.046      4298.6862     -137160.75    
    719500   2555.0106     -469.00514      4293.7848     -137165.08    
    719600   2388.8685     -2686.9582      4311.6586     -137161.59    
    719700   2593.09        1433.9848      4337.9056     -137164.14    
    719800   2764.311       9750.4804      4402.6743     -137156.2     
    719900   2550.0298     -14559.501      4506.3668     -137154.57    
    720000   2523.6248     -13352.697      4520.3321     -137158.38    
    720100   2487.2077     -4259.7946      4425.2545     -137157.56    
    720200   2741.4507      1961.6113      4285.4026     -137159.37    
    720300   2822.9049      5421.8182      4192.9865     -137163.76    
    720400   2601.9561      11705.429      4173.9776     -137169.23    
    720500   2362.4202      5962.0064      4241.1832     -137164.76    
    720600   2361.4961      1455.3185      4339.9499     -137159.42    
    720700   2588.5097     -1324.6044      4426.8502     -137158.04    
    720800   2510.1178     -6887.2885      4478.2801     -137154.48    
    720900   2484.6536      504.7455       4446.0621     -137154.72    
    721000   2557.9182     -5993.5585      4391.9046     -137159.13    
    721100   2426.5555     -1454.4737      4332.584      -137160.85    
    721200   2469.1688      4475.6732      4254.7899     -137165.96    
    721300   2369.8874      4131.6319      4221.897      -137163.65    
    721400   2472.647       8209.4172      4231.9943     -137159.18    
    721500   2892.6189     -3217.1969      4264.2407     -137166.2     
    721600   2353.7263      9674.2273      4328.4805     -137158.65    
    721700   2372.4028     -10709.154      4430.684      -137160.82    
    721800   2377.6753     -5940.9382      4492.4981     -137156.26    
    721900   2571.5674     -3800.5309      4522.5738     -137155.82    
    722000   2540.1124     -2611.9634      4547.2094     -137152.18    
    722100   2554.5774     -15299.654      4546.1728     -137153.07    
    722200   2513.7713     -10478.863      4459.0589     -137162.09    
    722300   2329.8763     -2743.9725      4332.7777     -137160.58    
    722400   2553.7248      14266.074      4211.076      -137162.56    
    722500   2716.9807      21963.784      4183.187      -137165.6     
    722600   2293.6682     -9250.1911      4265.8669     -137165.8     
    722700   2260.7244     -10907.09       4302.0974     -137163.08    
    722800   2520.2735     -729.60139      4270.813      -137162.66    
    722900   2459.3609      16406.565      4247.2479     -137158.43    
    723000   2357.2579      3725.0178      4290.5892     -137157.66    
    723100   2303.7803     -6548.9953      4358.8236     -137159.02    
    723200   2382.8258     -12130.996      4396.9665     -137164.09    
    723300   2463.6336      3266.3459      4372.5179     -137161.29    
    723400   2655.9175     -3253.3286      4353.767      -137159.15    
    723500   2549.4671      3096.0887      4343.5112     -137159.01    
    723600   2542.4568     -1928.6885      4344.078      -137166.01    
    723700   2407.2667     -3696.9664      4326.7922     -137165.24    
    723800   2383.4501     -549.22856      4304.8713     -137163.65    
    723900   2400.4319      2685.2264      4296.3897     -137160.68    
    724000   2696.9414      10453.195      4310.7673     -137165.53    
    724100   2438.503      -3297.8321      4373.9721     -137159.07    
    724200   2488.2387     -9147.0316      4438.7699     -137159.91    
    724300   2490.2308     -6226.6932      4471.9474     -137157.07    
    724400   2619.5689     -2176.6751      4461.7275     -137153.98    
    724500   2714.7616      14743.722      4439.864      -137152.98    
    724600   2362.1593     -2152.2107      4485.4655     -137155.19    
    724700   2338.6619     -2560.8567      4515.1933     -137158.25    
    724800   2470.6853     -4323.4162      4476.9495     -137160.51    
    724900   2511.2031      4029.1316      4404.689      -137156.72    
    725000   2829.6428     -3631.2226      4361.1817     -137159.87    
    725100   2784.1808      3561.4748      4337.359      -137163.73    
    725200   2310.2944     -1102.9172      4363.6934     -137159.59    
    725300   2432.0131     -1085.4904      4396.3911     -137162.01    
    725400   2483.2142     -2393.5553      4431.6054     -137156.81    
    725500   2674.778      -3725.7377      4446.9297     -137156.89    
    725600   2671.9568     -7689.9139      4439.0107     -137160.04    
    725700   2628.9607      2101.5921      4408.1057     -137162.91    
    725800   2479.4736     -4495.8543      4405.4465     -137160.76    
    725900   2368.1873     -546.50928      4390.4154     -137158.14    
    726000   2708.049      -1920.6236      4370.6667     -137162.88    
    726100   2712.2149     -1390.6881      4362.183      -137160.59    
    726200   2236.6389      5061.6767      4383.1737     -137158.01    
    726300   2380.0298     -9765.1718      4423.0298     -137162.5     
    726400   2579.831       1325.3035      4411.4719     -137161.42    
    726500   2556.341      -11286.676      4406.1592     -137156.59    
    726600   2821.6847     -7537.7476      4345.3973     -137161.29    
    726700   2483.5714      20311.008      4255.9892     -137160.45    
    726800   2391.366       10315.489      4267.3415     -137165.26    
    726900   2292.6176     -4350.9795      4353.2642     -137162.44    
    727000   2454.9412     -6664.0296      4427.1439     -137157.94    
    727100   2462.1985     -8092.7207      4438.9033     -137154.61    
    727200   2640.6452     -6117.0087      4388.4302     -137158.99    
    727300   2571.5278     -803.30764      4330.4932     -137162.79    
    727400   2516.4652     -1211.7713      4291.0882     -137169.64    
    727500   2366.4516      4314.8794      4269.2839     -137164.36    
    727600   2400.8388     -94.077656      4266.9392     -137160.04    
    727700   2521.9311      15480.892      4280.6726     -137159.53    
    727800   2458.0015     -514.58689      4375.7855     -137159.68    
    727900   2301.8043     -7403.2232      4472.1108     -137158.42    
    728000   2399.1386     -15944.895      4515.1022     -137157.48    
    728100   2619.2406     -10057.716      4462.0388     -137161.17    
    728200   2379.2972      889.68796      4350.736      -137156.68    
    728300   2633.9529      4947.276       4254.4255     -137164.77    
    728400   2456.7613      11192.495      4220.305      -137167.73    
    728500   2304.2611     -2703.3174      4243.3923     -137167.77    
    728600   2447.2243     -3121.815       4266.7708     -137166.53    
    728700   2512.1355      6284.2285      4301.1502     -137163.49    
    728800   2609.9267     -6870.6677      4360.0753     -137163.04    
    728900   2575.2604     -5089.5141      4411.5379     -137159.13    
    729000   2501.735      -3903.3153      4449.4792     -137155.14    
    729100   2669.0854     -5778.6879      4466.5499     -137156.87    
    729200   2610.2071      3880.4008      4468.3517     -137152.68    
    729300   2666.5937     -5571.63        4492.9066     -137156.67    
    729400   2416.128      -9493.1872      4487.089      -137157.1     
    729500   2424.8034      2401.0307      4438.1166     -137157.53    
    729600   2675.7643      3285.8817      4405.6973     -137161.87    
    729700   2699.7687      978.12643      4408.3677     -137158.07    
    729800   2550.9915     -2466.636       4422.6919     -137156.58    
    729900   2516.2649     -5355.7825      4423.4962     -137161.03    
    730000   2505.9458     -9915.6914      4394.5984     -137159.68    
    730100   2847.0102      231.45986      4324.4309     -137162.31    
    730200   2692.2718      12018.809      4281.0307     -137156.83    
    730300   2476.6003     -798.48853      4311.6318     -137161.73    
    730400   2481.5373     -7140.1672      4373.3803     -137162.76    
    730500   2398.9291     -1331.8257      4432.3164     -137155.98    
    730600   2601.6699     -3401.0188      4496.0676     -137156.48    
    730700   2398.4806     -13080.333      4542.1874     -137153.78    
    730800   2308.298      -7447.1198      4493.5401     -137161.62    
    730900   2302.1131     -767.82985      4376.4793     -137161.59    
    731000   2572.1047      17924.592      4258.539      -137163.53    
    731100   2694.2339      3065.0897      4227.3107     -137166.88    
    731200   2437.0623      10938.821      4243.5412     -137162.44    
    731300   2292.9448      9459.0841      4306.5036     -137158.71    
    731400   2553.565      -318.64494      4384.6517     -137155.32    
    731500   2645.1397     -5237.7959      4437.6654     -137152.81    
    731600   2505.1456     -5498.1552      4452.7037     -137154.8     
    731700   2466.0308     -6222.3249      4425.1403     -137161.44    
    731800   2264.4179      4250.4754      4365.5998     -137158.82    
    731900   2623.2699     -2778.799       4308.2977     -137166.27    
    732000   2506.7101      6485.8003      4259.6099     -137162.54    
    732100   2454.6712      6973.8243      4262.8663     -137165.82    
    732200   2277.7018     -1533.5317      4309.5938     -137164.01    
    732300   2397.3356      7370.1122      4342.9954     -137159.85    
    732400   2496.6522      18.076105      4397.7231     -137157.07    
    732500   2519.7193     -335.46888      4456.8175     -137157.01    
    732600   2459.2256     -1061.5969      4492.2013     -137158.79    
    732700   2286.8152     -10451.004      4495.8092     -137159.38    
    732800   2414.1879      7889.2024      4436.4598     -137159.06    
    732900   2715.1992     -5473.6528      4384.9222     -137157.99    
    733000   2624.4023      5556.1308      4314.6132     -137159.69    
    733100   2422.1203      6517.8553      4280.7801     -137160.71    
    733200   2462.1305      6205.9913      4283.8413     -137162.49    
    733300   2568.3499     -5033.6391      4335.2392     -137163.61    
    733400   2672.0703     -12843.785      4368.925      -137158.63    
    733500   2770.4092      12915.077      4332.0104     -137156.51    
    733600   2562.9517      6088.2587      4344.2236     -137160.39    
    733700   2497.1308     -3341.0933      4417.1082     -137161.41    
    733800   2485.5066     -16219.229      4489.0372     -137159.42    
    733900   2625.1901     -164.37549      4479.6779     -137156.96    
    734000   2617.6489      1091.7904      4456.7742     -137157.41    
    734100   2341.4147     -7437.5409      4455.0189     -137160.98    
    734200   2335.1955      473.78001      4399.9857     -137161.79    
    734300   2645.7477      9854.1355      4318.2598     -137166.04    
    734400   2565.4357      5505.7211      4292.0009     -137161.54    
    734500   2577.6565      5155.1696      4304.4788     -137164.78    
    734600   2242.0069     -8097.6187      4331.6019     -137163.17    
    734700   2329.4129      12860.124      4308.3561     -137161.67    
    734800   2562.9327      3575.62        4347.2764     -137161.54    
    734900   2481.1219     -6035.3668      4433.8513     -137158.36    
    735000   2572.7697     -12485.453      4466.3734     -137157.75    
    735100   2732.6798      334.49817      4427.5571     -137157.32    
    735200   2485.2236      131.8286       4396.8766     -137160.7     
    735300   2473.5265     -2493.665       4387.6712     -137164.02    
    735400   2487.2168      10326.701      4370.0936     -137162.33    
    735500   2620.8064     -11456.617      4376.4596     -137163.96    
    735600   2523.1671      6259.1706      4377.8017     -137156.59    
    735700   2790.6901      71.298769      4416.9701     -137157.25    
    735800   2459.9993     -2049.4074      4488.6071     -137154.84    
    735900   2496.7748     -15715.212      4535.0609     -137160.61    
    736000   2339.5455      5401.7335      4484.9466     -137154.18    
    736100   2537.9653      9936.5203      4419.1042     -137155.16    
    736200   2616.033       4003.4243      4390.7067     -137156.67    
    736300   2397.5491     -7437.1963      4390.6294     -137160.97    
    736400   2314.0071     -3619.7229      4364.8452     -137161.61    
    736500   2478.0307     -8270.5049      4309.8626     -137160.93    
    736600   2650.763       7681.6951      4243.2622     -137162.81    
    736700   2529.5297      3679.3554      4236.8225     -137162.34    
    736800   2404.2962     -4596.276       4257.0164     -137167       
    736900   2310.8877      7349.6669      4271.3147     -137170.17    
    737000   2203.4967     -4164.5893      4306.6077     -137163.31    
    737100   2608.6397     -5496.819       4322.9118     -137168.21    
    737200   2588.4182      6978.6426      4357.5995     -137163.29    
    737300   2499.8032     -8693.7806      4444.8673     -137160.03    
    737400   2471.4687      1892.5651      4491.2444     -137158.01    
    737500   2604.1677      5211.7662      4520.5018     -137157.18    
    737600   2694.4305     -19432.321      4582.8282     -137154.25    
    737700   2796.6936     -3149.4736      4577.7666     -137153.65    
    737800   2396.3868     -14350.974      4545.8064     -137152.23    
    737900   2461.6651     -718.62957      4409.7119     -137158.82    
    738000   2620.409       3246.7695      4240.6621     -137163.54    
    738100   2413.5208      13621.929      4124.8116     -137163.87    
    738200   2291.0126      17031.302      4085.5847     -137165.54    
    738300   2432.1849      15052.03       4124.9951     -137168.66    
    738400   2356.2066     -3610.9352      4230.1884     -137164.21    
    738500   2517.3299      1490.4852      4331.6147     -137161.92    
    738600   2438.1498     -3790.3716      4434.6513     -137155.32    
    738700   2583.8464     -6456.9204      4497.6917     -137155.77    
    738800   2473.7873     -846.07941      4513.4113     -137151.06    
    738900   2592.2719     -12443.84       4494.4958     -137153.74    
    739000   2533.9701     -967.42837      4424.2756     -137155.26    
    739100   2389.1926     -1722.5371      4342.1905     -137159.17    
    739200   2364.7319      7337.7617      4263.8822     -137163.15    
    739300   2397.2798      10374.499      4241.3488     -137164.99    
    739400   2416.5126      16588.625      4289.7272     -137159.59    
    739500   2705.756      -886.81233      4380.3194     -137158.83    
    739600   2543.3431     -1411.891       4456.483      -137156.32    
    739700   2445.8362     -16038.484      4494.9183     -137157.88    
    739800   2440.9984     -12594.022      4432.2698     -137161.19    
    739900   2488.5882      1622.4117      4304.3616     -137167.86    
    740000   2292.1083      7281.5194      4219.6012     -137170.46    
    740100   2357.8937      10495.707      4199.5659     -137168.26    
    740200   2324.5153      6196.5621      4247.473      -137160.76    
    740300   2523.1221     -5971.8487      4332.14       -137163.15    
    740400   2429.5609     -10075.138      4390.3142     -137158.37    
    740500   2553.8089      737.16351      4409.4075     -137155.32    
    740600   2737.8709      3828.843       4417.2019     -137155.9     
    740700   2429.4706      50.116444      4427.0732     -137158.5     
    740800   2402.6593     -6893.1027      4422.4497     -137161.96    
    740900   2448.7837      5793.2691      4381.756      -137158.42    
    741000   2617.7611      5039.448       4337.7368     -137159.13    
    741100   2633.6891     -3539.7722      4336.9802     -137163.42    
    741200   2274.7998     -2646.8187      4372.7246     -137160.47    
    741300   2307.8292     -3569.8341      4407.9694     -137159.26    
    741400   2497.6719      6048.9225      4419.6283     -137152.77    
    741500   2691.1957     -1066.8113      4441.4581     -137159.06    
    741600   2461.7011     -212.83735      4463.3787     -137159.07    
    741700   2323.3835     -4064.054       4490.1273     -137159.18    
    741800   2385.6906     -9673.4582      4476.1711     -137159.2     
    741900   2743.4649      1007.7704      4400.0233     -137158.71    
    742000   2723.9258      5416.24        4323.1117     -137158.99    
    742100   2557.4073      5820.7366      4290.1688     -137160.71    
    742200   2357.061       8825.5595      4302.2295     -137160.31    
    742300   2401.6579     -3075.8153      4343.5892     -137160.37    
    742400   2593.8256     -5328.1095      4363.8064     -137161.05    
    742500   2580.1602      5154.6784      4357.9433     -137156.12    
    742600   2972.4356     -74.383023      4368.4631     -137159.45    
    742700   2421.9639     -2666.4495      4392.871      -137156.29    
    742800   2326.9561      434.6957       4385.4879     -137157.92    
    742900   2528.7634     -3465.5213      4358.2227     -137161.81    
    743000   2604.7917     -570.68282      4328.8391     -137159.47    
    743100   2890.8346      2623.5589      4321.9391     -137164.13    
    743200   2384.7952      5196.1973      4363.5335     -137160.37    
    743300   2139.6248     -3546.9335      4418.8047     -137155.85    
    743400   2384.6638     -8915.433       4432.8784     -137155.65    
    743500   2745.037      -1625.0191      4402.1968     -137160.79    
    743600   2685.9033      1829.7442      4350.5334     -137163.34    
    743700   2454.4507     -2800.3536      4297.6027     -137164.12    
    743800   2376.7289      7338.9463      4253.9442     -137160.62    
    743900   2354.0006      5674.3766      4242.7837     -137156.39    
    744000   2568.258       8581.4988      4258.6063     -137160.97    
    744100   2396.884       121.90807      4327.9375     -137160.87    
    744200   2162.1783     -7211.547       4388.7172     -137160.03    
    744300   2317.1651     -2332.5453      4386.1942     -137158.44    
    744400   2482.0492      3588.0294      4340.0766     -137157.3     
    744500   2545.9614      14610.111      4285.9321     -137161.02    
    744600   2406.7819      128.02397      4289.174      -137163.37    
    744700   2343.9375      3012.4444      4311.8803     -137162.41    
    744800   2427.0895      6612.1049      4365.94       -137160.48    
    744900   2418.4692     -3750.7396      4437.846      -137157.86    
    745000   2466.5222     -5412.3181      4455.0409     -137157.21    
    745100   2599.5725      2374.4579      4424.7638     -137157.89    
    745200   2547.7159      1536.6369      4418.4972     -137158.77    
    745300   2419.9479     -17487.273      4419.0388     -137163.05    
    745400   2238.1147      9863.3674      4338.596      -137158.56    
    745500   2813.4457      7709.905       4265.84       -137166.12    
    745600   2671.2486      8548.5788      4252.2618     -137159.87    
    745700   2330.439       6007.8235      4295.1986     -137154.88    
    745800   2579.2413      3510.2613      4364.1186     -137161.99    
    745900   2350.1836     -6232.9717      4446.4215     -137155.87    
    746000   2628.0532     -16324.891      4459.2184     -137158.37    
    746100   2744.623       936.80529      4392.6484     -137157.21    
    746200   2619.2704      6675.6743      4335.6728     -137161.73    
    746300   2571.1302     -5394.9561      4328.8832     -137164.06    
    746400   2337.216      -1107.8597      4336.2513     -137158.57    
    746500   2459.9988      4162.5084      4336.4566     -137158.55    
    746600   2677.2757     -91.583241      4345.8542     -137161.59    
    746700   2532.329      -9103.5265      4358.4698     -137159.44    
    746800   2425.4997     -778.11578      4323.2457     -137161.34    
    746900   2378.3539      9646.7215      4290.2868     -137164.32    
    747000   2324.1403      1166.311       4301.5143     -137162.77    
    747100   2636.5453     -3926.4222      4329.4265     -137161.3     
    747200   2567.5994      12435.237      4371.1298     -137157.53    
    747300   2354.7943     -8072.6478      4472.5713     -137155.9     
    747400   2611.1238     -16718.096      4537.0166     -137163.92    
    747500   2444.5065     -5007.1612      4511.4135     -137157.47    
    747600   2664.2318     -5258.3258      4421.2338     -137157.8     
    747700   2653.9921     -2040.0433      4327.7856     -137155.54    
    747800   2732.4092      11475.58       4237.6709     -137165.49    
    747900   2409.9335      15494.451      4222.0017     -137164.36    
    748000   2414.9437     -2213.1841      4312.1294     -137163.85    
    748100   2550.0141     -4472.5306      4427.5121     -137161.02    
    748200   2552.0626     -11085.852      4511.6859     -137157.65    
    748300   2407.303      -7107.8718      4518.255      -137155.22    
    748400   2243.6687     -1540.5917      4436.5791     -137159.55    
    748500   2338.3933      6423.577       4322.5693     -137162.63    
    748600   2709.7001      15832.621      4240.7391     -137165.14    
    748700   2616.9969     -1297.3135      4256.2155     -137162.5     
    748800   2343.4195      4331.2992      4293.7443     -137161.48    
    748900   2121.6389     -7881.604       4326.9221     -137163.26    
    749000   2541.1278      3694.7862      4316.6159     -137166.23    
    749100   2500.1838      6511.4217      4325.3973     -137162.2     
    749200   2525.2668      734.72682      4360.4351     -137162.25    
    749300   2516.3586     -9329.9786      4379.7914     -137160.06    
    749400   2500.752       15328.407      4368.5675     -137157.39    
    749500   2470.261      -2525.2885      4403.4298     -137156.97    
    749600   2372.9479     -1760.4879      4417.3508     -137157.81    
    749700   2392.5049     -9251.9107      4397.3912     -137161.03    
    749800   2559.4088      13241.137      4331.0283     -137163.12    
    749900   2598.7649      10784.561      4313.0607     -137160.18    
    750000   2494.4236      5926.2429      4360.8761     -137157.75    
    750100   2333.0155     -7198.9573      4425.264      -137158.41    
    750200   2458.2011      1396.9441      4448.4214     -137160.72    
    750300   2641.2262      4628.7091      4466.2092     -137158.84    
    750400   2689.7966     -4091.2207      4473.7816     -137156.26    
    750500   2513.8703     -1855.7428      4423.6617     -137159.67    
    750600   2330.5079     -9318.993       4370.4302     -137160.18    
    750700   2465.563       13958.733      4281.8486     -137161.77    
    750800   2631.5538      12076.691      4252.0111     -137162.64    
    750900   2434.499       6458.0329      4309.8978     -137158.88    
    751000   2399.2297     -18193.064      4385.5668     -137165.22    
    751100   2171.7195     -7209.683       4373.5618     -137159.28    
    751200   2503.8719      10295.607      4313.1674     -137158.86    
    751300   2677.6362      3974.1976      4285.0744     -137161.72    
    751400   2586.9814      5193.1095      4298.2604     -137161.58    
    751500   2316.7186     -2312.4718      4324.8058     -137160.12    
    751600   2465.9305     -1188.5858      4339.0291     -137165.57    
    751700   2574.312      -2621.4407      4351.6811     -137159.85    
    751800   2782.2886     -4261.2832      4340.4504     -137161.34    
    751900   2574.5007      14759.054      4330.0668     -137160.32    
    752000   2358.281      -7019.8073      4371.3943     -137159.57    
    752100   2342.0974     -2709.2552      4389.8525     -137158.62    
    752200   2662.6418     -5065.2442      4386.0801     -137155.77    
    752300   2678.5544      8965.4564      4346.6009     -137153.84    
    752400   2624.3945      5620.8209      4339.063      -137161.03    
    752500   2426.2315     -10518.797      4377.7462     -137161.98    
    752600   2317.5927      1122.379       4380.5167     -137158.91    
    752700   2666.7681      2403.0263      4368.3887     -137161.99    
    752800   2544.6594     -1718.1891      4364.4917     -137157.35    
    752900   2452.9543     -10480.685      4354.2046     -137162.62    
    753000   2127.0447      3997.2103      4302.8348     -137159.65    
    753100   2619.3816      8163.8813      4259.3413     -137166.95    
    753200   2497.6279      13422.942      4270.0943     -137161.74    
    753300   2463.2053     -6926.7582      4357.5135     -137160.53    
    753400   2448.234       548.91908      4428.5243     -137154.09    
    753500   2794.1407     -6029.2263      4477.1402     -137156.02    
    753600   2499.4886     -13221.437      4500.9984     -137151.91    
    753700   2563.1339     -4997.5416      4443.8671     -137160.39    
    753800   2647.2952     -3900.3419      4343.4125     -137164.22    
    753900   2704.9908      6580.6185      4235.323      -137167.53    
    754000   2473.6111      6222.9007      4191.9035     -137164.82    
    754100   2484.2781      10928.444      4207.5858     -137164.88    
    754200   2442.5151      5494.6153      4281.6196     -137161.28    
    754300   2626.6605      6173.8896      4370.3633     -137155.01    
    754400   2699.6962     -503.89487      4449.8804     -137153.92    
    754500   2545.1224     -11104.02       4492.1164     -137156.36    
    754600   2488.069      -6969.0003      4450.1898     -137159.66    
    754700   2415.4128      6323.2156      4363.8214     -137159.84    
    754800   2452.4362      3622.5104      4294.3379     -137160.26    
    754900   2680.8878      13164.8        4266.352      -137164.89    
    755000   2436.7252      3198.4928      4310.7358     -137159.31    
    755100   2449.7112     -4312.9575      4370.1291     -137163.24    
    755200   2288.6127     -7219.6988      4406.0283     -137160.43    
    755300   2557.3579      7762.0831      4402.9989     -137161.1     
    755400   2662.4404      1062.7511      4410.1408     -137161.25    
    755500   2474.0971     -998.92294      4424.8287     -137161.64    
    755600   2174.2707     -5321.4447      4441.7542     -137160.92    
    755700   2394.0955     -6038.3033      4412.1577     -137162.52    
    755800   2528.3599      2040.407       4356.1884     -137161.8     
    755900   2464.7457      18817.946      4324.7534     -137160.84    
    756000   2401.5388      7125.6243      4381.3598     -137160.59    
    756100   2398.7641     -5637.8671      4437.1043     -137159.21    
    756200   2589.0493      4041.3408      4454.9561     -137158.66    
    756300   2656.0723     -8261.1066      4494.2684     -137155.57    
    756400   2563.9541     -8675.7013      4508.2414     -137158.03    
    756500   2311.9581     -2380.3012      4478.3651     -137158.68    
    756600   2388.9322     -399.66139      4414.5426     -137158.14    
    756700   2496.6965     -427.11806      4335.8287     -137157.75    
    756800   2684.4641      9365.8894      4243.59       -137164.22    
    756900   2379.9146     -916.50393      4214.2008     -137162.51    
    757000   2446.8284      3253.168       4214.6314     -137164.45    
    757100   2497.1876      5042.2897      4254.253      -137164.06    
    757200   2494.9169     -4590.9739      4321.5774     -137162.42    
    757300   2348.3305      400.11722      4370.4973     -137155.47    
    757400   2670.4739      2493.1154      4415.4539     -137155.34    
    757500   2726.4428     -4204.3148      4452.3468     -137156.76    
    757600   2505.1412     -6247.4919      4470.6088     -137157.32    
    757700   2511.1007      245.40014      4450.4591     -137158.98    
    757800   2533.2335     -4706.4304      4422.851      -137160.7     
    757900   2676.8955      307.20539      4394.3003     -137162.11    
    758000   2593.2517     -4576.4421      4359.4103     -137158.58    
    758100   2424.5409     -1533.7946      4301.694      -137161.47    
    758200   2361.2755      5976.5968      4242.664      -137164.95    
    758300   2385.735       9632.8877      4222.5061     -137165.03    
    758400   2586.3548      3081.3578      4268.479      -137163.31    
    758500   2746.5211     -1861.5621      4334.6224     -137158.51    
    758600   2657.5323     -4509.1493      4418.9197     -137157.96    
    758700   2510.0463     -9078.5123      4488.5063     -137156.96    
    758800   2488.469      -455.50715      4507.8244     -137158.91    
    758900   2293.9669      1546.7483      4510.2412     -137157.14    
    759000   2376.5239     -12000.685      4502.3008     -137156.03    
    759100   2721.9544     -43.130568      4430.0986     -137157.23    
    759200   2471.6045      9378.0257      4359.0611     -137154.87    
    759300   2390.8204      4101.0901      4352.4898     -137158.41    
    759400   2384.6743      1778.8693      4385.5134     -137160.33    
    759500   2636.0331     -853.9032       4405.82       -137163.81    
    759600   2732.1761     -8700.6267      4391.6714     -137158.73    
    759700   2799.7146      132.28736      4351.7327     -137159.69    
    759800   2471.0928     -1841.0765      4320.4333     -137162.01    
    759900   2513.4615      1753.5788      4282.9253     -137165.87    
    760000   2476.3821     -3114.1517      4253.8851     -137165.27    
    760100   2616.9688      4084.1561      4237.1496     -137166.06    
    760200   2677.4941      679.99338      4279.2313     -137163.74    
    760300   2556.7036     -4517.5581      4331.4087     -137162.94    
    760400   2257.7979      766.05319      4357.405      -137161.45    
    760500   2373.5969     -5906.0673      4351.4523     -137162.93    
    760600   2634.4489      2719.7062      4315.9917     -137161.04    
    760700   2775.0898      2916.4205      4311.4859     -137163.83    
    760800   2625.5336     -6864.3364      4365.4285     -137163.86    
    760900   2400.0553     -8224.0372      4416.5131     -137158.69    
    761000   2633.8091      4020.9937      4404.8169     -137160.33    
    761100   2983.1319      11433.587      4421.5565     -137162.22    
    761200   2654.8543     -5729.3461      4522.5914     -137155.58    
    761300   2299.2947     -7305.6775      4588.8952     -137153.33    
    761400   2417.2823     -3107.8972      4577.878      -137155.66    
    761500   2615.0045     -4553.2056      4513.6679     -137155.97    
    761600   2866.147       9008.1217      4421.7541     -137159.22    
    761700   2312.0327      448.14874      4393.3735     -137157.45    
    761800   2317.8349      6663.9331      4373.8281     -137158.32    
    761900   2570.5044      3738.1319      4382.8517     -137158.94    
    762000   2656.006      -3061.1623      4417.896      -137160.59    
    762100   2447.878      -5148.611       4447.2585     -137160.48    
    762200   2263.5281     -9557.5769      4437.7404     -137155.38    
    762300   2723.4021      1932.2821      4349.6909     -137157.42    
    762400   2673.1594      11927.528      4272.7352     -137159.69    
    762500   2595.8538     -7032.7414      4255.5216     -137164.71    
    762600   2382.2374      17435.064      4251.4991     -137163.99    
    762700   2424.6058      7229.3287      4315.858      -137165.62    
    762800   2544.7978     -1472.3157      4389.3165     -137161.72    
    762900   2614.4501      753.1226       4450.7288     -137156.33    
    763000   2646.3472     -15420.835      4492.3571     -137157.96    
    763100   2330.9484      4967.9663      4461.3218     -137153.73    
    763200   2397.7545      1925.5372      4415.333      -137154.69    
    763300   2701.1314      11254.925      4370.4093     -137157.14    
    763400   2743.8893     -1924.1045      4399.0437     -137155.98    
    763500   2535.7354      1697.2249      4446.4961     -137159.87    
    763600   2302.6868     -1133.2064      4483.8688     -137157.21    
    763700   2474.5796     -11671.545      4481.6968     -137157.94    
    763800   2661.5208     -10454.737      4431.4768     -137156.49    
    763900   2750.4272      6745.2529      4339.8929     -137159.87    
    764000   2742.9643      7092.5326      4282.2164     -137165.84    
    764100   2473.9963      5744.6933      4283.1507     -137163.3     
    764200   2413.5298     -1672.078       4334.5971     -137163.13    
    764300   2425.1858     -5358.0379      4394.6524     -137158.27    
    764400   2696.8202     -3951.1477      4411.9622     -137158.86    
    764500   2502.0999      10444.33       4394.2613     -137155.08    
    764600   2456.9113     -1775.3603      4398.576      -137157.2     
    764700   2641.5882     -4617.8062      4400.1258     -137162.23    
    764800   2674.5345     -1951.7557      4394.0005     -137163.95    
    764900   2453.5674      1611.0417      4391.3428     -137162.87    
    765000   2227.6819     -6784.9286      4367.8554     -137164.08    
    765100   2381.3548      6007.5002      4294.6227     -137163.76    
    765200   2718.1298      14603.003      4253.5799     -137164.82    
    765300   2577.0986     -2959.4221      4304.0092     -137165.55    
    765400   2401.1736     -8515.9606      4354.2697     -137165.67    
    765500   2287.7139     -3755.1358      4361.0945     -137163.16    
    765600   2532.4227     -7855.4188      4342.2431     -137162.12    
    765700   2615.8166      13896.412      4288.3753     -137159.47    
    765800   2477.4036      13271.156      4294.0944     -137159.78    
    765900   2170.9491     -1646.4242      4352.61       -137154.75    
    766000   2530.4094      3194.4674      4397.8026     -137161.78    
    766100   2439.6471     -571.10186      4451.6221     -137158.57    
    766200   2506.8367     -2429.8634      4492.4927     -137159.81    
    766300   2491.8829     -9247.6078      4485.5827     -137159.4     
    766400   2444.2822      1292.5852      4411.2016     -137158.09    
    766500   2587.578      -46.61701       4323.4974     -137162.12    
    766600   2384.8472      14590.092      4243.7667     -137159.51    
    766700   2379.724       8214.0317      4242.2963     -137163.55    
    766800   2150.727      -11189.405      4310.6295     -137164.29    
    766900   2296.6137      10194.603      4334.0351     -137161.74    
    767000   2647.4734     -4006.7672      4381.1607     -137164.91    
    767100   2481.0218     -9838.8117      4443.4871     -137158.06    
    767200   2589.8398     -6944.2504      4468.4766     -137158.18    
    767300   2561.1446     -5694.451       4443.4198     -137159.81    
    767400   2451.9416     -5665.4405      4400.5393     -137163.89    
    767500   2497.7756     -4240.817       4348.7823     -137166.94    
    767600   2671.9116      4699.4663      4280.4166     -137166.21    
    767700   2781.4544      6612.7251      4270.2791     -137161.56    
    767800   2487.0326      6302.1955      4325.217      -137159.08    
    767900   2271.9925     -1459.1708      4394.7679     -137159.25    
    768000   2463.0289     -9476.1545      4430.3627     -137162.41    
    768100   2579.3782     -5396.9468      4420.8421     -137159.86    
    768200   2841.1019     -6219.1268      4393.0689     -137163.9     
    768300   2560.7501      3765.058       4362.0905     -137162.04    
    768400   2320.534       3959.2169      4369.1856     -137155.87    
    768500   2412.8596     -7467.2102      4380.6256     -137155.74    
    768600   2759.0096     -1506.6395      4364.8195     -137161.44    
    768700   2450.2154      763.55477      4371.5753     -137158.06    
    768800   2278.2827     -8351.2853      4387.1627     -137162.49    
    768900   2385.1054     -5430.2812      4338.4376     -137162.85    
    769000   2665.4888      14401.35       4263.4637     -137165.47    
    769100   2451.1112      4382.3339      4278.8072     -137160.14    
    769200   2261.6052      3511.7206      4307.7255     -137160.57    
    769300   2164.1206     -4945.4851      4313.0896     -137163.65    
    769400   2413.4131      3944.6879      4267.815      -137162.64    
    769500   2500.1716      9208.7634      4233.9742     -137160.97    
    769600   2619.1167     -5034.5249      4248.5154     -137162.29    
    769700   2540.1         7420.4799      4265.0711     -137160.99    
    769800   2509.727      -1606.1688      4327.2245     -137166.96    
    769900   2234.4763     -12475.628      4402.4849     -137162.07    
    770000   2319.1999      1129.4233      4430.7988     -137155.99    
    770100   2563.0257     -3176.2657      4433.716      -137158.93    
    770200   2647.3317     -3612.8177      4433.7127     -137159.35    
    770300   2505.6894     -1783.4361      4422.9082     -137157       
    770400   2387.8291     -5964.5297      4385.452      -137158.67    
    770500   2323.1986      9790.0261      4312.0842     -137162.7     
    770600   2482.1341      6503.6974      4285.4955     -137163.89    
    770700   2801.99        6241.4931      4290.0035     -137163.45    
    770800   2667.8548     -2297.5737      4323.6163     -137161.86    
    770900   2458.4718      1457.4589      4375.2529     -137158.27    
    771000   2502.1085     -8840.6701      4420.7565     -137158.56    
    771100   2457.5438      9606.3621      4400.5598     -137153.74    
    771200   2871.0933     -6677.8831      4374.3114     -137158.65    
    771300   2836.2033      9341.7309      4356.4464     -137160.5     
    771400   2317.3248     -4944.9732      4404.7277     -137157.2     
    771500   2479.2783     -8596.3064      4433.73       -137158.72    
    771600   2733.2694     -4959.0249      4415.2735     -137160.02    
    771700   2669.5944      4179.4403      4384.1955     -137160.54    
    771800   2336.2893     -7452.5861      4394.9855     -137158.25    
    771900   2474.7747     -3441.0464      4367.3135     -137161.33    
    772000   2764.9336      5026.7312      4318.3311     -137157.03    
    772100   2705.15        6363.6885      4294.7027     -137158.78    
    772200   2435.2865     -5449.4945      4293.8348     -137155.87    
    772300   2646.6179      13784.875      4259.4989     -137163.69    
    772400   2364.1808     -1089.823       4276.5845     -137163.27    
    772500   2246.2939     -828.76872      4301.4133     -137160.96    
    772600   2503.0122      2933.4606      4316.0334     -137164.18    
    772700   2443.0236     -4851.095       4363.0803     -137160.21    
    772800   2498.265      -6370.6087      4394.8939     -137159.02    
    772900   2496.0035     -2950.2399      4390.8165     -137155.82    
    773000   2585.9078      2402.9329      4346.0803     -137158.21    
    773100   2407.6876      2429.1665      4300.3266     -137164.21    
    773200   2282.4326      9860.0547      4287.0934     -137163.25    
    773300   2428.5106     -4973.6759      4336.0471     -137162.13    
    773400   2430.4049      492.52772      4365.0183     -137155.36    
    773500   2664.4453      4981.05        4358.8486     -137161.11    
    773600   2569.1425      2246.8064      4366.9881     -137161.63    
    773700   2459.3087      1412.0811      4398.3058     -137160.53    
    773800   2412.1554     -4603.9022      4434.2101     -137157.81    
    773900   2656.3637      2295.6691      4427.8169     -137154.86    
    774000   2863.2038      6678.5283      4412.2185     -137155.28    
    774100   2617.9608     -2133.4937      4418.7461     -137157.44    
    774200   2379.3285     -1702.5648      4411.7898     -137157.83    
    774300   2451.6273      3434.6875      4376.3511     -137163.17    
    774400   2555.5679      8545.8192      4344.6014     -137164.1     
    774500   2569.9088      1369.2402      4354.3304     -137158.05    
    774600   2598.9937      905.27857      4376.1462     -137156.42    
    774700   2524.1855     -3808.7692      4406.1463     -137157.02    
    774800   2433.0243      6556.8423      4394.1474     -137160.83    
    774900   2363.9874     -5310.9314      4375.8305     -137160.68    
    775000   2367.7094      770.68981      4351.2571     -137158.44    
    775100   2544.6165      17512.627      4320.964      -137154.24    
    775200   2573.2507      4301.2003      4334.2238     -137154.91    
    775300   2561.7183     -1845.0762      4382.883      -137161.07    
    775400   2303.0822     -7337.0389      4440.8753     -137156.21    
    775500   2389.1466     -407.04085      4461.3796     -137155.81    
    775600   2621.1877     -3145.119       4460.1118     -137158.35    
    775700   2517.0089      6978.3648      4458.9813     -137157.31    
    775800   2336.8161     -18532.915      4473.6823     -137161.73    
    775900   2469.4855     -4693.7948      4419.5066     -137165.09    
    776000   2489.5299      7154.0562      4349.9548     -137161.85    
    776100   2589.8649     -6404.7532      4317.1945     -137162.77    
    776200   2530.4613      10294.413      4285.3211     -137162.7     
    776300   2445.3008      6586.7937      4293.6635     -137167.03    
    776400   2261.8699     -6524.1201      4345.7979     -137163.81    
    776500   2600.8019     -1313.1807      4379.3197     -137162.6     
    776600   2526.1694     -720.78615      4411.8638     -137159.91    
    776700   2390.0462      2086.4789      4467.2259     -137156.33    
    776800   2547.6808     -7338.6252      4520.3632     -137155.44    
    776900   2686.3977     -2671.6151      4510.9104     -137154.77    
    777000   2536.0956     -2727.0313      4472.0719     -137154.09    
    777100   2477.1112     -3869.3236      4413.6285     -137162.11    
    777200   2559.7231     -5338.5048      4323.5583     -137166.23    
    777300   2454.2461      9981.5479      4223.9251     -137161.8     
    777400   2594.3953      7480.9598      4181.0058     -137163.06    
    777500   2756.1726      17484.14       4206.1101     -137163.78    
    777600   2408.9882     -9035.1173      4306.3954     -137162.67    
    777700   2240.476      -3929.1846      4363.7267     -137159.45    
    777800   2540.1147      5075.4234      4380.5614     -137160.43    
    777900   2493.7552      1738.266       4430.1864     -137156.72    
    778000   2499.8953     -1827.7843      4494.2389     -137157.8     
    778100   2436.1697     -10333.793      4534.2985     -137160.07    
    778200   2337.334      -13420.686      4509.901      -137163.26    
    778300   2293.5056      126.52809      4427.1243     -137157.22    
    778400   2679.4852      7918.5341      4327.6992     -137160.43    
    778500   2505.0591      21095.03       4278.1134     -137160.77    
    778600   2463.0184      2227.8055      4340.4172     -137165.63    
    778700   2376.7112     -8098.2502      4424.7028     -137161.76    
    778800   2428.6547     -5802.2369      4455.3602     -137155.49    
    778900   2693.3899     -982.22482      4431.5048     -137160.87    
    779000   2574.9122      3683.1967      4394.372      -137162.79    
    779100   2353.9824     -7210.6058      4360.8338     -137161.62    
    779200   2485.7846      3532.438       4298.1417     -137164.34    
    779300   2781.3357      2373.2029      4267.5599     -137163.47    
    779400   2776.8284      7833.6148      4275.4085     -137161.4     
    779500   2494.7004      1191.3398      4328.9172     -137159.71    
    779600   2478.45       -8257.3373      4390.2738     -137163.05    
    779700   2516.443      -4398.0926      4390.1943     -137164.94    
    779800   2467.1518     -1823.7581      4347.7988     -137160.2     
    779900   2703.102      -3709.7633      4294.217      -137159.33    
    780000   2738.495       1374.1748      4236.3806     -137165.16    
    780100   2516.5421      365.92874      4238.0687     -137166.89    
    780200   2367.7975     -244.28651      4279.0479     -137162.16    
    780300   2562.4813      1924.1369      4327.3073     -137163.44    
    780400   2554.422      -2251.8882      4399.1393     -137158.91    
    780500   2686.6933     -6993.577       4453.1521     -137157.12    
    780600   2691.081      -5445.9041      4466.4844     -137154.07    
    780700   2462.4214      444.2215       4435.6821     -137156.47    
    780800   2349.2697     -2251.1836      4400.4288     -137157.42    
    780900   2486.31       -5524.6221      4358.4106     -137160.03    
    781000   2486.8351      11879.643      4291.2482     -137158.32    
    781100   2598.8037      15860.85       4250.4449     -137161.09    
    781200   2403.3243      7422.3157      4278.8114     -137163.37    
    781300   2223.9017     -6016.5505      4331.6961     -137161.44    
    781400   2420.9699      3890.2131      4348.5845     -137159.12    
    781500   2503.6271      859.15271      4351.1417     -137156.92    
    781600   2529.5223     -197.64362      4362.7904     -137157.51    
    781700   2539.648      -7096.7611      4357.0405     -137162.64    
    781800   2271.7719      1790.8438      4339.2097     -137160.95    
    781900   2404.2146      7517.2171      4337.0646     -137159.6     
    782000   2819.8225     -2180.1304      4364.8706     -137162.21    
    782100   2671.0703     -7542.9734      4406.3761     -137158.53    
    782200   2512.6705     -6997.0835      4413.9968     -137160.93    
    782300   2345.6672     -1238.8971      4387.1708     -137160.81    
    782400   2625.2605      27.428994      4330.7619     -137167.06    
    782500   2553.7536      3993.0557      4291.5448     -137162.91    
    782600   2378.8777      1912.2027      4277.6466     -137161.72    
    782700   2324.3024     -6396.0743      4283.8923     -137162.85    
    782800   2608.8316      1003.6668      4284.4637     -137163.28    
    782900   2729.9576     -8577.997       4307.7816     -137161.17    
    783000   2528.3852      165.80415      4310.7544     -137159.31    
    783100   2363.9928      732.05267      4299.8457     -137161.25    
    783200   2518.3526      4765.5857      4280.6665     -137165.48    
    783300   2432.8604      12435.818      4281.6802     -137163.05    
    783400   2532.4595     -2422.1971      4336.6652     -137164.38    
    783500   2402.1882      6893.2213      4377.522      -137160.45    
    783600   2422.5065     -6336.6065      4432.4318     -137158.94    
    783700   2509.9646     -2784.963       4460.2358     -137157.18    
    783800   2515.8117      5713.292       4457.4061     -137151.87    
    783900   2627.6765     -1871.6334      4447.5323     -137154.96    
    784000   2704.6941     -2830.8901      4444.689      -137159.57    
    784100   2436.8401     -10476.848      4436.3209     -137158.73    
    784200   2397.7122      1121.9688      4363.1374     -137161.01    
    784300   2734.2649     -424.5674       4273.7283     -137165.59    
    784400   2664.8887      11776.108      4216.1038     -137160.06    
    784500   2393.1949      15593.927      4223.3787     -137163.23    
    784600   2339.0368      2333.7548      4297.2327     -137164.86    
    784700   2485.2678     -6547.3348      4396.9346     -137163.77    
    784800   2413.3641     -14665.251      4458.1714     -137155.68    
    784900   2522.0991      4046.5893      4418.2713     -137155.7     
    785000   2507.2971      7572.2925      4351.9593     -137157.9     
    785100   2623.3615      2185.997       4303.9606     -137166.37    
    785200   2525.1941      218.58452      4309.4552     -137164.9     
    785300   2468.4294     -2822.0334      4343.9671     -137161.91    
    785400   2528.2304     -3300.1866      4352.7789     -137160.58    
    785500   2630.271      -213.92799      4357.5485     -137160.33    
    785600   2558.1499      1514.1402      4387.4274     -137157.52    
    785700   2420.6095      20.992601      4390.0655     -137159.79    
    785800   2463.114      -8887.9051      4346.2362     -137166.31    
    785900   2429.2484      6013.4821      4261.805      -137164.76    
    786000   2610.5498      11973.481      4243.1624     -137159.85    
    786100   2617.4182      1072.1162      4324.9037     -137158.78    
    786200   2660.8624     -6495.2954      4437.215      -137162.87    
    786300   2414.5713     -15467.328      4515.9397     -137158.09    
    786400   2539.1555     -4279.2616      4489.4352     -137159.11    
    786500   2755.292       1306.2943      4418.1593     -137158.29    
    786600   2721.7957      9030.564       4370.2668     -137160.23    
    786700   2407.8841     -9524.5586      4361.55       -137162.72    
    786800   2257.5035      169.21481      4301.3879     -137161.22    
    786900   2501.9259      2163.5391      4249.7741     -137162.76    
    787000   2718.6451      6304.3312      4230.3573     -137165.65    
    787100   2561.2298     -1432.3208      4249.3105     -137167.11    
    787200   2182.26       -1134.6865      4267.35       -137163.07    
    787300   2237.1002      6878.3583      4274.6844     -137160.4     
    787400   2388.7555      5268.112       4305.0181     -137159.38    
    787500   2475.4846      6294.8931      4380.4198     -137159.8     
    787600   2487.421      -14064.598      4482.658      -137159.08    
    787700   2679.4307     -13840.174      4521.7143     -137158.47    
    787800   2777.475      -1547.5792      4486.3267     -137153.65    
    787900   2545.7393      4155.5403      4436.5756     -137152.62    
    788000   2594.6        -5255.4518      4382.7652     -137160.3     
    788100   2632.4588      5381.7609      4305.8102     -137163.67    
    788200   2366.4053      6388.2672      4258.7624     -137160.85    
    788300   2468.9717      5688.1483      4237.608      -137164.15    
    788400   2629.0748      5991.4836      4242.6995     -137161.1     
    788500   2736.8409      5527.0111      4291.3587     -137159.97    
    788600   2525.0386     -9313.8128      4367.0364     -137163.61    
    788700   2286.7208     -404.55513      4409.428      -137156.98    
    788800   2476.9886     -13313.047      4428.3297     -137156.45    
    788900   2589.6357      11839.045      4374.4165     -137156.32    
    789000   2521.2942      7165.7601      4348.941      -137158.11    
    789100   2268.3865      302.3164       4349.2734     -137159.17    
    789200   2600.3323      48.297578      4336.9539     -137167.89    
    789300   2516.345       285.64065      4356.1038     -137163.21    
    789400   2577.207      -2065.9392      4380.8446     -137159.88    
    789500   2579.7893     -935.11297      4405.7561     -137155.03    
    789600   2532.3308      1456.6219      4434.7279     -137151.93    
    789700   2504.2704     -970.7276       4490.113      -137153.96    
    789800   2404.6547     -16342.4        4561.5518     -137155.33    
    789900   2431.8247     -3999.3676      4543.5519     -137153.49    
    790000   2778.3538     -2699.3411      4458.7462     -137157.44    
    790100   2515.5538      14053.187      4330.7947     -137156.09    
    790200   2530.3773      11949.356      4263.0593     -137164.28    
    790300   2395.5409      5990.2521      4285.2696     -137163.3     
    790400   2401.4255     -727.6889       4356.0592     -137160.94    
    790500   2551.5238     -2542.8234      4425.6675     -137158.32    
    790600   2595.095      -5381.0146      4474.103      -137158.33    
    790700   2321.9069     -21736.494      4485.9705     -137159.24    
    790800   2330.4575      2137.5666      4389.3127     -137163.28    
    790900   2503.1206      18515.696      4285.0394     -137161.57    
    791000   2479.0155      8523.7717      4296.101      -137159.27    
    791100   2379.9621     -435.71567      4363.3873     -137156.44    
    791200   2438.0651     -5383.237       4420.4631     -137154.76    
    791300   2677.3398      3475.6865      4431.7394     -137156.98    
    791400   2600.2987      4865.9099      4470.4304     -137153.61    
    791500   2398.0708     -14958.177      4539.7295     -137156       
    791600   2368.4199     -10807.643      4534.6127     -137157.2     
    791700   2597.9015      71.274006      4460.0603     -137159.45    
    791800   2646.9472      10015.406      4385.2545     -137159.57    
    791900   2331.4291     -934.21764      4361.7886     -137161.33    
    792000   2348.1964      4589.5118      4328.2747     -137163.14    
    792100   2626.7911     -1688.5274      4317.6381     -137164.94    
    792200   2446.5445      6837.4568      4346.0842     -137158.79    
    792300   2311.2202     -3480.8386      4405.8579     -137154.65    
    792400   2716.6154     -14995.929      4419.8061     -137157.25    
    792500   2742.1404      6681.9973      4388.9264     -137156.27    
    792600   2553.2309     -1909.8897      4407.1884     -137155.65    
    792700   2375.9356      2723.6764      4420.3954     -137156.89    
    792800   2432.6613     -1139.1808      4419.0478     -137160.86    
    792900   2505.8127      1535.8114      4398.0573     -137158.06    
    793000   2559.7894      13824.051      4378.6646     -137152.13    
    793100   2647.4936     -3800.1887      4422.4437     -137155.88    
    793200   2433.6271     -8772.685       4443.9112     -137160.64    
    793300   2469.2278     -3641.153       4393.4958     -137160.67    
    793400   2465.4758      10678.97       4326.3106     -137158.03    
    793500   2549.7545     -122.43829      4296.3866     -137160.07    
    793600   2502.937       6027.196       4283.5513     -137162.51    
    793700   2335.765       1935.8368      4303.459      -137165.46    
    793800   2296.7642     -10711.103      4336.5993     -137163.12    
    793900   2597.8806     -1029.2474      4321.7516     -137163.98    
    794000   2681.9468      2342.859       4311.6122     -137164       
    794100   2432.7007      3348.5378      4330.7975     -137157.88    
    794200   2566.1968      130.50432      4361.2304     -137160.34    
    794300   2474.5325      1780.7651      4383.1876     -137160.55    
    794400   2184.3289     -3298.5633      4391.0987     -137160.06    
    794500   2219.1919      9363.8903      4356.1026     -137158.17    
    794600   2470.3838      9766.5535      4337.4735     -137157.25    
    794700   2521.6209      7340.9974      4377.7013     -137157.74    
    794800   2410.8722     -4103.6036      4443.8513     -137158.55    
    794900   2406.8793     -2077.5836      4479.3992     -137158.79    
    795000   2447.2464      1744.7552      4477.3103     -137151.52    
    795100   2801.7825     -12717.882      4460.1123     -137156.99    
    795200   2654.7363      1786.6889      4391.3268     -137160.81    
    795300   2464.2145      5097.8046      4326.128      -137158.67    
    795400   2540.9906     -4656.8997      4290.3577     -137163.36    
    795500   2407.9826      37.040614      4258.555      -137161.73    
    795600   2663.2511      9552.5587      4253.6208     -137162.77    
    795700   2546.5997      4496.2314      4315.8695     -137154.81    
    795800   2562.3008      714.48354      4403.6015     -137156.84    
    795900   2518.837      -10465.563      4456.6214     -137164.92    
    796000   2514.3177     -3974.4796      4474.3278     -137164.83    
    796100   2368.1782      408.27318      4479.0819     -137157.2     
    796200   2467.3345     -2242.6772      4466.2564     -137155.84    
    796300   2439.6285     -4113.1848      4437.4812     -137153.88    
    796400   2697.0371     -2385.5237      4370.8723     -137161.98    
    796500   2587.5846      6661.6135      4278.6589     -137161.97    
    796600   2419.1667      11482.355      4222.3257     -137163.51    
    796700   2224.8197      8016.9103      4208.3087     -137162.05    
    796800   2528.2937      1776.53        4261.9652     -137167.4     
    796900   2512.5843     -437.18166      4355.5206     -137163.62    
    797000   2392.5963     -5057.7841      4469.1138     -137157.35    
    797100   2501.5158     -9903.4016      4570.3981     -137156.38    
    797200   2723.1058     -10873.794      4599.7387     -137153.56    
    797300   2855.5802      4449.9112      4556.0323     -137149.8     
    797400   2760.2203     -7997.935       4517.5421     -137154.18    
    797500   2657.1846      7595.0093      4450.0523     -137159.75    
    797600   2432.5877     -715.54461      4391.2524     -137161.79    
    797700   2357.3744      12385.474      4320.5981     -137160.84    
    797800   2470.5513      11978.129      4297.9914     -137160.53    
    797900   2654.0824     -3623.5445      4345.7127     -137164.05    
    798000   2551.5295     -10183.086      4421.8766     -137165.87    
    798100   2328.9627     -12706.609      4452.6913     -137164.08    
    798200   2464.4835     -6295.4214      4411.6351     -137161.89    
    798300   2668.6552      3457.4379      4345.6933     -137160.51    
    798400   2646.6591      305.68088      4297.1688     -137160.73    
    798500   2481.8747      1474.2664      4282.2658     -137161.33    
    798600   2374.8974      5298.1241      4294.8453     -137160.29    
    798700   2733.4639     -3718.0656      4355.5421     -137164.14    
    798800   2666.7315      266.65623      4432.685      -137151.99    
    798900   2583.1025      1731.2669      4500.9203     -137150.96    
    799000   2422.39       -1503.0467      4546.5397     -137152.6     
    799100   2478.4946     -7355.6193      4553.7288     -137154.3     
    799200   2605.5956     -2617.0713      4507.4569     -137156.32    
    799300   2460.7509     -9238.9831      4447.7587     -137153.81    
    799400   2452.454       4391.0973      4367.0942     -137161.7     
    799500   2434.4166      6237.8611      4318.5277     -137165.78    
    799600   2486.1006     -788.01032      4313.2595     -137162.7     
    799700   2621.4068      1269.8725      4322.1784     -137159.79    
    799800   2653.5072     -950.1947       4348.03       -137162.34    
    799900   2587.0861     -2717.1186      4384.795      -137164.11    
    800000   2333.1793     -8088.0024      4412.253      -137156.63    
    800100   2495.2614      4259.9952      4405.0722     -137158.86    
    800200   2361.2395      4292.1664      4414.007      -137155.78    
    800300   2404.3943     -11663.454      4414.1185     -137161.16    
    800400   2294.9255      6255.6344      4375.9953     -137156.99    
    800500   2629.8294      753.76189      4375.7204     -137160.01    
    800600   2572.795      -9570.4951      4388.9624     -137157.64    
    800700   2567.0575      1653.0747      4366.5899     -137160.45    
    800800   2395.1515     -6427.1008      4348.2351     -137164.29    
    800900   2385.979       10250.127      4316.8865     -137164.1     
    801000   2475.1266      10276.199      4340.7755     -137160.27    
    801100   2529.9754     -2782.6879      4428.5874     -137157.3     
    801200   2491.2464     -6167.6195      4485.2803     -137155.91    
    801300   2382.4601     -8106.4192      4479.9769     -137155.14    
    801400   2570.6451     -3245.897       4420.4047     -137158.19    
    801500   2844.6312      8594.0024      4347.8535     -137160.67    
    801600   2448.2372      6821.6642      4327.539      -137157.68    
    801700   2382.3212     -7548.654       4357.4194     -137160.35    
    801800   2493.7647     -4397.8762      4359.8775     -137162.16    
    801900   2782.0192     -5098.7687      4350.8458     -137165.98    
    802000   2607.8605      4807.6019      4340.0522     -137159.6     
    802100   2441.3476      6035.5476      4323.2675     -137162.22    
    802200   2415.8479     -4754.251       4325.0962     -137166.05    
    802300   2463.6148     -1320.4985      4313.4448     -137165       
    802400   2788.9259     -848.89452      4301.6456     -137166.73    
    802500   2599.014       13030.904      4316.516      -137161.65    
    802600   2319.6336     -3613.8635      4404.461      -137164.47    
    802700   2328.9682     -21629.504      4467.1932     -137163.65    
    802800   2560.4881     -481.88642      4419.5043     -137163.86    
    802900   2521.7902      996.14376      4357.5606     -137160.43    
    803000   2531.8966      4514.4353      4281.0566     -137161.77    
    803100   2451.2599      17258.791      4239.7686     -137162.04    
    803200   2346.9274      4342.9785      4286.0254     -137166.65    
    803300   2208.1969     -4885.921       4354.1429     -137167.39    
    803400   2325.1267     -19441.626      4378.9552     -137162.05    
    803500   2428.2869     -1831.6152      4316.7092     -137158.61    
    803600   2723.9416      20979.337      4256.8424     -137162.16    
    803700   2394.6057      2427.1165      4296.8214     -137160.33    
    803800   2376.768      -10368.546      4358.435      -137162.82    
    803900   2545.247       4654.6362      4383.1705     -137163.83    
    804000   2573.216      -7694.4808      4404.7418     -137160.25    
    804100   2884.4004      8517.357       4415.4978     -137157.36    
    804200   2688.5283     -10508.021      4483.0649     -137153.22    
    804300   2544.068      -12378.289      4505.0336     -137154.94    
    804400   2566.8965      15.676564      4462.5791     -137159.84    
    804500   2522.1406      1104.0421      4403.0298     -137162.14    
    804600   2411.6007     -7372.967       4365.9694     -137162.93    
    804700   2228.292       8541.6914      4314.1908     -137161.03    
    804800   2503.3966      6054.6363      4291.5571     -137160.97    
    804900   2684.8463      3231.6471      4315.024      -137161.06    
    805000   2608.2849     -14041.696      4370.8348     -137162.19    
    805100   2363.1173     -11817.457      4387.0277     -137162.25    
    805200   2291.6529     -2234.3993      4342.595      -137162.01    
    805300   2713.3097      5947.6949      4290.1115     -137160.33    
    805400   2719.0862      1235.4822      4276.2768     -137161.37    
    805500   2483.4944      4467.7732      4284.2317     -137163.55    
    805600   2402.386       1547.983       4315.3626     -137166.18    
    805700   2300.1407      2179.6002      4337.0829     -137161.68    
    805800   2605.3737     -462.95935      4352.2064     -137161.22    
    805900   2564.623       209.76932      4383.761      -137157.39    
    806000   2497.6935     -5101.3353      4397.2166     -137157.35    
    806100   2461.7246     -1094.3869      4388.0046     -137158.39    
    806200   2295.169       8601.629       4377.2588     -137159.03    
    806300   2287.1807     -5333.4601      4386.3618     -137163.66    
    806400   2475.4519     -4893.186       4365.1656     -137163.47    
    806500   2661.2161      4517.4985      4328.3024     -137160.33    
    806600   2636.1177     -2837.4256      4312.4413     -137161.31    
    806700   2445.3337      4021.563       4298.3176     -137162.12    
    806800   2409.4999      5790.0317      4304.2198     -137163.76    
    806900   2563.6005     -828.31718      4323.4482     -137166.7     
    807000   2636.0816     -57.706764      4341.1765     -137160.24    
    807100   2712.3375      1181.3316      4378.4799     -137156.73    
    807200   2434.3736     -2974.7999      4440.0705     -137154.92    
    807300   2404.933      -2447.7815      4486.1345     -137156.42    
    807400   2450.8733     -3767.9205      4499.5851     -137155.12    
    807500   2758.2953     -1832.2739      4482.7463     -137153.93    
    807600   2694.3594     -4176.7807      4459.3182     -137156.46    
    807700   2522.6036      4673.0367      4425.6488     -137157.79    
    807800   2446.826       7916.731       4389.436      -137159.51    
    807900   2304.7272      7159.1386      4374.3287     -137157.61    
    808000   2650.7658     -9247.899       4376.4746     -137161.9     
    808100   2644.9982      3097.641       4338.2257     -137154.76    
    808200   2592.7679      6489.1803      4327.2506     -137159.2     
    808300   2411.6257      1812.0242      4376.1468     -137161.93    
    808400   2468.6044     -10950.448      4450.1626     -137160.08    
    808500   2549.6062     -3786.6135      4482.7674     -137156.33    
    808600   2538.5195      786.36906      4481.997      -137154.2     
    808700   2574.4427     -4202.3052      4488.0019     -137157.71    
    808800   2270.4767     -4260.5389      4469.1658     -137156.04    
    808900   2380.7356     -5801.4946      4391.5694     -137159.75    
    809000   2770.169       14463.901      4279.9019     -137161.8     
    809100   2921.1625      3870.0141      4255.1405     -137166.49    
    809200   2559.4715      1846.8675      4316.206      -137165.01    
    809300   2439.5774     -1896.7675      4405.7272     -137162.66    
    809400   2372.8179     -8953.1579      4478.9923     -137156.81    
    809500   2616.7004     -929.82921      4492.8983     -137155.9     
    809600   2682.6097      3137.2653      4469.0739     -137157.74    
    809700   2584.5301     -5499.3801      4459.6851     -137161.23    
    809800   2480.2188     -726.92057      4430.0975     -137160.86    
    809900   2434.8274     -2048.3363      4386.8704     -137158.22    
    810000   2510.6007      7403.6192      4338.8916     -137159.24    
    810100   2423.9449      7038.7259      4343.8995     -137158.74    
    810200   2398.572      -5510.1711      4379.6773     -137165.64    
    810300   2397.6019     -5432.118       4386.1528     -137165.26    
    810400   2523.3776      6470.3577      4345.157      -137160.73    
    810500   2488.9219      13705.628      4305.3617     -137159.3     
    810600   2469.2755      4533.6896      4305.3466     -137161.86    
    810700   2498.2987     -8035.0349      4324.469      -137164.64    
    810800   2414.1922     -509.65277      4311.4187     -137163.55    
    810900   2704.427       2729.3753      4297.8741     -137166.87    
    811000   2458.8114      7188.8645      4285.4605     -137159.73    
    811100   2535.1927      11410.704      4305.2635     -137162.77    
    811200   2505.7686     -6829.2883      4360.3589     -137164.39    
    811300   2418.3913     -10537.78       4378.2449     -137162.33    
    811400   2561.6362      9210.6649      4370.8308     -137158.22    
    811500   2453.1556      5527.9417      4415.7177     -137154.43    
    811600   2404.5106     -2459.23        4468.6654     -137157.19    
    811700   2285.2397     -17965.897      4494.4391     -137160.83    
    811800   2242.3088     -9432.7161      4448.0352     -137163.97    
    811900   2379.4999     -1040.45        4330.6201     -137159.59    
    812000   2703.7853      11470.789      4185.6155     -137166.22    
    812100   2446.7861      17943.15       4132.6815     -137165.43    
    812200   2529.2405     -4744.6525      4175.5286     -137171.56    
    812300   2348.4494     -2841.2803      4219.2738     -137165.35    
    812400   2575.0214     -1102.5338      4252.4201     -137161.8     
    812500   2646.5631     -837.81929      4299.8012     -137160.55    
    812600   2505.6475     -2997.43        4372.1166     -137159.13    
    812700   2425.5561     -4405.2157      4427.8095     -137158.27    
    812800   2665.1456      200.49251      4446.0707     -137162.84    
    812900   2474.6725     -7666.0454      4440.7342     -137156.58    
    813000   2694.0168     -5879.566       4387.6723     -137162.76    
    813100   2546.9797      1177.4648      4327.7492     -137163.75    
    813200   2252.3269      10480.801      4272.7986     -137161.15    
    813300   2473.493       3288.1282      4260.7122     -137164.22    
    813400   2709.592      -2446.9247      4294.1522     -137161       
    813500   2646.2414      1835.1901      4344.4106     -137157.23    
    813600   2421.5608     -7072.4958      4400.3456     -137155.57    
    813700   2433.4228     -1210.9217      4424.0062     -137158.35    
    813800   2338.8186     -3767.9335      4420.2326     -137156.78    
    813900   2617.2317      3742.3827      4366.7715     -137157.17    
    814000   2767.0139      4230.9443      4327.821      -137156.27    
    814100   2678.7552      11632.434      4331.5239     -137162.77    
    814200   2433.9578     -7864.8216      4407.7114     -137161.95    
    814300   2499.719      -18563.064      4471.1439     -137161.6     
    814400   2677.9832      8158.9228      4452.5866     -137160.46    
    814500   2626.8921     -11072.596      4455.2351     -137157.28    
    814600   2549.4516     -10494.495      4414.1656     -137158.75    
    814700   2267.7831      12701.453      4326.555      -137160.73    
    814800   2405.2699     -1286.8718      4287.483      -137163.75    
    814900   2545.1505      7140.2985      4263.9202     -137161.16    
    815000   2642.251       4090.7389      4284.5894     -137160.03    
    815100   2545.5706     -1992.0592      4368.003      -137158.7     
    815200   2265.4781     -12031.61       4472.9099     -137161.6     
    815300   2345.0404     -14265.197      4527.2813     -137161.45    
    815400   2528.7943      1329.5024      4523.3903     -137158.85    
    815500   2484.2054     -400.79393      4508.9552     -137154.5     
    815600   2780.8888     -3512.7152      4490.2081     -137160.45    
    815700   2520.5268      211.03394      4459.2747     -137155.88    
    815800   2361.8108     -4733.2295      4417.3752     -137158.69    
    815900   2228.8158      1887.7986      4335.5713     -137158.46    
    816000   2532.9239      19365.219      4228.6295     -137160.98    
    816100   2806.352       11410.865      4203.261      -137161.93    
    816200   2490.0984      7684.9501      4278.1512     -137163.19    
    816300   2242.0802     -8429.8252      4407.8559     -137162.12    
    816400   2429.5397     -11750.674      4481.6697     -137160.57    
    816500   2718.3913     -11140.012      4453.5383     -137162.4     
    816600   2675.2991     -383.20279      4362.224      -137160.88    
    816700   2483.9599      6722.9034      4283.9009     -137162.82    
    816800   2488.8561      2167.6824      4243.3363     -137167.62    
    816900   2440.1995      8303.4751      4227.3316     -137163.53    
    817000   2432.8444      14342.133      4259.5779     -137159.1     
    817100   2532.8491     -910.22777      4354.7076     -137160.5     
    817200   2528.3224     -1283.032       4453.4875     -137159.44    
    817300   2705.4448     -7886.437       4543.972      -137156.18    
    817400   2781.8799     -12251.342      4604.1678     -137150.63    
    817500   2658.0347     -17732.476      4579.1209     -137153.79    
    817600   2448.698       473.21431      4469.8438     -137155.09    
    817700   2468.0343      12463.589      4354.1255     -137159.31    
    817800   2501.8991     -1561.8483      4292.4525     -137161.82    
    817900   2389.7355      7829.2122      4251.5253     -137161.63    
    818000   2269.6471      287.45084      4259.8051     -137164.15    
    818100   2186.1585      7240.2297      4281.5115     -137162.27    
    818200   2546.0017      7815.9199      4317.6993     -137162.76    
    818300   2430.2118     -6955.0858      4373.4302     -137155.85    
    818400   2645.072      -4224.098       4395.2057     -137161.58    
    818500   2533.4314     -9015.0615      4399.8208     -137165.65    
    818600   2246.6197      3837.0564      4371.2841     -137161.81    
    818700   2538.3102      5418.218       4345.4455     -137166.07    
    818800   2446.0722      1834.6265      4362.3787     -137160.68    
    818900   2447.6511     -171.90644      4402.5728     -137158.31    
    819000   2554.0361     -8841.7575      4424.7151     -137157.84    
    819100   2714.3729      1714.3724      4410.6268     -137155.92    
    819200   2746.7209      9198.1854      4385.6421     -137156.7     
    819300   2436.5789      2332.2337      4405.0606     -137158.6     
    819400   2383.7291     -11497.225      4430.5488     -137160.78    
    819500   2471.1488      3849.3165      4386.5205     -137159.24    
    819600   2638.7951      2724.9051      4339.92       -137158.98    
    819700   2331.6083      7481.0823      4313.997      -137155.53    
    819800   2326.3359     -639.19438      4310.3742     -137163.24    
    819900   2444.3771      4204.8212      4313.5426     -137164.02    
    820000   2486.8475     -5694.8665      4364.0985     -137161.47    
    820100   2430.0835      646.99058      4402.6865     -137157.12    
    820200   2570.4136      10176.822      4417.2667     -137158.82    
    820300   2583.7392     -14078.42       4455.5737     -137161.54    
    820400   2366.7139     -10814.965      4444.1797     -137161.72    
    820500   2439.8541      1487.2802      4371.9182     -137163.08    
    820600   2491.728       20651.725      4310.1695     -137157.22    
    820700   2727.6163      1294.5979      4337.365      -137160.28    
    820800   2435.4478      8729.5635      4374.0728     -137159.09    
    820900   2447.4838     -134.49552      4429.0972     -137160.95    
    821000   2403.8071     -1467.8113      4475.6636     -137157.97    
    821100   2448.0047     -5165.4364      4494.959      -137154.84    
    821200   2719.6199      1557.8913      4456.1874     -137157.81    
    821300   2563.3388     -5438.5097      4405.2723     -137161.02    
    821400   2509.9294     -9533.0526      4325.0457     -137166.45    
    821500   2440.2896      3426.0701      4221.4457     -137165.51    
    821600   2575.7417      16383.034      4179.2597     -137165.89    
    821700   2459.0061      9650.4214      4232.6903     -137159.52    
    821800   2513.009       1811.7569      4337.0683     -137158.49    
    821900   2641.5584     -10292.957      4413.3781     -137161.52    
    822000   2488.1243     -4400.6945      4434.8971     -137157.84    
    822100   2415.4035     -4073.5608      4420.4823     -137156.51    
    822200   2530.5584     -10915.544      4374.1423     -137158.68    
    822300   2579.3839      9729.4122      4275.9886     -137159.37    
    822400   2585.0388      16175.753      4204.2626     -137166.78    
    822500   2386.4127     -1611.9455      4221.9647     -137165.95    
    822600   2447.9805      2727.5887      4265.2068     -137164.99    
    822700   2608.2843     -3807.1626      4328.4408     -137163.87    
    822800   2867.8714     -8267.3717      4400.1582     -137159.84    
    822900   2622.8967     -4647.9853      4481.4578     -137154.84    
    823000   2448.0541     -9864.4209      4548.3271     -137152.18    
    823100   2621.7615     -6356.3014      4529.0219     -137157.44    
    823200   2386.339      -1061.0026      4462.629      -137156.95    
    823300   2394.9728      346.23844      4384.3108     -137162.89    
    823400   2364.7455      1924.8078      4319.5822     -137160.23    
    823500   2481.11        4731.7264      4277.6032     -137160.74    
    823600   2695.4371      12902.806      4286.147      -137164.02    
    823700   2459.0399     -4174.9657      4371.9984     -137158.53    
    823800   2511.7851     -14852.057      4417.3048     -137159.45    
    823900   2516.8806     -1185.4241      4374.7446     -137157.28    
    824000   2569.1566      5569.6984      4328.5669     -137159.11    
    824100   2499.7577      1635.6222      4327.9684     -137161.93    
    824200   2488.9085     -11925.292      4361.074      -137165.38    
    824300   2478.2113     -8597.1865      4362.0453     -137164.88    
    824400   2682.3249      1968.1793      4324.9738     -137162.69    
    824500   2808.8143      4590.9437      4315.2839     -137162.27    
    824600   2644.2596     -4891.4825      4351.3428     -137163.79    
    824700   2535.5224     -1451.5238      4399.3864     -137164.96    
    824800   2433.2165      105.47093      4446.2571     -137161.17    
    824900   2412.5934     -5692.2756      4467.451      -137156.96    
    825000   2613.9983     -4909.3311      4444.1025     -137157.84    
    825100   2553.7767     -3980.4887      4390.0997     -137158.22    
    825200   2357.293       2607.2994      4317.9        -137164.04    
    825300   2587.85        2008.4102      4269.051      -137168.04    
    825400   2763.1086     -1004.111       4270.3193     -137167.76    
    825500   2515.3864      13031.006      4320.7816     -137160.64    
    825600   2367.2368     -2327.6593      4421.5348     -137161.96    
    825700   2206.3625     -10041.874      4497.9719     -137160.53    
    825800   2336.8386     -9561.8596      4495.623      -137154.75    
    825900   2855.9049      1429.6683      4429.2138     -137164.91    
    826000   2543.9595      4900.458       4385.916      -137161.03    
    826100   2378.4862     -8314.2656      4361.1775     -137161.31    
    826200   2418.5388      3931.3376      4313.7721     -137160.83    
    826300   2549.2106      21751.065      4304.1096     -137155.55    
    826400   2724.0122      1899.7503      4384.9383     -137156.2     
    826500   2595.5628     -3508.7783      4470.1674     -137156.94    
    826600   2461.4388     -9946.8932      4527.7021     -137156.04    
    826700   2444.2863     -9161.6462      4519.9312     -137156.67    
    826800   2697.5107     -1438.0766      4446.6877     -137161.19    
    826900   2673.8786      699.93194      4394.2286     -137157.88    
    827000   2567.9909     -3218.1267      4377.0988     -137161.87    
    827100   2400.9059     -5519.2885      4346.1675     -137164.31    
    827200   2542.2882      2067.091       4290.3563     -137167.55    
    827300   2518.2852      7566.6939      4260.8382     -137166.81    
    827400   2470.214       4460.7035      4289.4737     -137162.61    
    827500   2538.6061      9103.9531      4349.6438     -137157.73    
    827600   2587.1841     -8601.7138      4424.249      -137157.3     
    827700   2479.2449     -8812.569       4456.0783     -137157.97    
    827800   2269.3694     -11532.807      4444.4174     -137159.35    
    827900   2511.0586     -6085.1552      4369.1601     -137165.65    
    828000   2645.1996      11123.746      4282.0557     -137161.68    
    828100   2579.9222      343.3285       4270.2834     -137153.9     
    828200   2551.4427      12641.494      4293.3675     -137158.33    
    828300   2339.8237     -9723.6199      4371.3257     -137158.34    
    828400   2670.0378     -6704.943       4400.2797     -137164.75    
    828500   2590.4063     -7939.1093      4392.4084     -137160.83    
    828600   2713.0853     -6494.5663      4358.491      -137163.79    
    828700   2431.1398      13722.771      4326.235      -137163.41    
    828800   2211.3859     -16459.518      4361.2019     -137160.68    
    828900   2491.8852      1519.1803      4339.382      -137161.95    
    829000   2570.8874      4986.492       4324.8573     -137163.09    
    829100   2541.7783     -1421.7866      4332.9301     -137165.06    
    829200   2337.3866      4381.2376      4320.5458     -137162.51    
    829300   2573.8805     -1458.0052      4298.397      -137164.32    
    829400   2683.2814      7435.0682      4275.7205     -137157.84    
    829500   2637.4485      2818.3719      4308.7893     -137160.74    
    829600   2388.4032     -12524.705      4374.8993     -137159.29    
    829700   2421.0511     -1931.2352      4385.7865     -137158.12    
    829800   2496.722      -2137.7152      4350.7554     -137157.38    
    829900   2522.4093     -3227.1082      4308.7117     -137159       
    830000   2283.3856      8474.9049      4284.7619     -137161.77    
    830100   2247.3045     -312.59699      4291.5389     -137165.04    
    830200   2414.7323      922.41847      4299.0816     -137163.96    
    830300   2599.2823     -9052.7007      4321.5745     -137163.59    
    830400   2522.9389     -3927.3785      4334.3811     -137160.51    
    830500   2557.2794     -5888.3198      4334.8534     -137160.19    
    830600   2572.5008     -3392.2966      4300.2693     -137159.66    
    830700   2534.2325      10473.09       4253.0134     -137161.36    
    830800   2520.5184     -3313.0027      4268.2033     -137167.25    
    830900   2372.6665     -6520.6716      4282.2436     -137166.25    
    831000   2463.8978      4318.3071      4257.0983     -137162.78    
    831100   2659.8523      11782.127      4248.9131     -137162.14    
    831200   2604.3494     -1748.6802      4316.7142     -137162.93    
    831300   2459.5261     -2236.5195      4412.0378     -137160.68    
    831400   2395.8376     -7244.4886      4501.3183     -137156.61    
    831500   2615.7416     -1164.0881      4542.3824     -137155.7     
    831600   2692.6126     -7339.3245      4556.6335     -137152.9     
    831700   2806.9027     -6463.9152      4525.2886     -137151.37    
    831800   2644.2932      3020.6974      4449.8603     -137157.8     
    831900   2365.1134      7080.7381      4366.3694     -137157.69    
    832000   2454.7129      1046.7638      4314.1416     -137163.53    
    832100   2411.7223      6761.6103      4302.2654     -137164.69    
    832200   2353.5449      1502.3222      4336.9694     -137161.59    
    832300   2506.9545      3900.5668      4372.5863     -137155.54    
    832400   2622.557      -5908.1982      4384.8569     -137157.93    
    832500   2557.3268      8016.3962      4365.3675     -137160.98    
    832600   2354.4288     -3266.6375      4368.574      -137160.75    
    832700   2473.9735      1261.0913      4342.7905     -137162.58    
    832800   2802.2987      12897.883      4329.3291     -137159.42    
    832900   2484.1761      4669.3242      4393.6069     -137154       
    833000   2554.0257     -9426.2569      4487.8623     -137161.15    
    833100   2438.8498     -20755.03       4534.7812     -137158.18    
    833200   2517.7852     -6559.3551      4462.5902     -137153.56    
    833300   2781.2947      3684.9972      4330.0303     -137157.25    
    833400   2802.4575      5194.2994      4234.9291     -137163.94    
    833500   2652.205       8656.0118      4195.9568     -137168.22    
    833600   2334.1776      524.48484      4226.0164     -137164.22    
    833700   2401.4021      4229.8097      4294.3007     -137164.52    
    833800   2488.5201     -2262.1146      4390.778      -137158.04    
    833900   2472.4061     -9504.9941      4480.415      -137153.93    
    834000   2520.1012     -5032.4018      4524.8529     -137154.03    
    834100   2536.5052     -4070.9831      4506.7502     -137155.75    
    834200   2396.6706     -13870.541      4431.8048     -137158.55    
    834300   2246.8661      9378.9519      4297.0409     -137159.58    
    834400   2555.7537      6405.1019      4224.9025     -137165.02    
    834500   2741.5384      13302.32       4245.8735     -137163.48    
    834600   2709.3532      4798.9959      4361.3169     -137160.38    
    834700   2355.6177     -8953.4032      4512.0719     -137157.74    
    834800   2287.0071     -19523.076      4579.6905     -137156.13    
    834900   2704.4615     -7716.4319      4493.1186     -137157.75    
    835000   2646.0681     -1210.3292      4367.2075     -137157.44    
    835100   2597.3987      10408.246      4279.8885     -137162       
    835200   2432.4523      3819.7035      4259.2522     -137162.76    
    835300   2598.7715      1018.4443      4280.5356     -137167.15    
    835400   2474.8724     -6203.4014      4336.7898     -137162.76    
    835500   2680.0806     -9189.5624      4369.2702     -137159.23    
    835600   2763.0396      7098.9884      4351.9465     -137157.52    
    835700   2596.4599     -3248.8868      4339.5378     -137161.76    
    835800   2305.2268      1413.2619      4319.1461     -137159       
    835900   2418.9547      5411.1148      4281.5008     -137164.65    
    836000   2331.532       2932.171       4254.9177     -137164.31    
    836100   2392.2096      11472.437      4258.3931     -137166.62    
    836200   2664.4833      1413.129       4313.4535     -137168.31    
    836300   2648.2725     -2542.4973      4382.3465     -137162.23    
    836400   2594.2045     -8243.6987      4448.2046     -137158.86    
    836500   2598.8822     -9732.9498      4472.5242     -137157.93    
    836600   2391.8186     -5474.6504      4447.2143     -137156.01    
    836700   2338.3281     -6329.3058      4393.8447     -137159.99    
    836800   2437.5062      2151.5214      4314.7248     -137164.48    
    836900   2629.8627      2330.1951      4244.9578     -137166.92    
    837000   2648.2883      16768.12       4207.4128     -137162.48    
    837100   2658.1986     -8387.1978      4278.0734     -137162.71    
    837200   2341.6564     -3531.7823      4356.0415     -137159.72    
    837300   2289.2425     -3940.9116      4408.0339     -137159.37    
    837400   2467.5609     -2605.0484      4427.7866     -137154.25    
    837500   2637.4953     -11405.245      4408.5768     -137155.81    
    837600   2634.9045     -4032.4332      4327.4215     -137161.07    
    837700   2507.2035      14152.868      4240.4696     -137163.59    
    837800   2453.1998      13657.17       4230.1123     -137165.63    
    837900   2478.206       6742.5896      4302.4562     -137166.98    
    838000   2370.887      -5071.867       4409.3993     -137160.06    
    838100   2687.2889     -888.13778      4488.0644     -137157.53    
    838200   2644.714      -1737.1094      4553.8413     -137156.48    
    838300   2393.5946     -5792.5339      4583.0569     -137152.91    
    838400   2296.8489     -1633.8654      4530.8767     -137151.07    
    838500   2668.4217      245.97792      4443.167      -137156.13    
    838600   2819.2191      5870.7453      4377.6799     -137158.79    
    838700   2657.5738     -3433.5393      4351.1984     -137163.61    
    838800   2512.5763     -3304.7563      4327.3025     -137163.82    
    838900   2393.4906      5506.4551      4307.831      -137160.5     
    839000   2664.0699     -1538.605       4338.2928     -137162.99    
    839100   2662.4369     -1454.0053      4374.1489     -137156.39    
    839200   2892.043       7945.3823      4398.3035     -137157.42    
    839300   2554.7223     -12426.472      4467.0501     -137158.92    
    839400   2396.9111     -2496.6598      4477.1531     -137157.67    
    839500   2412.9473      1615.4061      4430.0467     -137155.73    
    839600   2672.5862      6716.0403      4375.5126     -137160.47    
    839700   2336.051      -4963.0454      4333.2016     -137157.73    
    839800   2320.404      -584.59155      4266.7599     -137161.64    
    839900   2643.8706      9317.4733      4211.1499     -137166.71    
    840000   2587.6216      24354.977      4214.0937     -137159.58    
    840100   2799.1128      5218.6305      4327.9701     -137159.46    
    840200   2409.9247     -5987.7188      4464.8901     -137153.22    
    840300   2336.5998     -10605.731      4537.403      -137156.54    
    840400   2393.0216     -1147.9698      4529.7014     -137156.58    
    840500   2522.6746     -4606.4714      4500.0449     -137151.38    
    840600   2623.8804      7019.59        4464.9938     -137149.15    
    840700   2709.8296     -10061.043      4460.8454     -137155.92    
    840800   2491.6347      4469.1531      4437.3385     -137154.96    
    840900   2508.5323     -8602.6627      4420.0168     -137158.89    
    841000   2468.5545     -3999.924       4366.1525     -137158.87    
    841100   2450.4455     -5250.6299      4298.2259     -137162.86    
    841200   2343.3288     -6421.9287      4244.898      -137167.15    
    841300   2341.9587      21378.315      4208.3456     -137165.31    
    841400   2603.6907      1662.7005      4262.7879     -137164.85    
    841500   2541.0038     -4661.6686      4324.5032     -137160.56    
    841600   2561.7493     -4216.0729      4360.8793     -137161.91    
    841700   2517.2016      8085.6092      4373.2062     -137162.69    
    841800   2347.4973     -4761.824       4411.369      -137158.65    
    841900   2645.9181     -601.14146      4434.5607     -137156.35    
    842000   2708.0901      2660.78        4446.424      -137153.74    
    842100   2553.4334     -10285.783      4456.7961     -137155.75    
    842200   2602.3342     -8752.4653      4404.6491     -137162.93    
    842300   2425.8752      5729.2139      4322.7459     -137162.61    
    842400   2477.9068      8129.9749      4282.3789     -137163.98    
    842500   2461.7481      10709.72       4285.0155     -137162.8     
    842600   2598.5087      2070.7003      4342.852      -137164.77    
    842700   2438.504      -12292.111      4444.5282     -137158       
    842800   2568.0974      773.81969      4475.3315     -137159.14    
    842900   2427.3132      2896.4014      4476.3791     -137155.94    
    843000   2272.7047     -8047.2706      4467.5154     -137155.22    
    843100   2583.9157      3226.6115      4400.8248     -137163.57    
    843200   2608.9942      8552.5247      4336.4219     -137162.11    
    843300   2647.8534      14006.711      4330.5372     -137165.79    
    843400   2393.4751     -6905.7829      4414.6639     -137167.04    
    843500   2261.9196     -509.9682       4471.869      -137161.38    
    843600   2366.8595     -8010.9157      4482.6276     -137156.26    
    843700   2536.5897      4518.7381      4443.5121     -137157.02    
    843800   2747.7435      1525.6802      4429.5394     -137160.58    
    843900   2544.7996     -2087.0055      4445.6099     -137158.86    
    844000   2369.8743     -4177.3145      4463.2684     -137161.48    
    844100   2346.0764     -2482.6857      4434.7353     -137162.58    
    844200   2606.7157      6809.3318      4340.6438     -137161.77    
    844300   2662.7051      12594.737      4264.9345     -137156.38    
    844400   2629.1566      9258.1594      4252.9861     -137160.77    
    844500   2410.1463      3989.0254      4285.9067     -137159.22    
    844600   2380.7896     -1385.622       4336.1133     -137158.24    
    844700   2676.6869     -1688.0338      4385.051      -137159.22    
    844800   2669.2624      4289.4205      4430.2801     -137153.39    
    844900   2461.3329     -7644.5073      4470.8801     -137154.51    
    845000   2489.7297     -9190.7329      4449.5595     -137161.38    
    845100   2555.2286      1973.5062      4394.2022     -137162.43    
    845200   2644.284      -911.40499      4382.4412     -137166.29    
    845300   2195.8199     -4061.5379      4384.3265     -137159.18    
    845400   2432.7654      8070.1974      4364.1763     -137159.87    
    845500   2625.3783      842.06137      4373.476      -137159.88    
    845600   2478.7799      3054.8697      4387.1521     -137157.82    
    845700   2356.0538      1259.9726      4397.9692     -137155.89    
    845800   2519.6169      2752.6716      4406.9554     -137160.36    
    845900   2478.9715     -14564.745      4440.51       -137162.99    
    846000   2314.9702     -11231.171      4430.6932     -137160.01    
    846100   2618.4936      1919.4346      4350.8723     -137161.78    
    846200   2771.8485      6436.1905      4266.5118     -137163.27    
    846300   2571.0443      8464.3597      4229.8962     -137165.74    
    846400   2582.1351     -228.09383      4256.2685     -137169.17    
    846500   2474.1766     -677.38589      4310.5445     -137165.17    
    846600   2429.7758      2509.8888      4370.1376     -137160.42    
    846700   2541.5713     -8114.1226      4416.8232     -137158.59    
    846800   2543.391       2130.5704      4422.736      -137151.13    
    846900   2675.1473      2169.3175      4444.8521     -137155.33    
    847000   2333.8532     -14787.234      4447.1833     -137156.72    
    847100   2537.3836     -6455.1759      4360.3525     -137161.97    
    847200   2640.2172      4833.5655      4257.1489     -137162.81    
    847300   2415.0061      15113.46       4192.0614     -137161.08    
    847400   2283.7607      14846.13       4199.6037     -137165.09    
    847500   2427.5988     -8074.6085      4285.3964     -137168.11    
    847600   2446.1559     -1611.7237      4363.9463     -137161.53    
    847700   2541.4904     -6819.7235      4431.7981     -137160.95    
    847800   2433.6609     -13301.019      4459.0321     -137155.57    
    847900   2470.9841      115.99343      4411.6463     -137152.11    
    848000   2698.0081      9713.6731      4353.4526     -137155.69    
    848100   2519.8317      1787.6282      4357.4507     -137160.61    
    848200   2387.2604     -13900.791      4405.2041     -137160.54    
    848300   2538.8308      2934.5182      4416.9313     -137159.25    
    848400   2527.1891     -8278.09        4416.0515     -137156.17    
    848500   2487.3061     -2740.3107      4375.5673     -137159.24    
    848600   2376.138      -2202.3327      4335.6853     -137165.45    
    848700   2282.8588      662.37102      4297.8205     -137164.74    
    848800   2618.2246      10692.929      4268.869      -137170.56    
    848900   2479.8517     -9702.7986      4312.6635     -137164.11    
    849000   2556.5186     -2240.5863      4353.7888     -137161.06    
    849100   2643.4501      664.02712      4385.4487     -137160.78    
    849200   2435.0452      3829.7325      4425.6963     -137154.67    
    849300   2496.5817     -7539.101       4479.6334     -137159.94    
    849400   2201.097      -5505.1551      4506.4711     -137154.87    
    849500   2598.9066     -10406.541      4489.813      -137159.92    
    849600   2474.8022      1971.4984      4425.3607     -137153.49    
    849700   2368.2331      8588.4504      4350.119      -137151.91    
    849800   2445.2932     -920.72957      4318.5986     -137159.55    
    849900   2383.8403     -1601.9799      4313.1555     -137164.46    
    850000   2484.6412     -1279.6006      4317.0405     -137164.78    
    850100   2527.4418      10562.284      4330.0393     -137158.57    
    850200   2490.2071      2776.8414      4396.0666     -137157.03    
    850300   2516.4936      473.52876      4457.4997     -137159.79    
    850400   2392.8961     -8152.2682      4480.7213     -137155.4     
    850500   2668.9544     -6252.2485      4450.5729     -137160.39    
    850600   2583.2058      4480.2118      4392.6215     -137159.99    
    850700   2223.9508      312.76273      4343.7493     -137161.2     
    850800   2333.8479      1928.6206      4277.3295     -137164.4     
    850900   2467.05        16231.209      4215.9101     -137162.79    
    851000   2619.9424      4469.4404      4199.8587     -137164.22    
    851100   2496.6387      1937.913       4216.0709     -137165.72    
    851200   2206.4974      7151.7572      4235.4375     -137166.69    
    851300   2506.1275      6074.6159      4266.1779     -137170.91    
    851400   2473.6816     -4996.9928      4332.6363     -137164.38    
    851500   2412.8338     -2654.5796      4371.0026     -137159.91    
    851600   2618.5636     -1228.0696      4374.1793     -137160.35    
    851700   2646.8639     -6261.1446      4379.2606     -137161.15    
    851800   2132.0125      1068.0702      4376.6974     -137159.15    
    851900   2368.6927     -8249.5166      4346.7633     -137162.82    
    852000   2506.087       6823.7286      4278.8984     -137159.86    
    852100   2641.2343      15464.48       4260.6474     -137162.39    
    852200   2458.438      -6723.9492      4334.2504     -137159.91    
    852300   2330.2796     -6363.1465      4366.5129     -137158.62    
    852400   2434.2124      4019.1352      4328.0401     -137159.13    
    852500   2661.8852      14301.228      4297.4222     -137160.25    
    852600   2578.4799     -3729.0666      4331.0357     -137161.15    
    852700   2328.0651      1276.5744      4345.8578     -137161.41    
    852800   2337.6493     -9596.7065      4344.7298     -137159.84    
    852900   2579.023       9131.1637      4305.1769     -137162.36    
    853000   2655.6529      227.3211       4298.1086     -137166.04    
    853100   2411.0423     -5990.5035      4320.5201     -137162.01    
    853200   2536.5776     -5720.046       4337.4765     -137163.33    
    853300   2715.1931     -4162.0378      4353.3961     -137158.51    
    853400   2606.0085      2333.3496      4369.1213     -137155.94    
    853500   2437.5082      3954.2258      4400.9102     -137155.28    
    853600   2435.0706      3059.0469      4436.4035     -137157.69    
    853700   2377.2451      1061.5314      4464.9482     -137155.06    
    853800   2693.5608     -9868.35        4460.5152     -137158.8     
    853900   2883.7808     -1860.5819      4405.9065     -137156.38    
    854000   2777.896      -16388.42       4348.9775     -137162.25    
    854100   2565.9713      1141.4932      4249.4276     -137165.44    
    854200   2418.9041      14523.909      4172.5937     -137164.01    
    854300   2445.5901      11110.206      4161.8407     -137167.48    
    854400   2406.314       1878.136       4215.0777     -137167.03    
    854500   2467.2495      4089.2026      4298.2505     -137160.26    
    854600   2607.1151     -7916.2169      4381.8156     -137159.4     
    854700   2609.386      -5976.5769      4412.0773     -137161.62    
    854800   2467.4127      2897.9715      4408.7023     -137162.2     
    854900   2254.2962     -9219.3912      4408.7261     -137163.08    
    855000   2161.39        1705.6746      4374.2176     -137164.33    
    855100   2509.1276     -443.91632      4337.6273     -137163.12    
    855200   2624.3179      2642.6348      4313.5165     -137162.27    
    855300   2621.6744     -731.38666      4321.555      -137162.24    
    855400   2396.0193     -4186.2046      4333.315      -137162.05    
    855500   2306.489      -4364.073       4326.0383     -137163.31    
    855600   2574.2386     -5504.1634      4308.3389     -137166.55    
    855700   2685.3466      1740.1936      4305.848      -137158.69    
    855800   2619.519       3648.2162      4314.0956     -137158.95    
    855900   2258.9886      7599.7258      4338.0437     -137154.66    
    856000   2415.8391     -3749.9655      4392.4915     -137159.13    
    856100   2445.7149      1235.1905      4448.8461     -137155.97    
    856200   2680.3462     -5274.2251      4504.3499     -137152.08    
    856300   2601.65       -1652.9195      4494.0288     -137151.44    
    856400   2574.8454      7321.9318      4446.3827     -137157.6     
    856500   2667.7065     -10040.418      4413.2448     -137162.4     
    856600   2459.2028      6704.1669      4358.8091     -137159.24    
    856700   2593.2241     -6401.0909      4329.1672     -137164.92    
    856800   2406.1176     -1390.0229      4294.2693     -137160.47    
    856900   2601.4848      10801.885      4269.2418     -137161.71    
    857000   2580.5489      2532.7441      4300.8892     -137159.61    
    857100   2378.9122      1179.3204      4358.4939     -137160.53    
    857200   2318.4798     -12078.842      4409.9895     -137161.39    
    857300   2533.9149     -3484.7965      4398.8484     -137158.94    
    857400   2562.3022     -3016.1921      4357.2062     -137154.04    
    857500   2696.4483      9569.5873      4304.8643     -137160.52    
    857600   2468.7003      1608.5724      4286.931      -137162.01    
    857700   2383.0472     -1744.3955      4294.3011     -137162.87    
    857800   2512.8544     -4021.6206      4297.214      -137164.56    
    857900   2657.7303      8317.9924      4292.146      -137161.64    
    858000   2730.3398      11289.844      4326.1191     -137157.35    
    858100   2543.6673     -6094.0099      4411.1956     -137158.8     
    858200   2269.1529     -8029.8075      4463.6423     -137156.98    
    858300   2479.4866     -618.70521      4440.8945     -137158.34    
    858400   2636.1662      2316.5894      4395.6498     -137156.76    
    858500   2838.7114     -10496.472      4363.6107     -137162.98    
    858600   2559.1648      2297.9691      4336.2094     -137160.15    
    858700   2527.1887     -159.25919      4336.5164     -137162.28    
    858800   2501.8661      3577.1883      4344.3036     -137161.73    
    858900   2519.124      -3065.0449      4376.363      -137162.94    
    859000   2449.602      -9143.8474      4408.682      -137162.35    
    859100   2522.454      -2651.575       4402.4271     -137163.63    
    859200   2527.9708      7057.6597      4377.9392     -137157.73    
    859300   2921.4478      3606.3137      4399.1393     -137163.62    
    859400   2566.1441     -4359.5122      4477.9912     -137160.77    
    859500   2332.4619     -14435.173      4548.5812     -137156.71    
    859600   2372.065      -3159.1441      4558.8453     -137154.14    
    859700   2568.4933     -10978.104      4527.1263     -137155.55    
    859800   2655.4602      2381.2695      4445.1311     -137155.72    
    859900   2460.8685      2850.7746      4398.2934     -137154.16    
    860000   2279.7178      528.23805      4346.1887     -137160.94    
    860100   2429.1939      3275.5785      4286.4242     -137164.57    
    860200   2534.6466      11300.016      4259.1791     -137162.94    
    860300   2470.3745      1585.8472      4295.6474     -137158.68    
    860400   2478.8156      4742.1576      4348.7916     -137157.16    
    860500   2475.6851      9258.6855      4405.5807     -137152.1     
    860600   2708.4289     -1184.3386      4473.8284     -137154.56    
    860700   2272.7424     -3663.0899      4523.6664     -137150.47    
    860800   2551.0175     -10876.795      4503.857      -137161.09    
    860900   2463.6715     -4234.0439      4416.701      -137158.03    
    861000   2660.1248      15618.123      4352.2963     -137156.79    
    861100   2810.2675      8719.7         4388.0737     -137156.09    
    861200   2349.2701     -4816.498       4463.9214     -137156.85    
    861300   2529.4063     -10620.892      4489.6433     -137161.24    
    861400   2602.8922     -3278.8028      4425.3953     -137159.81    
    861500   2726.2894     -3706.6416      4334.0798     -137163.91    
    861600   2347.8647      14879.876      4264.22       -137162.49    
    861700   2483.6004      1762.7454      4273.9706     -137165.66    
    861800   2600.2229     -2928.332       4322.8606     -137165.3     
    861900   2597.5041     -677.14926      4374.0497     -137160.9     
    862000   2805.4547      2123.5592      4419.3133     -137157.5     
    862100   2514.2995     -5250.1898      4464.6842     -137145.73    
    862200   2652.0138     -2919.1281      4441.2341     -137159.75    
    862300   2470.704       12783.065      4399.6979     -137159.1     
    862400   2557.6958     -2121.5683      4414.3409     -137163.99    
    862500   2229.7254     -2237.6895      4430.8119     -137157.44    
    862600   2448.5986     -2065.7282      4440.4638     -137155.86    
    862700   2801.751      -3602.7864      4420.9593     -137160.42    
    862800   2560.1747      4427.2872      4380.7882     -137158.03    
    862900   2483.5409     -5869.9033      4358.0807     -137162.86    
    863000   2331.8879      2805.8118      4328.2384     -137159.51    
    863100   2375.5059      16105.8        4319.3443     -137157.69    
    863200   2709.891      -3266.0721      4383.4006     -137162.89    
    863300   2719.5338     -5633.7534      4445.7992     -137150.32    
    863400   2708.9819      2105.9543      4461.911      -137149.73    
    863500   2548.4504     -5296.2334      4461.9627     -137152.69    
    863600   2631.909       307.48389      4432.7843     -137160.14    
    863700   2308.254       2595.8699      4390.4151     -137156       
    863800   2518.8083     -236.70036      4351.605      -137162.21    
    863900   2570.0995     -238.44565      4328.6602     -137163.23    
    864000   2527.5747      3632.5726      4309.6744     -137160.69    
    864100   2510.6081     -6224.2814      4307.0451     -137161.71    
    864200   2434.8409      4692.0722      4314.5211     -137162.59    
    864300   2371.4292      1338.9821      4372.4349     -137159.02    
    864400   2621.2187     -11158.044      4437.1602     -137157.63    
    864500   2605.1022      1210.5617      4448.8954     -137156.69    
    864600   2291.9185     -4200.3792      4438.1159     -137153.58    
    864700   2463.7569     -5946.8107      4382.5195     -137161.8     
    864800   2320.6417      8435.6678      4312.4814     -137162.63    
    864900   2361.8431     -1248.6817      4289.3075     -137162.59    
    865000   2606.193       3971.9023      4274.5486     -137162.22    
    865100   2504.4563      15075.646      4292.4339     -137160.29    
    865200   2338.8696     -9880.8162      4366.539      -137161.06    
    865300   2320.2672     -4783.6209      4398.4218     -137157.7     
    865400   2458.7866      630.96263      4376.7496     -137158.63    
    865500   2574.9134     -1264.3314      4347.8052     -137161.36    
    865600   2368.0784      5402.4677      4326.5944     -137157.53    
    865700   2495.5063      9496.3149      4303.509      -137160.54    
    865800   2735.249       1411.2082      4321.7799     -137163.21    
    865900   2346.2566      5619.0934      4384.5056     -137152.81    
    866000   2375.2149     -5400.7373      4456.4633     -137157.64    
    866100   2440.436      -17834.478      4475.037      -137161.51    
    866200   2401.8441      8573.8492      4417.4348     -137154.4     
    866300   2665.025       8603.5356      4382.0433     -137154.9     
    866400   2681.164      -1736.638       4395.8645     -137159.74    
    866500   2352.4439     -5660.0571      4386.3864     -137155.41    
    866600   2444.8652      3935.7895      4339.0429     -137157.03    
    866700   2759.7957      3405.0191      4305.3888     -137165.97    
    866800   2384.2889     -6592.144       4296.3973     -137163.52    
    866900   2312.5219      10552.339      4294.8547     -137166.25    
    867000   2327.8212     -1186.5958      4338.3642     -137161.73    
    867100   2488.4861     -4106.5346      4350.1249     -137161.2     
    867200   2544.6442     -2280.1299      4314.7767     -137161.42    
    867300   2433.1748      1046.066       4264.6594     -137161.73    
    867400   2304.2605      5052.0403      4226.7255     -137163.76    
    867500   2472.7542      345.4352       4224.5598     -137166.52    
    867600   2699.8258     -1238.3515      4256.1263     -137163.13    
    867700   2593.9228     -8376.2071      4316.663      -137163.86    
    867800   2442.8007     -6850.702       4360.9961     -137164.14    
    867900   2469.3226     -2317.8637      4377.3419     -137164.1     
    868000   2431.792      -2103.246       4391.6487     -137160.3     
    868100   2657.8824     -10858.54       4386.7261     -137164.47    
    868200   2555.2461      5897.2763      4334.6879     -137162.14    
    868300   2366.795       118.89235      4306.9753     -137159.83    
    868400   2400.2021      5990.0347      4286.8747     -137165.37    
    868500   2338.1635      5045.4084      4301.384      -137171.27    
    868600   2272.3712     -4650.4753      4337.002      -137166.64    
    868700   2589.8024     -3323.2953      4335.9831     -137166.33    
    868800   2498.4082      8383.2487      4327.1242     -137160.95    
    868900   2550.4806      872.19487      4353.7515     -137159.33    
    869000   2731.9761     -4490.7287      4385.237      -137162.49    
    869100   2477.1001     -13285.125      4400.0824     -137162.3     
    869200   2372.1937     -4058.9417      4358.6746     -137164.54    
    869300   2599.7642     -1841.5813      4277.157      -137169.08    
    869400   2758.8218      16856.383      4223.2725     -137163.2     
    869500   2630.0454      16091.864      4267.8156     -137159.13    
    869600   2347.3062      873.35653      4372.4414     -137157.23    
    869700   2558.3142     -14589.81       4461.5653     -137161.29    
    869800   2648.0414     -12635.59       4488.6466     -137156.95    
    869900   2783.9485      1695.6719      4476.5877     -137159       
    870000   2365.3954     -3337.821       4496.9876     -137153.36    
    870100   2523.7176     -6382.8516      4483.352      -137160.29    
    870200   2544.3151     -6823.2437      4434.2322     -137160.48    
    870300   2488.1449      4281.8933      4363.9013     -137158.94    
    870400   2507.8568      6575.8442      4308.5108     -137158.43    
    870500   2673.0509      7892.048       4304.5722     -137158.73    
    870600   2630.2439     -11807.929      4346.1737     -137160.85    
    870700   2421.6366     -5642.4254      4342.3832     -137162.8     
    870800   2414.3024     -6017.2622      4300.295      -137162.72    
    870900   2764.3399      9415.9331      4243.3879     -137166.23    
    871000   2594.2975      14425.943      4257.4059     -137162       
    871100   2211.57        3044.6466      4335.9779     -137164       
    871200   2304.4628     -10031.136      4382.8143     -137166.43    
    871300   2387.5307     -398.02527      4380.0099     -137160.94    
    871400   2592.7167      6493.4932      4372.3384     -137161.87    
    871500   2513.8685      2345.7814      4384.0907     -137159.17    
    871600   2588.2185      3887.7545      4420.8582     -137159.03    
    871700   2583.9245     -5781.6334      4469.5921     -137159.23    
    871800   2416.2491     -6838.049       4494.3724     -137158.52    
    871900   2428.7949     -11334.255      4462.3752     -137161.81    
    872000   2532.9325      11166.077      4369.7009     -137159.98    
    872100   2675.8162      9796.1397      4330.7716     -137156.83    
    872200   2652.0628      2820.3365      4348.1933     -137158.95    
    872300   2351.1398     -12789.205      4364.4569     -137158.71    
    872400   2374.7201      8711.2544      4313.7111     -137159.37    
    872500   2463.758       10955.574      4292.8779     -137160.32    
    872600   2498.9001      1221.3207      4336.0809     -137159.1     
    872700   2347.4146      13243.515      4394.7528     -137152.3     
    872800   2739.2847     -2924.7928      4472.1661     -137154.36    
    872900   2659.213      -9277.7964      4507.3269     -137153.17    
    873000   2534.6458     -5229.7266      4479.7368     -137158.65    
    873100   2528.3844      274.62096      4432.1989     -137159.79    
    873200   2638.1948     -7914.2825      4369.8709     -137163.85    
    873300   2557.9535      7426.1178      4282.8185     -137165.5     
    873400   2435.1102      6271.4743      4257.5247     -137167.83    
    873500   2216.1537      1555.6265      4280.4406     -137163.81    
    873600   2564.1456      2578.1774      4296.4974     -137162.62    
    873700   2512.4599      8406.6056      4318.5245     -137158.16    
    873800   2413.0367     -451.66119      4374.7918     -137159.42    
    873900   2382.8391     -13157.932      4435.329      -137161.37    
    874000   2563.4156     -6130.4592      4425.7719     -137159.54    
    874100   2797.7652      6720.923       4386.9515     -137159.43    
    874200   2501.6253      4625.0458      4386.1696     -137156.44    
    874300   2506.9818     -5640.3209      4409.7328     -137158.68    
    874400   2438.1445      5317.9127      4412.8914     -137157.09    
    874500   2544.884      -995.78346      4419.1352     -137161.94    
    874600   2227.0079     -5471.3937      4417.3995     -137160.3     
    874700   2298.6234      1403.4512      4371.7748     -137157.58    
    874800   2664.7452      1803.3681      4292.8475     -137161.96    
    874900   2441.2268      22959.869      4227.9616     -137159.38    
    875000   2453.1101      1005.159       4251.2269     -137165.68    
    875100   2272.4151      9716.7112      4309.1492     -137162.1     
    875200   2516.489      -11213.622      4397.2826     -137161.76    
    875300   2634.3851     -3395.7384      4464.8816     -137158.25    
    875400   2453.5295     -7960.8991      4512.4049     -137154.94    
    875500   2389.1532     -1709.9311      4478.1783     -137155.82    
    875600   2545.9638     -10419.114      4389.8539     -137162.11    
    875700   2565.6903      10659.32       4275.863      -137161.29    
    875800   2652.1939      18222.889      4217.3901     -137160.61    
    875900   2603.417       6544.4586      4251.0419     -137166.6     
    876000   2233.3016     -544.3556       4344.3069     -137162.56    
    876100   2357.2737     -12043.394      4431.7564     -137160.77    
    876200   2478.6295     -1513.1776      4460.941      -137158.48    
    876300   2510.6357     -12887.033      4453.1851     -137157.77    
    876400   2374.0042      12447.604      4381.8825     -137154.4     
    876500   2502.7827      4832.2111      4366.4262     -137161.36    
    876600   2244.2011     -7489.1912      4404.4515     -137159.78    
    876700   2425.5058     -6651.3474      4400.1841     -137161.48    
    876800   2572.9639      752.17856      4375.476      -137157.66    
    876900   2542.9433      5887.4412      4368.3731     -137156.97    
    877000   2536.8822     -3744.8311      4397.0072     -137160.11    
    877100   2400.8487     -16265.489      4410.6319     -137164.08    
    877200   2371.7827      3771.33        4351.3177     -137166.07    
    877300   2625.5884      6939.631       4315.004      -137161.82    
    877400   2536.9579      3960.3051      4352.0956     -137155.3     
    877500   2495.3533     -9108.1497      4394.6325     -137158.39    
    877600   2471.5979     -909.61503      4403.743      -137162.39    
    877700   2348.6074     -1057.8568      4386.5449     -137162.65    
    877800   2279.0531     -5305.6774      4310.8532     -137161.17    
    877900   2649.1883      12839.032      4199.1229     -137162.44    
    878000   2639.792       20757.418      4164.222      -137165.42    
    878100   2278.6039     -1542.5773      4255.8897     -137161.75    
    878200   2389.1924     -4310.8712      4354.8654     -137161.03    
    878300   2459.5537     -9165.2338      4436.5965     -137157.97    
    878400   2386.9544      510.04696      4476.4462     -137153.49    
    878500   2663.1305     -13809.303      4460.4017     -137159.02    
    878600   2515.104       136.10616      4354.7443     -137158.63    
    878700   2429.2517      11035.856      4257.4138     -137166.55    
    878800   2443.1266     -3221.7803      4219.2119     -137167.3     
    878900   2600.7692      3224.7866      4201.6667     -137167.96    
    879000   2510.8839      7371.6168      4227.1671     -137161.23    
    879100   2711.5585      5554.4875      4287.5285     -137163.95    
    879200   2595.4667     -11832.294      4361.662      -137165.76    
    879300   2201.2035     -10841.261      4379.7081     -137160.89    
    879400   2449.1825      3233.2031      4342.9039     -137162.44    
    879500   2570.461       3042.5364      4340.1141     -137159.94    
    879600   2609.8763     -4493.4285      4380.9215     -137160.62    
    879700   2528.565      -8642.5631      4403.5032     -137161.6     
    879800   2377.6886     -306.24086      4382.6717     -137158.81    
    879900   2433.2846     -746.23737      4352.6867     -137159.35    
    880000   2619.1309      10822.051      4312.4962     -137163.76    
    880100   2540.4897     -524.56712      4321.7071     -137163.53    
    880200   2401.1815     -7054.8079      4323.7159     -137163.93    
    880300   2432.5505      7638.0285      4291.8471     -137166.32    
    880400   2438.2653      2938.9992      4289.7399     -137160.61    
    880500   2730.7862     -513.8106       4316.6497     -137164.4     
    880600   2413.6767      11748.734      4363.8292     -137162.69    
    880700   2319.8403     -9917.3545      4451.0157     -137160.88    
    880800   2487.6311     -12509.602      4467.2883     -137159.86    
    880900   2534.619       1883.8495      4402.9341     -137160.2     
    881000   2545.4155      4851.9435      4360.5092     -137160.49    
    881100   2408.4205     -3590.11        4342.3606     -137160.4     
    881200   2300.6552     -3819.4564      4313.9779     -137165.12    
    881300   2290.782       18.801723      4253.9018     -137167.36    
    881400   2406.4401      15911.409      4194.0379     -137161.57    
    881500   2619.3878     -2025.1928      4197.0034     -137163.74    
    881600   2471.2822     -3264.6053      4209.5671     -137164.43    
    881700   2428.1628      5538.4129      4229.4382     -137167.17    
    881800   2380.5151      2275.343       4293.8896     -137162.11    
    881900   2509.9366      6088.192       4359.8332     -137156.15    
    882000   2610.3651     -91.744818      4468.7681     -137158.17    
    882100   2571.1409     -11051.819      4604.0894     -137157.24    
    882200   2493.6764     -7449.0425      4679.3175     -137151.8     
    882300   2622.5396     -20060.369      4666.5305     -137149       
    882400   2877.585       1344.1477      4558.5966     -137157.97    
    882500   2389.2158      85.95701       4478.4128     -137158.25    
    882600   2396.6924      4910.3923      4408.6251     -137160.56    
    882700   2622.0814     -8529.1186      4356.8741     -137164.38    
    882800   2539.4622     -2985.2059      4310.0878     -137159.69    
    882900   2693.2327      12761.585      4290.9812     -137164.2     
    883000   2437.4368     -481.91852      4336.3323     -137165.79    
    883100   2374.1697     -9605.5956      4371.0158     -137165.54    
    883200   2365.491       4234.5325      4369.2448     -137159.02    
    883300   2357.9753      2309.145       4389.2228     -137155.75    
    883400   2517.9339      1091.7189      4410.0468     -137160.49    
    883500   2455.5982      2069.7803      4454.8537     -137159.08    
    883600   2559.0041     -13983.252      4494.6698     -137161.52    
    883700   2538.5436     -4036.997       4467.8447     -137158.01    
    883800   2734.9811      5967.4285      4430.0771     -137157.51    
    883900   2743.6945     -8525.1473      4441.6306     -137157.79    
    884000   2401.5441     -6771.7283      4444.0657     -137157.79    
    884100   2452.5917     -10138.997      4398.6022     -137160.69    
    884200   2576.5423      9157.4566      4316.7969     -137161.14    
    884300   2568.7966      1725.5673      4292.2141     -137159.84    
    884400   2429.6125      2635.6778      4284.4854     -137162.16    
    884500   2255.281      -1362.9543      4282.4506     -137165.68    
    884600   2507.6441      1751.8283      4279.4672     -137168.59    
    884700   2459.1975      7598.352       4294.3819     -137164.29    
    884800   2477.3147     -52.839199      4371.5742     -137160.89    
    884900   2542.6213      5204.2325      4465.913      -137156.01    
    885000   2604.2645     -16102.496      4559.7642     -137153.32    
    885100   2663.9526     -13394.984      4554.9617     -137155.34    
    885200   2321.601      -1356.8218      4481.246      -137155.56    
    885300   2302.3891     -1535.6792      4383.6422     -137159.59    
    885400   2739.7562      13657.691      4261.3219     -137168.3     
    885500   2362.2576      14976.314      4226.78       -137159.83    
    885600   2316.5536     -989.28034      4261.3708     -137167.17    
    885700   2097.6489      2066.5721      4271.3925     -137163.42    
    885800   2504.4052      2281.4043      4268.2392     -137164.27    
    885900   2505.6535      3015.0502      4293.4394     -137161.69    
    886000   2664.7347     -2590.1951      4332.6955     -137165.88    
    886100   2323.3942      207.02192      4356.7793     -137161.47    
    886200   2433.5949     -7417.6892      4343.0428     -137164.52    
    886300   2616.4122      5276.9544      4301.8413     -137160.91    
    886400   2676.028      -2276.1474      4284.2899     -137161.91    
    886500   2540.7757      1603.8425      4283.3233     -137161.79    
    886600   2466.0545      6281.6152      4293.5005     -137161.25    
    886700   2434.2778      980.60085      4316.8884     -137159.68    
    886800   2414.1518      2336.4745      4322.1881     -137158       
    886900   2484.993       5913.0135      4308.8148     -137156.78    
    887000   2827.1597      16752.79       4311.8926     -137159.22    
    887100   2509.1932     -5573.1195      4382.6779     -137159.27    
    887200   2389.8347     -8529.275       4451.2452     -137158.34    
    887300   2374.2786     -643.78         4467.505      -137154.07    
    887400   2763.2639     -2553.5062      4474.0323     -137160.03    
    887500   2537.2422     -10648.054      4462.9409     -137158.38    
    887600   2251.7908     -3667.1013      4412.4871     -137161.62    
    887700   2308.0128     -1170.9463      4346.5265     -137161.92    
    887800   2619.499      -4500.1625      4282.6041     -137165.05    
    887900   2586.3675      13073.466      4251.4606     -137162.82    
    888000   2394.8886      8948.3072      4298.2416     -137161.92    
    888100   2296.9267     -6130.6433      4361.806      -137157.97    
    888200   2571.819       1701.6409      4366.1906     -137155.93    
    888300   2664.5388      835.54662      4368.4747     -137161.52    
    888400   2501.2055      683.12273      4378.6971     -137162.73    
    888500   2372.9896     -7647.5845      4394.8827     -137159.17    
    888600   2568.6947     -6183.2262      4377.4543     -137157.95    
    888700   2554.5235      4325.7363      4328.6075     -137155.39    
    888800   2730.0291     -546.72467      4315.1448     -137164.03    
    888900   2359.7523      1921.1149      4333.0937     -137160.29    
    889000   2274.4082     -5749.0054      4330.9206     -137158.78    
    889100   2587.1421      7236.9825      4298.4503     -137160.68    
    889200   2659.7482      8008.1566      4298.4886     -137160.48    
    889300   2456.2713     -3659.0267      4343.1687     -137167.74    
    889400   2347.572      -5313.7795      4380.8375     -137164.44    
    889500   2429.9051      4733.3011      4401.036      -137159.94    
    889600   2564.1212     -3689.0844      4431.9078     -137159.11    
    889700   2473.7359      1088.7553      4435.3116     -137153.82    
    889800   2754.8027     -2374.5168      4417.9218     -137156.59    
    889900   2644.16        4613.8214      4393.44       -137153.47    
    890000   2557.0198      1652.6804      4375.9971     -137162.66    
    890100   2597.3484     -6685.5918      4369.9939     -137166.83    
    890200   2336.3656      3146.0743      4359.1756     -137161.06    
    890300   2570.3465     -1641.7758      4364.1147     -137162.09    
    890400   2630.8884      4073.9781      4362.5157     -137158.63    
    890500   2448.6142      3643.8158      4368.4325     -137155.72    
    890600   2597.7372     -12077.358      4378.8065     -137162.56    
    890700   2220.2118      4201.6236      4345.938      -137162.16    
    890800   2302.0135      1215.7531      4285.3198     -137165.06    
    890900   2695.6641      3929.2238      4216.839      -137168.56    
    891000   2557.0814      13474.465      4201.3402     -137164.86    
    891100   2448.1941     -6115.5679      4258.8681     -137164.64    
    891200   2312.1075      3195.6495      4312.7766     -137160.75    
    891300   2510.222       1673.8597      4365.9749     -137162.66    
    891400   2452.6327     -12152.72       4408.8666     -137160.39    
    891500   2415.8433      2942.3393      4408.5477     -137157.75    
    891600   2712.7644     -10583.354      4416.4224     -137161.8     
    891700   2685.2467      3655.7305      4388.9328     -137161.22    
    891800   2375.0128     -934.58862      4375.4145     -137160.77    
    891900   2333.6321      1393.8671      4356.9108     -137162.48    
    892000   2512.255       3669.3375      4335.0998     -137163.92    
    892100   2578.5515      5223.7503      4336.0696     -137155.69    
    892200   2684.7727      3625.2239      4414.0704     -137153.19    
    892300   2526.2586     -4378.1661      4548.3766     -137154.3     
    892400   2286.7392     -13307.097      4648.1782     -137152.62    
    892500   2414.9707     -22114.801      4660.279      -137153.53    
    892600   2586.0648     -503.20275      4529.7534     -137154.62    
    892700   2632.8139      8250.1558      4378.8727     -137158.63    
    892800   2602.5996      11430.29       4282.2464     -137162.22    
    892900   2391.1154      8153.2754      4261.6247     -137161.09    
    893000   2450.0666     -6870.9445      4283.6349     -137165.21    
    893100   2493.9149     -4396.6397      4282.2952     -137163.79    
    893200   2742.7016      11128.286      4263.2138     -137160.32    
    893300   2537.1155      1852.6498      4279.7141     -137159.23    
    893400   2469.0678     -2450.6089      4298.2259     -137162.75    
    893500   2431.6627      5184.9942      4323.0062     -137163.23    
    893600   2572.0361     -2270.8365      4363.1737     -137165.35    
    893700   2649.4605      10258.744      4399.7957     -137157.88    
    893800   2580.8425     -6912.3653      4470.5716     -137151.29    
    893900   2661.2241     -3574.1958      4499.2404     -137157.81    
    894000   2432.8382     -5815.4047      4510.7074     -137156.19    
    894100   2472.0411     -519.21631      4472.1094     -137158.23    
    894200   2505.8999     -3132.989       4411.5314     -137157.59    
    894300   2637.5011     -5645.8914      4350.1119     -137157.91    
    894400   2864.0974      4110.6912      4299.462      -137166.11    
    894500   2255.6456      4731.5358      4290.1025     -137157.84    
    894600   2437.6674     -2278.2283      4291.7904     -137162.89    
    894700   2393.5423      7671.7378      4302.2594     -137156.83    
    894800   2572.284       3413.1201      4360.5863     -137156.21    
    894900   2687.4478     -6399.1707      4437.0295     -137158.3     
    895000   2329.973      -7697.3997      4488.9135     -137156.33    
    895100   2401.046      -11294.05       4483.731      -137161.87    
    895200   2567.74       -11344.703      4404.3652     -137162.6     
    895300   2689.7156      2909.0102      4300.9685     -137158.79    
    895400   2677.2899      7131.6731      4243.4238     -137161.12    
    895500   2584.6467      2139.0932      4252.8775     -137164.07    
    895600   2353.7519      2599.3311      4307.5368     -137161.1     
    895700   2410.8486     -3572.3156      4355.2029     -137159.5     
    895800   2744.6446      2508.3211      4375.3241     -137161.68    
    895900   2500.5458      1871.981       4414.9231     -137156.61    
    896000   2483.6834     -1876.1642      4442.7924     -137159.42    
    896100   2479.7614      6503.2669      4431.5725     -137160.37    
    896200   2423.5295     -1231.8161      4437.8082     -137157.11    
    896300   2523.6382     -2920.5684      4465.6146     -137153.26    
    896400   2775.3636     -8278.0099      4474.2826     -137154.72    
    896500   2772.7618     -2407.0312      4419.5092     -137160.46    
    896600   2656.424       2396.3879      4352.6095     -137163.55    
    896700   2354.5796      5321.6317      4311.6897     -137162.3     
    896800   2308.91        5373.8998      4281.3181     -137162.25    
    896900   2751.433      -7168.2387      4260.1209     -137168.42    
    897000   2691.8277      8907.2698      4261.4336     -137161.56    
    897100   2615.9877     -1150.7384      4305.7321     -137164.12    
    897200   2244.3622      2621.2961      4344.3391     -137160.1     
    897300   2512.377      -1271.282       4401.8151     -137163.99    
    897400   2434.1789     -7591.5821      4455.4203     -137155.05    
    897500   2690.1004     -1155.1157      4453.7853     -137156.51    
    897600   2696.6658     -2145.5857      4450.6501     -137158.75    
    897700   2365.5944     -9696.488       4458.6314     -137156.79    
    897800   2401.116      -8620.0393      4414.6928     -137161.17    
    897900   2408.6769      14954.316      4339.4705     -137159.48    
    898000   2595.3177      3696.7129      4342.0998     -137164.48    
    898100   2419.2093     -5241.9058      4392.6302     -137160.31    
    898200   2572.5064     -1504.8397      4425.5946     -137159.81    
    898300   2561.8886     -1624.8389      4447.7165     -137152.74    
    898400   2743.6748      125.48396      4441.925      -137153.99    
    898500   2517.9982     -4194.3738      4399.6675     -137159.79    
    898600   2345.5365      8317.4901      4315.8592     -137158.69    
    898700   2637.0822      7643.5879      4245.2917     -137165.08    
    898800   2476.2657      10195.386      4238.4061     -137162.76    
    898900   2372.2202     -5797.8838      4300.4817     -137165.31    
    899000   2294.9678     -2362.1609      4369.8632     -137162.51    
    899100   2353.1603      1549.2118      4431.8457     -137153.66    
    899200   2611.8523     -7471.6025      4473.9986     -137156.92    
    899300   2434.1363      2919.1751      4463.0165     -137154.9     
    899400   2286.1878     -1257.1469      4444.6958     -137155.06    
    899500   2410.5493      702.62023      4404.4588     -137157.21    
    899600   2719.606       5771.728       4359.5375     -137156.68    
    899700   2762.065       8364.4953      4356.7892     -137161.52    
    899800   2245.822      -9712.0189      4421.4632     -137154.33    
    899900   2520.0778     -6050.8459      4443.0665     -137158.85    
    900000   2617.2185     -7996.8708      4427.6901     -137156.38    
    900100   2613.4938      9079.7882      4361.6095     -137159.59    
    900200   2347.8684      1047.7925      4311.4707     -137160.96    
    900300   2582.3709     -769.36362      4264.8424     -137165.83    
    900400   2644.743       12742.573      4240.0713     -137165.56    
    900500   2422.6799     -1538.0503      4308.6719     -137161.47    
    900600   2471.3761     -13680.339      4384.4362     -137161.22    
    900700   2690.6469      917.94671      4377.4127     -137160.75    
    900800   2427.6776      5582.6309      4362.7834     -137157.29    
    900900   2332.3999      2955.2975      4363.5587     -137161.52    
    901000   2457.7906      8440.6309      4385.7909     -137162.85    
    901100   2302.7642     -1474.3829      4476.2898     -137155.11    
    901200   2531.2394     -17704.453      4529.5613     -137156.71    
    901300   2747.3007     -2826.6434      4480.6776     -137161.42    
    901400   2318.1923     -2879.0946      4424.5943     -137155.21    
    901500   2279.1514      5092.6576      4350.1339     -137160.73    
    901600   2293.1324      5500.0754      4296.2594     -137162.97    
    901700   2593.3088     -2525.9549      4250.1815     -137169.42    
    901800   2549.143       11676.331      4222.911      -137163.76    
    901900   2525.9042      3019.467       4268.467      -137161.25    
    902000   2403.1824      1749.2953      4320.9885     -137158.92    
    902100   2517.3616     -2826.8674      4354.5681     -137164.05    
    902200   2443.4998      123.49204      4381.8917     -137160.65    
    902300   2657.3271     -4190.627       4400.2417     -137159.73    
    902400   2548.0466      5293.5362      4387.1289     -137158.48    
    902500   2323.2033     -4477.676       4373.8414     -137162.1     
    902600   2306.1175      7792.9559      4334.0246     -137161.27    
    902700   2616.1514      924.04488      4317.3773     -137165.91    
    902800   2482.704       7768.4377      4343.9208     -137159.66    
    902900   2443.127      -2273.0918      4427.3042     -137153.16    
    903000   2814.7094     -4481.5232      4487.6492     -137152.39    
    903100   2797.4798     -8212.299       4519.1522     -137155.45    
    903200   2610.834      -5507.6139      4511.7644     -137156.5     
    903300   2536.3285      469.363        4448.8086     -137158.68    
    903400   2444.2076      6588.4988      4367.5097     -137157.94    
    903500   2491.0493      611.72031      4307.8317     -137161.3     
    903600   2237.7047      3531.4923      4267.8226     -137162.29    
    903700   2313.6907      11522.317      4244.749      -137164.65    
    903800   2529.1244      6414.2328      4266.0158     -137162.96    
    903900   2497.5738      8175.1599      4322.0176     -137158.77    
    904000   2458.4409     -12476.107      4391.1148     -137157.07    
    904100   2560.9864      4381.6446      4422.5759     -137160.02    
    904200   2309.9854     -9422.4041      4453.5453     -137159.33    
    904300   2240.7533     -5269.0936      4422.0923     -137162.29    
    904400   2636.5888      3480.7607      4372.2192     -137164.94    
    904500   2668.6534     -1332.0839      4351.1005     -137160.89    
    904600   2489.5471     -2464.7251      4340.9918     -137159.75    
    904700   2508.4959     -3241.9454      4314.8901     -137163.77    
    904800   2242.4457     -1823.6023      4272.8274     -137162.09    
    904900   2259.6759      2024.8701      4232.5823     -137168.29    
    905000   2234.4264      13170.29       4215.0698     -137162.53    
    905100   2503.9401      8947.7698      4275.6033     -137161.31    
    905200   2487.9424     -10460.927      4375.2545     -137158.82    
    905300   2468.4111     -1097.9967      4425.3098     -137157.62    
    905400   2685.9813      936.94681      4445.1465     -137162.75    
    905500   2442.8157     -5285.8666      4453.9123     -137160.36    
    905600   2394.2456     -6854.4968      4398.2572     -137162.24    
    905700   2452.4426      6802.372       4291.9467     -137158.32    
    905800   2789.8404      17546.957      4254.7734     -137161.6     
    905900   2419.2472     -1157.4421      4325.4832     -137158.35    
    906000   2588.3901     -4486.7261      4382.4112     -137164.89    
    906100   2447.9422     -6764.9691      4414.1438     -137161.29    
    906200   2470.0564     -5580.8921      4415.026      -137159.19    
    906300   2818.0887     -2113.9337      4389.1563     -137159.9     
    906400   2575.8047      14750.379      4381.6413     -137153.52    
    906500   2478.1538     -6603.7444      4409.6344     -137161.65    
    906600   2451.1918      994.17482      4410.4552     -137161.58    
    906700   2447.1644     -2537.3379      4402.5372     -137161.22    
    906800   2445.8523     -894.48311      4366.1422     -137159.95    
    906900   2669.9273      8611.2556      4307.6556     -137163.04    
    907000   2467.4013      5353.3014      4288.548      -137161.5     
    907100   2361.4346     -5892.6187      4291.1365     -137166       
    907200   2365.4905      7385.4189      4270.6902     -137165.47    
    907300   2549.1493      10469.553      4290.8198     -137163.64    
    907400   2431.0004     -9761.2001      4368.2426     -137157.93    
    907500   2416.46       -4041.1358      4397.0961     -137156.34    
    907600   2592.9         1802.6427      4398.1906     -137159.95    
    907700   2461.978      -9872.8405      4427.7409     -137161.12    
    907800   2423.2265     -6611.7942      4402.5896     -137165.35    
    907900   2452.7738      12771.169      4309.9268     -137162.78    
    908000   2728.8033      11740.643      4252.3939     -137161.31    
    908100   2587.2048      113.19913      4269.516      -137161.55    
    908200   2538.8031      3148.0141      4318.5106     -137164.49    
    908300   2321.2979      928.66152      4381.4811     -137157.92    
    908400   2560.8284     -6576.1887      4405.792      -137155.2     
    908500   2754.5194      4884.4084      4383.8967     -137157.81    
    908600   2578.6383     -7180.9368      4383.9207     -137160.18    
    908700   2467.4697     -3190.7661      4357.3993     -137163.04    
    908800   2496.3329      17940.379      4332.8568     -137164.17    
    908900   2376.1639     -1276.4165      4400.8719     -137159       
    909000   2591.0065     -3575.2537      4483.9669     -137156       
    909100   2702.0745     -10055.057      4543.974      -137155       
    909200   2423.2082     -10572.72       4541.5857     -137150.11    
    909300   2581.7755     -4763.9932      4460.9906     -137161.47    
    909400   2303.4154      5326.8319      4344.2551     -137163.32    
    909500   2497.3798     -2885.4253      4247.8719     -137166.38    
    909600   2527.2184      14025.714      4180.4808     -137161.91    
    909700   2446.9296      13128.834      4201.2722     -137158.52    
    909800   2496.6396     -11272.851      4279.464      -137164.88    
    909900   2092.9013     -1574.0707      4321.1856     -137160.28    
    910000   2427.2832     -7523.7509      4329.214      -137165.19    
    910100   2513.9531      10751.192      4304.5952     -137158.82    
    910200   2610.7694      2587.9064      4331.1644     -137160.89    
    910300   2473.4091     -7324.6788      4379.5881     -137161.85    
    910400   2393.8868     -9621.3109      4390.1926     -137164.27    
    910500   2253.4637      6926.5233      4352.9638     -137158.21    
    910600   2632.9055      6565.1562      4333.1892     -137157.26    
    910700   2584.9925      1509.0988      4350.3285     -137159.15    
    910800   2300.658       11236.952      4399.0705     -137157.44    
    910900   2458.1848     -7255.4741      4474.1709     -137160.69    
    911000   2705.8442     -8801.6927      4483.3903     -137160.11    
    911100   2668.2658     -3876.7318      4458.1553     -137154.62    
    911200   2432.8934      3762.6586      4410.3835     -137154.13    
    911300   2459.8367      420.13194      4363.7637     -137156.71    
    911400   2574.3277      2266.3795      4319.3552     -137161.89    
    911500   2322.6755      7203.3612      4302.2313     -137160.32    
    911600   2260.587       313.68629      4306.339      -137161.09    
    911700   2723.3574      3743.9458      4307.5741     -137166       
    911800   2558.0625      5154.6307      4352.3831     -137158.03    
    911900   2537.16       -5448.5824      4426.2702     -137159.18    
    912000   2528.0295     -6610.57        4442.8361     -137158.47    
    912100   2560.5213     -5595.0473      4428.503      -137161.23    
    912200   2324.3018     -10576.536      4408.7558     -137159.81    
    912300   2322.1682      5364.2295      4344.5015     -137163.56    
    912400   2676.7139     -1206.3063      4302.5443     -137167.85    
    912500   2452.2122      14895.297      4279.9701     -137155.56    
    912600   2484.5993      14735.485      4302.8821     -137156.09    
    912700   2515.8103     -1971.7742      4374.261      -137165.32    
    912800   2296.6831     -4971.9764      4435.3997     -137162.96    
    912900   2223.1412     -15308.821      4434.3584     -137156.43    
    913000   2499.0709      11638.31       4352.3124     -137158.81    
    913100   2466.2412      7505.8977      4308.3669     -137158.5     
    913200   2314.3272      13598.688      4337.6584     -137157.65    
    913300   2294.9549     -4817.2521      4427.6277     -137157.9     
    913400   2568.0979     -7225.8517      4477.0131     -137156.14    
    913500   2659.7459     -6901.8569      4469.1959     -137156.67    
    913600   2471.1678      4806.192       4438.2197     -137157.45    
    913700   2415.861      -5474.822       4424.871      -137161.13    
    913800   2368.7196     -1233.114       4385.7521     -137160.18    
    913900   2400.1068      3117.1718      4320.2147     -137159.58    
    914000   2542.325       8732.0307      4269.2778     -137162.8     
    914100   2542.4882      2390.3362      4289.0739     -137164.8     
    914200   2299.6286     -2828.7198      4334.5012     -137164.09    
    914300   2221.5732     -3190.8076      4349.4384     -137162.8     
    914400   2464.6102      4243.0304      4314.6694     -137159.99    
    914500   2698.4063      2821.3222      4301.7647     -137162.64    
    914600   2422.9008     -1151.125       4324.2177     -137160.28    
    914700   2349.972       2534.3276      4343.3074     -137161.35    
    914800   2365.7482     -4612.742       4349.4183     -137158.91    
    914900   2706.1994      4821.1512      4311.5928     -137157.24    
    915000   2732.2753      9522.9813      4288.8023     -137158.87    
    915100   2582.6082      612.3228       4327.2623     -137159.95    
    915200   2420.7844     -9300.1452      4384.9222     -137159.29    
    915300   2451.3334     -4658.2773      4398.9166     -137160.42    
    915400   2593.5064      572.16919      4376.043      -137163.06    
    915500   2553.2618      2745.8463      4360.0716     -137160.39    
    915600   2531.1263      1523.936       4367.1986     -137160.24    
    915700   2579.7362     -2671.0202      4387.4935     -137161.43    
    915800   2498.7574      5557.6612      4397.2002     -137158.53    
    915900   2582.1016     -731.15213      4425.3919     -137158.83    
    916000   2478.8806     -4014.1126      4457.7121     -137152.95    
    916100   2500.6474     -4093.9877      4443.7727     -137154.39    
    916200   2512.6293     -255.68135      4386.7697     -137159.82    
    916300   2546.1553     -3551.2728      4300.7442     -137167.36    
    916400   2302.0134      14759.244      4212.8903     -137162.75    
    916500   2557.2251      10735.422      4205.2208     -137165.37    
    916600   2644.3925      10021.732      4259.1078     -137159.44    
    916700   2637.9326     -10509.197      4365.5038     -137162.22    
    916800   2479.587      -12015.941      4443.2892     -137163.51    
    916900   2447.2208     -5500.2384      4477.1188     -137161.73    
    917000   2700.1852      10436.486      4471.9483     -137159.91    
    917100   2753.4126     -2588.2427      4495.9795     -137152.45    
    917200   2539.9998     -14034.694      4504.932      -137152.11    
    917300   2395.0596      3373.9552      4438.4714     -137152.9     
    917400   2559.5204      5017.1637      4362.7791     -137160.64    
    917500   2454.8865     -2969.9681      4296.1687     -137162.42    
    917600   2255.6478      11285.894      4229.4586     -137165.41    
    917700   2139.8344      12225.261      4215.0512     -137167.22    
    917800   2374.5692      2724.1911      4265.4338     -137167.97    
    917900   2292.5335     -4837.2731      4317.5021     -137161.07    
    918000   2550.6598     -475.4851       4307.1611     -137161.51    
    918100   2642.3031      14417.624      4286.0024     -137161.58    
    918200   2520.6156      13446.731      4352.3716     -137159       
    918300   2328.7782     -9457.7297      4495.5824     -137159.78    
    918400   2174.4367     -15025.661      4576.9795     -137156.93    
    918500   2391.0785     -3884.303       4524.92       -137153.42    
    918600   2651.3052     -1317.111       4406.0155     -137158.13    
    918700   2560.2139      13060.378      4316.9302     -137159.36    
    918800   2499.4272     -1195.6279      4309.3748     -137164.22    
    918900   2353.4209      1978.4194      4301.5896     -137160.92    
    919000   2463.0975      8010.5668      4289.3344     -137157.82    
    919100   2892.1319     -3222.2058      4298.1659     -137160.87    
    919200   2640.8718     -4898.8956      4316.073      -137162.01    
    919300   2382.2549     -5818.5262      4331.1178     -137162.28    
    919400   2613.7807     -3302.9937      4328.9917     -137166.94    
    919500   2534.0238      17023.645      4343.0315     -137161.27    
    919600   2362.0629     -2461.4349      4416.7798     -137154.59    
    919700   2704.0338     -7878.4457      4474.0969     -137157.8     
    919800   2684.2393     -11875.125      4492.6565     -137153.97    
    919900   2385.8472      3161.0645      4451.3024     -137154.55    
    920000   2337.4881     -8640.6593      4375.0993     -137157.05    
    920100   2616.9303      4087.3512      4268.9479     -137163.81    
    920200   2393.8585      19862.035      4236.595      -137160.8     
    920300   2326.2588     -5827.7165      4297.445      -137166.84    
    920400   2173.1422     -9130.309       4332.1458     -137168.09    
    920500   2287.3321      5018.3519      4328.8784     -137163.26    
    920600   2292.1033     -1490.7968      4329.7716     -137158.63    
    920700   2669.239       473.70517      4310.792      -137162.9     
    920800   2447.9128      7299.981       4325.7881     -137156.74    
    920900   2597.6667     -3447.8191      4360.6282     -137165.23    
    921000   2293.0391     -3167.5873      4374.1923     -137163.17    
    921100   2538.2801     -2437.1583      4374.1667     -137165.9     
    921200   2677.2511     -987.17304      4403.4029     -137161.24    
    921300   2489.2391     -2704.5525      4451.013      -137156.63    
    921400   2512.9127     -5661.605       4475.8355     -137156.36    
    921500   2636.5092     -4497.321       4463.8445     -137156.76    
    921600   2645.8822     -2322.5162      4410.5758     -137159.49    
    921700   2440.4468     -6587.923       4345.1085     -137163.22    
    921800   2358.5817      19222.655      4275.3542     -137161.77    
    921900   2573.1139      1693.0959      4289.4191     -137165.26    
    922000   2328.4212     -1103.4959      4329.3585     -137154.76    
    922100   2724.2307     -1234.4209      4345.7645     -137156.62    
    922200   2654.5525      4896.2517      4349.1753     -137155.95    
    922300   2425.6383      1947.2562      4371.2663     -137157.53    
    922400   2531.7566     -6813.0115      4414.5471     -137162.42    
    922500   2495.1388     -4669.5486      4449.6077     -137160.49    
    922600   2523.5293     -180.82534      4441.1935     -137158.41    
    922700   2466.5777      11664.729      4418.3857     -137154.17    
    922800   2485.757       1509.3702      4431.6191     -137157.04    
    922900   2292.5175     -2496.6284      4427.1838     -137157.84    
    923000   2454.8601     -7683.5991      4381.0974     -137162.37    
    923100   2560.1266      7212.2287      4293.0149     -137162.31    
    923200   2520.747       18628.311      4251.8865     -137155.96    
    923300   2632.8576      4188.4533      4287.0225     -137158.83    
    923400   2381.8358     -3474.5654      4349.1038     -137161.84    
    923500   2268.3932     -6717.8878      4381.7351     -137158.84    
    923600   2551.8789      1884.2332      4344.2087     -137161.96    
    923700   2694.8021     -261.95301      4312.6359     -137161.82    
    923800   2613.8149      5955.1004      4314.2127     -137162.1     
    923900   2198.1871     -7068.6339      4351.6565     -137161.18    
    924000   2310.4235     -616.45829      4349.6995     -137161.22    
    924100   2547.4345      4539.3466      4333.0638     -137160.58    
    924200   2619.5564     -9089.0387      4339.5691     -137162.58    
    924300   2444.7973     -7175.6603      4329.2143     -137160.85    
    924400   2343.1789      9592.2884      4289.4921     -137164.63    
    924500   2153.3278      2629.023       4288.1603     -137163.66    
    924600   2285.6871      5532.2425      4316.2641     -137159.87    
    924700   2434.8222      1279.7774      4366.2932     -137158.76    
    924800   2430.1166     -3018.6516      4408.7063     -137157       
    924900   2617.2225     -7893.776       4417.3156     -137159.65    
    925000   2651.3031     -199.47038      4395.8497     -137157.58    
    925100   2499.8925     -318.72669      4382.6081     -137160.38    
    925200   2421.9693     -4174.8561      4371.7229     -137163.82    
    925300   2519.5047     -746.27433      4347.0514     -137162.42    
    925400   2705.1523      3043.0794      4328.3301     -137163.44    
    925500   2523.6298      7057.8687      4345.5463     -137162.84    
    925600   2272.3693     -12463.413      4396.6623     -137163.61    
    925700   2431.8627     -15429.99       4389.3902     -137165.48    
    925800   2471.1875      10433.679      4312.4351     -137161.62    
    925900   2683.2288      16040.324      4282.7133     -137164.09    
    926000   2480.9987     -4671.7753      4332.5755     -137160.76    
    926100   2299.8844     -6422.0029      4383.0467     -137159.83    
    926200   2398.4219      1283.3902      4395.598      -137159.68    
    926300   2616.1914      2781.3799      4386.3316     -137156.49    
    926400   2706.0079     -5599.1959      4354.0185     -137160.89    
    926500   2494.2875      3569.4633      4306.8967     -137161.29    
    926600   2476.3963      2254.9362      4312.9707     -137161.98    
    926700   2579.2539     -7195.3779      4373.8719     -137161.61    
    926800   2731.4273      2048.9106      4418.7362     -137153.72    
    926900   2732.6544     -2555.6111      4466.7798     -137152.56    
    927000   2662.6137     -10672.854      4522.4989     -137155.24    
    927100   2436.9455     -11870.533      4518.5068     -137155.43    
    927200   2502.9266      1935.321       4439.001      -137160.74    
    927300   2431.6798      9914.4365      4357.9588     -137158.47    
    927400   2493.8827      14425.232      4339.0545     -137159.15    
    927500   2223.5458     -2274.8571      4390.0164     -137152.93    
    927600   2506.6712     -7570.4336      4425.034      -137155.96    
    927700   2645.8328      4062.7071      4417.9994     -137154.03    
    927800   2570.6421     -7370.109       4402.3364     -137157.25    
    927900   2504.4208     -1861.1948      4360.573      -137160.94    
    928000   2396.3872      8899.66        4313.9252     -137159.78    
    928100   2415.717       10424.419      4307.8696     -137160.78    
    928200   2508.3889     -2802.3317      4365.6534     -137163.29    
    928300   2416.8699      76.913434      4422.3911     -137155.53    
    928400   2677.2835     -5560.6353      4467.6642     -137157.57    
    928500   2500.2706     -13984.317      4462.467      -137156.75    
    928600   2429.348       4141.4381      4389.6511     -137159.86    
    928700   2447.6007      7196.5237      4342.0754     -137164.87    
    928800   2344.63       -12816.662      4335.0259     -137167.78    
    928900   2405.5219      2620.1468      4305.8753     -137164.17    
    929000   2582.4604      9717.3985      4302.9596     -137162.34    
    929100   2478.3903      2372.5916      4367.6431     -137161.23    
    929200   2406.5293     -10464.706      4445.78       -137159.61    
    929300   2545.847      -2844.8341      4473.2892     -137155.29    
    929400   2775.0816     -8581.8123      4475.746      -137157.76    
    929500   2403.1279      425.11036      4436.7396     -137153.29    
    929600   2577.1747     -689.96282      4354.374      -137160.11    
    929700   2283.5236      11716.784      4274.7773     -137155.47    
    929800   2574.3915      7379.7817      4263.9497     -137164.43    
    929900   2443.7841     -10003.241      4317.6811     -137165.89    
    930000   2201.2889      672.84444      4339.5927     -137161.51    
    930100   2505.6187      4546.397       4344.9251     -137161.87    
    930200   2540.1637     -7352.4455      4346.7069     -137158.27    
    930300   2483.3844      4460.1336      4303.8808     -137157.56    
    930400   2531.7493      4190.616       4278.1764     -137166.44    
    930500   2279.57        1752.8724      4295.1977     -137165.21    
    930600   2347.4022      10269.129      4357.8462     -137163.32    
    930700   2479.9382     -9547.8263      4474.7505     -137160.28    
    930800   2539.6145     -1583.1118      4535.7717     -137158.08    
    930900   2482.516      -16417.467      4571.2253     -137153.62    
    931000   2720.9091     -4950.0128      4526.8787     -137154.61    
    931100   2736.3789      3459.6653      4437.4226     -137154.29    
    931200   2369.5167      9903.5255      4334.023      -137155.84    
    931300   2462.4297      12852.149      4269.2022     -137160.7     
    931400   2408.5008      269.54811      4274.8615     -137160.49    
    931500   2487.3903      1682.7225      4297.5226     -137161.58    
    931600   2499.6292      1496.0733      4332.4187     -137159.79    
    931700   2384.032      -4001.4873      4388.0504     -137156.03    
    931800   2575.1583      898.0106       4435.9397     -137159.82    
    931900   2501.4678     -1204.2895      4469.903      -137157.55    
    932000   2422.7388     -5040.6468      4490.4493     -137156.27    
    932100   2696.2553     -13631.746      4475.2304     -137159.3     
    932200   2888.7785      2637.9797      4397.5805     -137159.54    
    932300   2598.5226      3565.9877      4349.6066     -137160.73    
    932400   2374.3877      8828.355       4332.7823     -137158.24    
    932500   2527.9002     -1983.7593      4348.9623     -137161.5     
    932600   2434.0494      6086.0852      4380.4411     -137155.1     
    932700   2675.582      -1904.3903      4427.5793     -137156.37    
    932800   2460.8577      1023.0429      4490.72       -137151.71    
    932900   2416.975      -10469.442      4539.0978     -137159       
    933000   2338.4876     -3376.1201      4496.8798     -137157.41    
    933100   2685.3868      1377.0354      4420.0319     -137160.4     
    933200   2527.828       454.89804      4368.9965     -137155.37    
    933300   2503.7465     -1642.4614      4320.4143     -137159.23    
    933400   2461.6651      2145.4944      4267.5153     -137161.4     
    933500   2551.0933      14711.301      4245.0169     -137165.67    
    933600   2404.5084     -6067.9714      4301.5909     -137168.77    
    933700   2035.2989     -5896.624       4346.198      -137162.4     
    933800   2402.7447     -1281.7453      4342.3691     -137162.15    
    933900   2522.6742     -2196.607       4317.5211     -137163.47    
    934000   2534.2233     -1974.2937      4277.9697     -137163.44    
    934100   2577.8048      1432.1295      4252.2568     -137163.92    
    934200   2511.5637      1266.7393      4276.6121     -137164.02    
    934300   2303.144       3241.7818      4326.779      -137161.78    
    934400   2305.2757      10190.072      4372.6318     -137158.91    
    934500   2598.3798     -6994.3278      4439.8725     -137156.99    
    934600   2505.1995     -3770.5732      4478.1503     -137153.44    
    934700   2502.2101     -8154.6632      4502.5328     -137157.23    
    934800   2366.5273     -1007.7821      4500.4008     -137157.5     
    934900   2409.0143     -7068.2094      4455.4591     -137156.96    
    935000   2679.3542      13201.243      4382.6928     -137155.35    
    935100   2643.4668     -1061.8935      4373.4007     -137156.35    
    935200   2425.3579      982.44869      4373.21       -137157.62    
    935300   2510.9233     -7664.452       4366.9209     -137161.25    
    935400   2471.1374      3501.5653      4344.449      -137158.97    
    935500   2642.797       9909.7719      4341.8498     -137161.79    
    935600   2456.2209     -4443.8214      4411.8488     -137157.43    
    935700   2548.7003     -6378.7267      4459.5855     -137157.33    
    935800   2680.818      -8880.5004      4453.934      -137160.59    
    935900   2498.161      -6963.5123      4437.2926     -137160.17    
    936000   2320.903       235.14385      4379.8297     -137160.14    
    936100   2454.9275      5213.4671      4300.6584     -137162.8     
    936200   2585.8743      2879.0903      4260.6505     -137162.44    
    936300   2595.5349      993.47788      4262.0227     -137156.67    
    936400   2695.3131      3345.8913      4294.3474     -137162.55    
    936500   2329.2912     -7709.0667      4350.4489     -137160.24    
    936600   2307.363      -2711.1815      4361.0264     -137157.38    
    936700   2623.881      -6835.0084      4345.74       -137161.11    
    936800   2588.6237     -4993.6405      4322.3305     -137160.98    
    936900   2391.0541      9160.4875      4307.8978     -137160.2     
    937000   2514.314       2953.357       4322.9242     -137165.18    
    937100   2343.032       2717.1091      4360.4059     -137159.92    
    937200   2515.1991     -1390.0684      4412.6201     -137160.35    
    937300   2572.4686     -3426.3003      4451.5625     -137158.91    
    937400   2764.7556     -235.52777      4480.5002     -137161.8     
    937500   2347.5067     -9678.1556      4507.0233     -137160.73    
    937600   2269.251      -10983.675      4479.5902     -137161.11    
    937700   2562.9923      2902.0636      4371.4326     -137163.4     
    937800   2519.9116      11162.227      4287.131      -137158.31    
    937900   2453.1558      19420.133      4288.4832     -137158.39    
    938000   2281.8624     -10791.962      4385.372      -137161.71    
    938100   2267.056      -19174.411      4458.2821     -137164.62    
    938200   2462.691      -7786.21        4451.2182     -137158.54    
    938300   2648.4436     -4662.8749      4394.6251     -137159.17    
    938400   2660.4487      6568.5622      4304.7651     -137162.14    
    938500   2402.9746      5164.0618      4260.1528     -137162.21    
    938600   2485.3175     -4317.0294      4260.992      -137164.61    
    938700   2595.064       5453.361       4271.8634     -137161.91    
    938800   2579.3694      7221.5807      4326.8539     -137155.25    
    938900   2571.8668     -6460.6666      4411.1983     -137158.44    
    939000   2504.2818     -2263.0445      4462.4341     -137159.2     
    939100   2392.593      -7430.4699      4493.3203     -137155.23    
    939200   2667.031      -10494.477      4473.8029     -137158.94    
    939300   2574.8842      9589.222       4414.4896     -137155.87    
    939400   2547.177      -8536.1626      4401.6194     -137162.03    
    939500   2110.3441      4740.3024      4383.6319     -137154.39    
    939600   2573.7924     -7709.4251      4359.8723     -137162.11    
    939700   2582.0521      11385.067      4299.8501     -137160.44    
    939800   2512.9211      4421.7579      4317.3603     -137159.29    
    939900   2452.3063     -742.37196      4364.562      -137161.59    
    940000   2397.813      -5449.1371      4393.5709     -137162.42    
    940100   2534.8648     -1774.5535      4380.9853     -137164.57    
    940200   2545.4383      2128.3254      4361.4522     -137156.71    
    940300   2724.5173      46.88046       4358.4679     -137158.52    
    940400   2506.3338     -10170.774      4366.5565     -137159.14    
    940500   2555.4278      3287.9751      4348.0955     -137164.71    
    940600   2449.5092      2533.9         4343.8365     -137163.35    
    940700   2410.5482      339.65682      4338.2408     -137163.83    
    940800   2330.4155      7426.3287      4324.167      -137160.25    
    940900   2534.9809      4931.5732      4352.9962     -137162.11    
    941000   2509.812      -9121.9403      4436.4597     -137159.31    
    941100   2561.5916     -9531.964       4492.4884     -137155.22    
    941200   2876.6222     -3155.2605      4477.0484     -137158.18    
    941300   2549.2452     -5462.4286      4448.1444     -137160.11    
    941400   2459.1191      1171.4744      4415.6798     -137160.03    
    941500   2580.9022     -11940.658      4379.4603     -137162.15    
    941600   2503.425       4601.135       4310.6264     -137161.14    
    941700   2549.7077      603.41293      4271.9692     -137168.07    
    941800   2334.7113      2525.528       4257.3651     -137166.13    
    941900   2407.1779      4829.4129      4259.4908     -137160.64    
    942000   2552.6113      1563.2954      4278.8982     -137157.76    
    942100   2462.4699      10152.072      4336.8615     -137158.9     
    942200   2447.7166     -6594.3412      4435.9479     -137162.11    
    942300   2380.9876     -11666.861      4479.1447     -137159.24    
    942400   2712.016       2456.9624      4438.9078     -137158.29    
    942500   2594.1415      6426.2765      4405.7208     -137156.58    
    942600   2582.648      -11294.237      4395.7973     -137162.84    
    942700   2461.1172      124.28953      4339.6531     -137161.13    
    942800   2536.9032      9643.8908      4284.1082     -137164.26    
    942900   2499.7911     -2759.583       4293.2614     -137167.14    
    943000   2379.8839     -5457.0236      4323.4404     -137168.09    
    943100   2454.4383     -9185.814       4341.6414     -137165.31    
    943200   2656.747       630.26727      4329.4664     -137163.75    
    943300   2388.3701      10212.742      4314.8541     -137157.39    
    943400   2393.8497     -2280.881       4328.2928     -137160.05    
    943500   2488.8903     -2556.5594      4332.9614     -137168.43    
    943600   2248.0839      2950.9362      4318.3027     -137166.51    
    943700   2452.063       2609.9674      4306.6129     -137164.96    
    943800   2533.9649      2507.2894      4326.0827     -137161.7     
    943900   2479.848      -4556.6541      4380.3918     -137158.9     
    944000   2589.5493     -5126.0297      4420.2892     -137160.52    
    944100   2358.7825      8535.9897      4431.6848     -137153.75    
    944200   2689.3105     -4108.16        4434.7264     -137160.17    
    944300   2578.2285      2378.8224      4450.2424     -137157.54    
    944400   2359.1832     -9231.0165      4469.4973     -137157.06    
    944500   2325.0937     -13963.922      4426.4498     -137157.95    
    944600   2745.0273      6912.7233      4311.8262     -137161.32    
    944700   2763.5229      17982.728      4214.8675     -137161.71    
    944800   2626.9657      3020.5678      4214.8742     -137167.04    
    944900   2547.399      -8946.2677      4260.9114     -137167.81    
    945000   2519.8218     -5494.9321      4304.5814     -137163.67    
    945100   2579.8106      10529.476      4338.2546     -137159.36    
    945200   2554.4564     -418.81651      4400.483      -137157.81    
    945300   2401.2257     -8558.6647      4443.875      -137158.82    
    945400   2384.9983     -10454.101      4425.3905     -137164.64    
    945500   2482.6545      156.30829      4359.6677     -137162.91    
    945600   2583.2744      1046.683       4298.5957     -137159.45    
    945700   2656.6884      2177.2517      4278.4515     -137162.56    
    945800   2557.6518     -8351.6474      4300.1026     -137162.43    
    945900   2518.0384      1492.6332      4311.9571     -137162.47    
    946000   2489.1322     -5696.8981      4332.844      -137164.09    
    946100   2135.2495      1234.2925      4312.5305     -137163.47    
    946200   2162.6653      8317.6416      4250.7304     -137163.11    
    946300   2517.1029      3562.837       4207.0529     -137164.97    
    946400   2667.3086      1816.9725      4206.0431     -137167.63    
    946500   2376.5181      6301.6236      4260.8455     -137161.64    
    946600   2382.9685     -5081.6707      4358.07       -137160.13    
    946700   2645.6158      4134.9681      4448.7719     -137158.82    
    946800   2547.946      -2432.3247      4551.986      -137153.31    
    946900   2514.7691     -17773.103      4610.8442     -137152.51    
    947000   2435.7391     -4370.141       4563.1968     -137155.16    
    947100   2412.6727     -7244.0006      4449.7566     -137161.66    
    947200   2324.4734      14230.75       4285.7486     -137159.61    
    947300   2696.8647      13232.398      4209.4136     -137162.05    
    947400   2677.9748      14740.138      4245.2753     -137162.38    
    947500   2308.9784     -14129.298      4343.131      -137159.56    
    947600   2342.0058     -623.57737      4362.4402     -137159.47    
    947700   2445.3276      11669.037      4356.6194     -137159.95    
    947800   2540.2566     -2048.7627      4392.0814     -137160.93    
    947900   2682.0383     -5655.5874      4418.0076     -137161.63    
    948000   2639.1245     -2737.3221      4439.7398     -137157.29    
    948100   2706.4855     -856.73853      4447.1506     -137161.36    
    948200   2263.8883     -11872.679      4455.4045     -137157.24    
    948300   2482.7017     -7280.1037      4409.0674     -137161.57    
    948400   2644.9278      7571.5695      4336.3555     -137160.47    
    948500   2653.7298      4926.8233      4312.4446     -137161.01    
    948600   2445.7206      82.209131      4318.341      -137160.44    
    948700   2470.1979     -3588.2797      4339.1869     -137160.44    
    948800   2522.3123     -12629.021      4351.2527     -137157.92    
    948900   2741.4822      2915.6359      4323.1514     -137160.9     
    949000   2411.3183      4269.6041      4319.1083     -137158.67    
    949100   2428.1655     -3197.1117      4332.2588     -137163.43    
    949200   2412.1742      544.0289       4345.01       -137161.34    
    949300   2591.7901     -4635.7966      4367.874      -137162.69    
    949400   2514.7833      1067.8925      4388.8597     -137159.56    
    949500   2433.9284     -9233.7648      4389.8752     -137159.61    
    949600   2346.6485     -236.01803      4349.7142     -137158.8     
    949700   2667.7684      13728.362      4307.8798     -137162.92    
    949800   2479.2344      8042.0051      4327.976      -137156.6     
    949900   2455.1855     -13160.865      4373.451      -137160.23    
    950000   2541.5288     -4210.5574      4348.7068     -137167.32    
    950100   2326.192       10185.873      4314.8577     -137160.26    
    950200   2636.8924      3962.617       4321.8142     -137160.1     
    950300   2679.8795      4743.7507      4356.8136     -137158.56    
    950400   2433.4006     -8921.2384      4417.6814     -137158.51    
    950500   2278.4904     -3424.3054      4431.5214     -137160.41    
    950600   2318.149       9722.9985      4397.9852     -137158.57    
    950700   2589.5425      939.29362      4384.6555     -137163.36    
    950800   2515.7815      665.68435      4369.4272     -137158.62    
    950900   2571.3088      4803.9158      4351.7316     -137158.06    
    951000   2432.1648      2692.5439      4357.2936     -137156.89    
    951100   2296.1941     -55.864835      4368.5832     -137160.85    
    951200   2424.9811     -2489.1756      4379.8968     -137163.2     
    951300   2432.6523     -3929.2611      4391.2649     -137155.9     
    951400   2646.3656      1109.4202      4395.9554     -137159.49    
    951500   2534.7378     -8636.1759      4389.4649     -137158.57    
    951600   2481.5227      7695.859       4337.7292     -137159.38    
    951700   2353.7601      9245.7166      4315.3462     -137160.98    
    951800   2436.9417     -6184.1663      4337.3889     -137169.26    
    951900   2310.2971      7348.764       4339.7869     -137163.4     
    952000   2626.6533     -12384.083      4337.1054     -137163.26    
    952100   2482.1238      119.17294      4309.6569     -137160.25    
    952200   2424.6552      11643.343      4278.3878     -137162.25    
    952300   2369.2942      939.15335      4283.2759     -137164.02    
    952400   2381.9626     -9021.1157      4325.9048     -137161.64    
    952500   2638.9281      5138.2121      4325.3731     -137159.14    
    952600   2531.2098      9948.5793      4336.7524     -137156.21    
    952700   2311.715       1986.3618      4350.0248     -137157.78    
    952800   2551.9338     -6976.6328      4323.2642     -137165.82    
    952900   2625.1033     -8306.0358      4260.6099     -137167.55    
    953000   2475.7928      9741.1783      4188.915      -137167.23    
    953100   2031.3445      12145.535      4168.6533     -137165.43    
    953200   2232.2961      9378.6699      4177.9928     -137166.34    
    953300   2501.747       1765.1778      4227.9379     -137167.56    
    953400   2395.7543     -6033.5077      4306.9993     -137161.05    
    953500   2506.8634      5243.6667      4364.4383     -137158.01    
    953600   2494.8168      870.53265      4420.1366     -137155.99    
    953700   2368.7419     -3260.8529      4444.1963     -137155.81    
    953800   2167.54       -5640.9079      4422.957      -137159.87    
    953900   2376.9143     -5184.3215      4356.0382     -137163.76    
    954000   2599.8686      3563.1523      4289.7341     -137161.99    
    954100   2750.554       5226.2685      4262.5453     -137166.07    
    954200   2412.2911     -4476.8599      4298.8278     -137162.6     
    954300   2432.0395     -7895.0551      4312.2286     -137164.49    
    954400   2612.5722     -2511.7601      4278.3463     -137163.99    
    954500   2666.2268      5843.4537      4258.8963     -137160.83    
    954600   2453.9788     -6621.2872      4275.1456     -137161.62    
    954700   2334.6147     -4417.867       4285.2743     -137168.07    
    954800   2345.8114      4203.7219      4284.3315     -137163.36    
    954900   2577.1871      3408.7945      4305.8995     -137162.35    
    955000   2595.4871      2302.2402      4374.0953     -137158.09    
    955100   2526.0194     -17631.072      4469.6719     -137151.66    
    955200   2811.3758     -6885.4239      4493.1057     -137155.69    
    955300   2517.6722     -18520.944      4466.4917     -137157.95    
    955400   2515.1073      580.83945      4384.1097     -137162.83    
    955500   2451.5389      3987.6292      4305.5107     -137162.85    
    955600   2356.9593      7273.7538      4247.1415     -137161.03    
    955700   2699.4047     -5601.334       4237.5483     -137165.29    
    955800   2767.9832      12318.816      4240.2413     -137162.78    
    955900   2550.69        2769.0441      4342.4586     -137163.53    
    956000   2222.2305     -9693.8328      4481.5025     -137158.24    
    956100   2379.387      -2418.4568      4554.5874     -137153.43    
    956200   2640.5287     -11183.024      4587.6464     -137155.05    
    956300   2454.5962     -5138.5042      4550.8083     -137152.3     
    956400   2595.5712     -1874.3079      4456.6168     -137160.97    
    956500   2438.1737     -3798.3028      4347.61       -137163.34    
    956600   2552.0947     -841.67491      4229.4046     -137169.04    
    956700   2541.8445      13847.569      4156.8473     -137166.73    
    956800   2571.7855      13742.867      4185.6522     -137159.74    
    956900   2722.1174      3428.8049      4298.5246     -137160.22    
    957000   2519.8814     -12870.943      4440.1207     -137158.56    
    957100   2301.9823     -21623.15       4513.9378     -137159.5     
    957200   2500.3974     -9027.4404      4448.2396     -137163.16    
    957300   2573.9422      9251.007       4319.6943     -137162.41    
    957400   2603.9986      10184.537      4264.8783     -137163.03    
    957500   2580.4806      7582.5498      4295.0435     -137165.17    
    957600   2215.3895     -5427.3138      4359.1062     -137159.22    
    957700   2322.1955     -9021.1578      4366.1568     -137158.17    
    957800   2599.7658      17900.587      4322.3933     -137157.07    
    957900   2549.0979     -2517.0927      4344.9417     -137160.3     
    958000   2405.2837      670.89931      4371.4142     -137160.35    
    958100   2423.9317     -9214.8835      4375.7221     -137158.16    
    958200   2838.7806      7408.8361      4329.0914     -137160.13    
    958300   2722.8922      6009.6279      4321.8407     -137159.13    
    958400   2407.9373     -586.2146       4363.6725     -137155.35    
    958500   2488.7492     -5875.5243      4393.885      -137160.1     
    958600   2369.2104     -3161.1051      4397.9674     -137157.97    
    958700   2493.871       12512.201      4396.5719     -137156.21    
    958800   2649.3383     -6045.1657      4445.658      -137153.64    
    958900   2513.4373      7081.1668      4471.954      -137155.17    
    959000   2462.2461     -2340.6124      4496.8463     -137157.71    
    959100   2632.3302     -7043.3526      4491.4658     -137162.14    
    959200   2435.4917     -1895.5461      4430.3942     -137158.36    
    959300   2585.1961      2412.2748      4364.6523     -137161.68    
    959400   2741.7111      6673.7033      4344.6448     -137163.71    
    959500   2376.8396     -2648.9471      4365.6174     -137158.53    
    959600   2172.2374     -5552.5208      4344.5732     -137157.59    
    959700   2633.2328     -2807.04        4275.762      -137165.78    
    959800   2804.8139      15142.031      4229.8681     -137163.93    
    959900   2550.7737      1045.3505      4292.3792     -137156.78    
    960000   2323.9022     -3540.1429      4386.0988     -137159.33    
    960100   2328.4721     -8753.4174      4430.9287     -137159.52    
    960200   2503.6011      1682.7771      4394.1425     -137156.96    
    960300   2596.7492      9418.4799      4350.2903     -137157.64    
    960400   2572.3386      1842.0084      4360.9937     -137161.24    
    960500   2554.6408     -11256.818      4393.3376     -137165.45    
    960600   2366.4889     -6666.4732      4383.434      -137160.27    
    960700   2498.9436      1798.881       4334.9232     -137160.74    
    960800   2708.2586      9549.4456      4336.0691     -137161.77    
    960900   2475.574       2348.5354      4408.6098     -137155.85    
    961000   2350.5167     -16528.684      4483.6161     -137160.62    
    961100   2448.4044     -3105.0524      4490.6487     -137164.46    
    961200   2501.1597     -8861.8186      4467.2738     -137158.02    
    961300   2595.4807     -3106.0275      4385.2913     -137157.6     
    961400   2499.2376      8825.6521      4291.1173     -137158.14    
    961500   2543.1018      8179.9148      4234.7632     -137164.5     
    961600   2385.4651      11614.394      4235.8821     -137163.06    
    961700   2472.4263     -1332.447       4287.9406     -137168.42    
    961800   2288.9856     -7996.8701      4344.8716     -137164.3     
    961900   2377.0065     -473.30051      4378.5084     -137157.48    
    962000   2527.0912     -9763.1382      4401.2926     -137156.28    
    962100   2679.4731      2824.4495      4364.2854     -137161.49    
    962200   2486.5678      2602.9683      4334.5702     -137163.02    
    962300   2135.6631     -9349.5313      4324.2424     -137156.17    
    962400   2457.4543      16072.743      4275.6646     -137158.41    
    962500   2674.6019     -2097.573       4275.6957     -137164.15    
    962600   2589.5716      1243.4487      4287.8454     -137164.55    
    962700   2428.3665      6420.1006      4319.6193     -137162.32    
    962800   2467.1286      604.87131      4385.0176     -137159.01    
    962900   2760.9924     -14001.496      4451.2814     -137157.65    
    963000   2585.7742      704.03147      4464.4514     -137154.49    
    963100   2309.3402     -5798.7422      4449.6809     -137152.25    
    963200   2474.8104     -4454.8106      4375.3328     -137156.88    
    963300   2653.6269      11210.307      4275.9345     -137162.55    
    963400   2339.783       9963.8483      4227.5508     -137163.54    
    963500   2413.7059      8312.8541      4229.4809     -137167.57    
    963600   2524.1969      1064.0053      4300.5936     -137165.34    
    963700   2503.9995      1885.8465      4403.8901     -137159.61    
    963800   2387.2705     -7657.6903      4501.6184     -137153.7     
    963900   2676.8946     -7748.1249      4519.277      -137157.07    
    964000   2894.4725     -8429.8233      4477.5047     -137155.72    
    964100   2777.095      -560.15953      4411.6105     -137162.59    
    964200   2508.5215     -1054.7842      4367.4092     -137161.87    
    964300   2614.3606      332.53652      4330.7671     -137167.84    
    964400   2309.7508      794.19928      4318.5359     -137163.34    
    964500   2322.827       7654.2552      4320.246      -137159.37    
    964600   2435.8243      9381.8177      4333.407      -137154.72    
    964700   2531.1952      3222.6414      4354.9179     -137157.95    
    964800   2268.0153      2102.7525      4384.0486     -137153.6     
    964900   2387.7054     -639.42511      4379.5782     -137157.64    
    965000   2507.7417     -2942.9648      4351.6082     -137159.85    
    965100   2519.9275      2492.3148      4330.6546     -137158.65    
    965200   2436.5199      9216.3211      4335.9523     -137155.75    
    965300   2435.408      -5351.4335      4370.3818     -137160.85    
    965400   2315.9761     -6287.2055      4385.0754     -137161.59    
    965500   2646.5936      2079.671       4344.6        -137164.07    
    965600   2782.375       1446.0861      4315.9002     -137161.7     
    965700   2532.5894     -3344.1592      4349.4385     -137159.62    
    965800   2400.5781      1502.2038      4395.1924     -137159.79    
    965900   2514.587      -12399.221      4438.8165     -137161.34    
    966000   2701.5195     -1453.1149      4434.9314     -137158.55    
    966100   2693.3461      3775.7219      4415.2305     -137150.97    
    966200   2671.1165     -6414.173       4399.3129     -137153.39    
    966300   2799.1378      6671.0075      4351.3614     -137163.58    
    966400   2506.0752     -3933.3259      4329.1919     -137162.38    
    966500   2378.4713      9409.5344      4325.4313     -137161.97    
    966600   2406.9337      10215.703      4388.7143     -137162.86    
    966700   2449.1382     -10587.838      4507.1627     -137154.12    
    966800   2478.7503     -3762.7595      4551.2331     -137150.27    
    966900   2578.1978     -10278.769      4524.8408     -137153.21    
    967000   2559.2713     -6379.9012      4435.162      -137156.77    
    967100   2432.3541     -905.93939      4313.4382     -137161.94    
    967200   2413.718       17543.472      4211.2659     -137163.16    
    967300   2506.7236      10370.136      4195.8186     -137164.69    
    967400   2566.1144      3053.9283      4257.8398     -137165.57    
    967500   2442.9492     -7866.4147      4350.2975     -137162.27    
    967600   2452.1677     -10710.179      4406.75       -137161.44    
    967700   2432.6907     -1008.5488      4410.8007     -137157.92    
    967800   2697.7524     -3637.8021      4379.3357     -137160.38    
    967900   2580.9405      12375.607      4346.5699     -137158.91    
    968000   2275.9444     -5759.0882      4358.5275     -137160.46    
    968100   2385.8497      5392.084       4367.2902     -137160.23    
    968200   2560.8361     -6491.0361      4405.9871     -137159.02    
    968300   2689.6037     -1895.4464      4431.2813     -137160.44    
    968400   2574.0565     -11760.835      4422.7692     -137160.38    
    968500   2220.2463     -9037.6187      4337.6916     -137160.66    
    968600   2408.98        10560.362      4216.9823     -137168.19    
    968700   2417.7657      15836.673      4171.1851     -137165.27    
    968800   2457.1311      11170.823      4228.1973     -137165.69    
    968900   2508.4101     -3497.9127      4332.4525     -137165.03    
    969000   2535.044      -4205.8615      4401.3109     -137160.12    
    969100   2696.8721     -6279.1612      4438.7059     -137158.13    
    969200   2412.7624     -3136.5534      4426.483      -137155.24    
    969300   2271.9678     -2351.8877      4375.7421     -137160.23    
    969400   2432.1735      7808.806       4318.7834     -137162.52    
    969500   2780.5745      4244.2532      4303.0669     -137165.41    
    969600   2563.8147      9292.3558      4329.3071     -137161.06    
    969700   2414.1493     -6478.0674      4389.7541     -137161.48    
    969800   2223.277      -781.36463      4424.5362     -137155.91    
    969900   2372.0354      1259.4504      4440.4396     -137156.98    
    970000   2513.3346     -5380.1394      4458.6285     -137156.4     
    970100   2563.2295      2760.7673      4426.6685     -137154.36    
    970200   2590.0747      4218.5501      4378.9606     -137157.51    
    970300   2357.8188     -1085.8364      4354.7465     -137160.27    
    970400   2391.6429     -1125.0105      4335.2503     -137162.45    
    970500   2305.7302      8876.3701      4316.1441     -137158.17    
    970600   2603.6548      5275.6246      4327.6928     -137161.14    
    970700   2586.0581      1347.7287      4374.0758     -137160.95    
    970800   2455.4494     -9558.3281      4423.958      -137160.45    
    970900   2397.8663     -536.75483      4433.8113     -137160.12    
    971000   2503.4718      2388.7202      4432.2246     -137158.21    
    971100   2745.9745     -3722.7818      4417.5097     -137156.52    
    971200   2410.0115      9432.6557      4390.6235     -137152.08    
    971300   2692.5873      1746.368       4376.6454     -137162.99    
    971400   2386.5639      5431.76        4362.9197     -137158.92    
    971500   2387.4662      9312.3329      4371.4112     -137158.78    
    971600   2634.1617     -563.59354      4400.8404     -137159.95    
    971700   2681.4272      493.06118      4438.7992     -137154.19    
    971800   2558.3961     -6879.7153      4469.6966     -137156.41    
    971900   2421.8196     -2784.8506      4460.83       -137154.68    
    972000   2538.7288      646.21658      4431.6316     -137157.47    
    972100   2483.7758      2067.8176      4394.0241     -137159.06    
    972200   2252.2065      6379.1938      4365.6692     -137161.94    
    972300   2129.2628      4531.4536      4370.1466     -137159.36    
    972400   2350.2229      1882.0034      4365.2439     -137158.3     
    972500   2527.2704      1310.601       4363.1339     -137159.36    
    972600   2532.8079     -4469.157       4371.1819     -137158.66    
    972700   2436.6339     -3960.7503      4358.3241     -137160       
    972800   2412.0916     -216.96196      4321.9957     -137165.07    
    972900   2432.8463      1121.8855      4289.666      -137161.21    
    973000   2723.1719      17909.056      4249.0281     -137160.64    
    973100   2708.4983     -521.80266      4296.6042     -137165.39    
    973200   2391.8705     -7445.2926      4382.1959     -137160.86    
    973300   2280.4403     -1741.7309      4425.2048     -137156.53    
    973400   2507.201       6199.4157      4425.4199     -137155.19    
    973500   2592.6484      2307.6877      4410.1615     -137155.94    
    973600   2574.7375     -3364.8324      4412.5301     -137159.14    
    973700   2319.1168     -1400.2341      4420.9063     -137157.27    
    973800   2559.2924     -11698.003      4390.0407     -137163.78    
    973900   2388.7532     -2201.2516      4296.7983     -137158.48    
    974000   2582.954       6382.6603      4199.5717     -137161.92    
    974100   2602.2734      4099.6147      4158.8514     -137167.5     
    974200   2251.9243      1042.9505      4196.9817     -137165.43    
    974300   2252.9612      8555.0132      4253.6306     -137162.06    
    974400   2590.0818     -1602.9537      4336.1743     -137166       
    974500   2499.9775     -11320.827      4426.7601     -137160.4     
    974600   2477.7334      3363.7778      4473.8711     -137156.26    
    974700   2581.4587     -850.61559      4484.29       -137158.42    
    974800   2352.7593     -7429.9288      4436.2848     -137154.75    
    974900   2539.5175      2206.5458      4345.7705     -137160.49    
    975000   2473.9434      9056.8188      4283.8933     -137159.19    
    975100   2481.2754      764.63953      4270.8105     -137161.47    
    975200   2470.0325     -3029.9441      4283.724      -137167.98    
    975300   2285.6008     -651.79865      4316.3757     -137166.46    
    975400   2535.0071     -3819.6718      4338.6407     -137166.72    
    975500   2475.4524     -2458.6614      4341.4783     -137158.13    
    975600   2586.9719      6881.462       4340.7682     -137160.11    
    975700   2471.7869     -4590.4738      4363.4604     -137161.11    
    975800   2392.3889      5377.5449      4342.1792     -137163.67    
    975900   2408.4495     -3140.1076      4304.3066     -137161.17    
    976000   2597.878       12204.719      4238.1689     -137156.9     
    976100   2596.1537      14889.781      4233.2233     -137162.45    
    976200   2447.6548     -4328.3063      4304.1441     -137163.06    
    976300   2462.36       -3261.1519      4349.9902     -137162.95    
    976400   2584.8756     -6743.4246      4386.0864     -137159.43    
    976500   2554.4054      1325.1062      4408.0431     -137154.43    
    976600   2533.6064      3930.602       4411.2893     -137155.18    
    976700   2287.28       -6166.5519      4396.7563     -137160.03    
    976800   2536.6165     -8258.1437      4348.0517     -137167.37    
    976900   2378.9613      11201.416      4284.4265     -137157.7     
    977000   2555.6689      10929.689      4280.4572     -137159.16    
    977100   2470.9883     -1329.6257      4336.468      -137158.8     
    977200   2183.6017     -5923.5495      4388.2652     -137158.62    
    977300   2238.2374     -4199.803       4400.9275     -137160.65    
    977400   2392.8207      5783.2087      4400.1864     -137155.75    
    977500   2570.2484     -1988.5348      4407.1788     -137158.04    
    977600   2446.7373      4485.724       4403.2568     -137155.06    
    977700   2530.8643     -8250.6328      4400.3369     -137160.22    
    977800   2370.3021      6993.4325      4374.9097     -137159.91    
    977900   2288.6         1147.4318      4386.7831     -137159.78    
    978000   2406.721      -8691.4374      4391.4017     -137156.72    
    978100   2632.4295      7752.555       4350.6201     -137157.84    
    978200   2523.5434      9846.4073      4340.7027     -137159.7     
    978300   2501.5095     -4855.2815      4398.0618     -137162.07    
    978400   2496.6171     -8805.904       4449.9285     -137159.74    
    978500   2930.3302     -9257.3403      4475.6061     -137159.69    
    978600   2565.1746      9795.9879      4470.5504     -137152.46    
    978700   2352.8998     -6845.9756      4467.2251     -137153.31    
    978800   2565.874       4421.617       4427.5741     -137160.81    
    978900   2398.448      -8302.9442      4398.6816     -137156.74    
    979000   2714.115       7018.0953      4349.1264     -137160.77    
    979100   2760.6431      4881.3231      4358.5861     -137158.22    
    979200   2438.23       -1791.3756      4414.1618     -137157.74    
    979300   2311.7582     -10183.894      4464.9503     -137156.65    
    979400   2564.6699     -11040.893      4433.0856     -137160.93    
    979500   2678.1606      1899.0969      4332.0747     -137159.55    
    979600   2599.1304      21203.623      4264.9193     -137157.26    
    979700   2510.2651     -447.4044       4321.5082     -137164.08    
    979800   2278.0039     -11274.19       4382.294      -137159.47    
    979900   2565.4079     -4114.6676      4380.2769     -137160.21    
    980000   2618.4504     -1907.0859      4382.5975     -137157.97    
    980100   2468.6813      2275.0483      4402.0597     -137155.07    
    980200   2622.8903     -12027.478      4437.8021     -137160.16    
    980300   2314.9936     -15579.574      4433.5615     -137154.52    
    980400   2465.0063      7618.7592      4356.6715     -137156.69    
    980500   2756.3052      7355.3526      4316.0007     -137159.98    
    980600   2507.3249      4072.567       4342.0915     -137158.39    
    980700   2287.2042     -1985.5338      4396.0759     -137159       
    980800   2341.85       -4682.353       4418.234      -137158.81    
    980900   2705.0023     -6390.0962      4371.9455     -137164.4     
    981000   2589.3405      2538.4433      4287.7203     -137162.79    
    981100   2462.858       14469.104      4231.4573     -137161.82    
    981200   2634.7467      4071.9399      4256.5959     -137166.85    
    981300   2395.6585     -3340.0545      4341.1762     -137160.24    
    981400   2637.4361     -6768.4106      4419.144      -137161.37    
    981500   2702.1853     -7928.1355      4465.2325     -137155.68    
    981600   2663.7947     -6449.8046      4469.6779     -137158.52    
    981700   2442.254      -9123.7302      4428.9596     -137162.21    
    981800   2519.5067      1917.2477      4345.1696     -137164.13    
    981900   2496.0888      15754.134      4268.0625     -137161.79    
    982000   2806.776       3597.608       4265.6641     -137167.63    
    982100   2308.4927     -4149.6735      4310.8544     -137159.62    
    982200   2290.4515     -2017.0313      4352.8212     -137163.36    
    982300   2538.0486     -688.41638      4408.6649     -137162.16    
    982400   2626.9702     -9694.5217      4477.62       -137158.21    
    982500   2445.0275     -8972.9861      4517.6769     -137153.66    
    982600   2628.445      -432.72013      4502.2506     -137157.65    
    982700   2663.8138     -2027.9047      4480.1772     -137156.85    
    982800   2298.6887      2163.8053      4461.4292     -137152.63    
    982900   2279.8957     -5868.9892      4431.1874     -137158.74    
    983000   2388.2444      1538.16        4343.3269     -137162       
    983100   2607.1912      11956.199      4238.7829     -137159.25    
    983200   2622.6331      18773.719      4208.3077     -137156.02    
    983300   2625.91        9659.5583      4276.0742     -137160.91    
    983400   2391.307      -3049.8741      4378.6061     -137158.75    
    983500   2380.8748     -11493.121      4439.3278     -137158.72    
    983600   2491.8656      882.50004      4435.9524     -137154.09    
    983700   2739.5026      3441.6968      4436.3469     -137156.29    
    983800   2625.3661      746.38462      4478.3496     -137158.77    
    983900   2444.6333     -13917.73       4506.1559     -137157.55    
    984000   2414.9758     -3498.0709      4427.9827     -137156.34    
    984100   2674.9003      8176.8067      4311.7298     -137160.75    
    984200   2668.4109      5202.6199      4260.4454     -137164.27    
    984300   2228.1316      3502.5794      4244.5049     -137161.9     
    984400   2427.4971      3735.1259      4232.1778     -137166.45    
    984500   2596.4458      3891.9671      4252.4567     -137164.45    
    984600   2561.2551     -765.47665      4309.5062     -137159.49    
    984700   2539.4759     -2565.7603      4362.5928     -137160.31    
    984800   2393.9761     -1572.7057      4418.072      -137159.19    
    984900   2294.2691     -12964.893      4447.046      -137164.7     
    985000   2131.6837     -400.08833      4398.6615     -137161.89    
    985100   2637.672      -1013.2086      4315.0323     -137167.3     
    985200   2615.085       10707.105      4253.9294     -137165.72    
    985300   2252.809       12830.561      4267.9848     -137161.16    
    985400   2267.8278     -1531.2619      4325.7218     -137161.9     
    985500   2684.0067     -2149.668       4346.6445     -137163.64    
    985600   2511.9404      8096.8431      4344.4795     -137155.52    
    985700   2545.0638     -1257.788       4371.0547     -137158.24    
    985800   2461.401       4412.2353      4389.2271     -137162.88    
    985900   2317.8694     -4725.4042      4417.6841     -137161.68    
    986000   2475.4009     -9667.0457      4416.7838     -137162.87    
    986100   2412.0586     -4436.2361      4386.072      -137156.81    
    986200   2488.6765      12912.619      4335.7295     -137155.71    
    986300   2481.1895      10718.683      4333.1392     -137158.65    
    986400   2326.5009     -6766.8635      4382.8062     -137163.13    
    986500   2222.1819     -4521.7388      4389.2058     -137162.22    
    986600   2476.787      -412.50439      4338.4281     -137161.23    
    986700   2623.0589      5673.7454      4271.4666     -137163.41    
    986800   2551.3654      2308.556       4250.683      -137164.22    
    986900   2431.8532     -2088.4788      4264.9269     -137165.34    
    987000   2403.8604      2894.6972      4278.609      -137163.98    
    987100   2604.4524      1054.0351      4301.0398     -137159.84    
    987200   2667.9001      3125.4335      4328.2848     -137160.82    
    987300   2600.261      -2421.1132      4371.9203     -137164.64    
    987400   2256.376       3303.7567      4422.6437     -137155.3     
    987500   2419.403      -3930.617       4450.5174     -137155.47    
    987600   2616.2497     -2153.6532      4471.6038     -137156.45    
    987700   2593.3023     -7739.3777      4487.9523     -137157.28    
    987800   2453.4604     -3072.8729      4448.0681     -137156       
    987900   2495.1971      9145.3144      4375.2376     -137158.1     
    988000   2407.3015     -832.21765      4329.664      -137158.46    
    988100   2544.2012      4801.9761      4281.1707     -137165.43    
    988200   2414.0782      8357.7753      4263.101      -137163.69    
    988300   2368.2613      6872.3878      4280.8732     -137161.11    
    988400   2756.9796     -7504.2816      4316.3164     -137164.22    
    988500   2589.1759      9957.7401      4350.4613     -137156.78    
    988600   2377.3951     -2604.6617      4413.204      -137155.04    
    988700   2281.9574     -4999.5389      4429.9631     -137160.09    
    988800   2452.2083     -3638.8533      4405.8327     -137162.99    
    988900   2440.4858     -975.4091       4360.1582     -137156.83    
    989000   2683.4645      10200.268      4313.2213     -137160.97    
    989100   2662.478      -1953.4844      4325.9484     -137163.04    
    989200   2421.41       -9007.1775      4366.7634     -137160.74    
    989300   2439.4525     -766.74702      4372.9211     -137162.22    
    989400   2504.5158      9224.0655      4370.9041     -137158.93    
    989500   2506.3745      2003.8421      4423.1121     -137153.35    
    989600   2651.0528     -12894.88       4488.0443     -137158.15    
    989700   2446.2755     -2589.7206      4492.7629     -137159.54    
    989800   2275.0115     -3450.4595      4459.9771     -137163.71    
    989900   2508.6946     -11688.297      4398.4219     -137165.76    
    990000   2654.1399      1660.4465      4321.5483     -137163.32    
    990100   2702.4501     -1213.3039      4274.426      -137163.49    
    990200   2544.699       11944.872      4253.7455     -137165.06    
    990300   2288.3473     -2561.5536      4292.9667     -137162.39    
    990400   2356.781       1840.6795      4299.8829     -137161.02    
    990500   2523.7537      4533.654       4288.9932     -137162.44    
    990600   2581.8067      869.67875      4294.1422     -137163.85    
    990700   2446.1208     -3703.2839      4310.1992     -137162.84    
    990800   2403.4734      2056.5332      4314.4428     -137163.76    
    990900   2347.0626      6821.4641      4324.9326     -137158.6     
    991000   2692.6577      1552.0245      4343.8335     -137160.78    
    991100   2591.5163      9776.6835      4375.0426     -137157.64    
    991200   2363.9197     -3801.4684      4436.8991     -137158.86    
    991300   2313.3897     -11755.342      4463.9241     -137160.28    
    991400   2683.0527      5591.0333      4414.7541     -137159.01    
    991500   2615.3966      6087.5728      4405.5076     -137156.78    
    991600   2322.8272     -4423.7477      4434.6342     -137153.84    
    991700   2377.785      -1146.0059      4414.9122     -137156.61    
    991800   2521.7733     -3323.125       4381.0514     -137158.01    
    991900   2753.4735      3719.1381      4337.8506     -137159.82    
    992000   2568.7327      6407.9518      4317.471      -137158.22    
    992100   2519.0818     -6721.3192      4334.895      -137164.97    
    992200   2450.6418     -2306.2272      4356.1112     -137161.89    
    992300   2448.9111      2524.5826      4369.7639     -137156.72    
    992400   2487.3731      9013.0589      4398.3082     -137155       
    992500   2469.2125      5086.7302      4457.8945     -137155.81    
    992600   2352.1469     -9887.3181      4506.94       -137150.57    
    992700   2670.8171     -8156.0506      4462.867      -137156.78    
    992800   2745.4555     -2666.2702      4370.0987     -137163.12    
    992900   2475.8114     -3638.9251      4271.1168     -137165.4     
    993000   2389.0187      19604.595      4183.9123     -137161.99    
    993100   2491.7489      13210.593      4195.8223     -137163.04    
    993200   2539.1828      2277.0423      4280.353      -137164.36    
    993300   2514.2277     -11832.548      4382.367      -137165.61    
    993400   2212.5016     -7944.5178      4429.0458     -137158.67    
    993500   2679.8733     -7274.926       4417.9682     -137161.94    
    993600   2633.4505      7407.974       4398.417      -137159.17    
    993700   2498.3152     -6605.0445      4415.6174     -137159.39    
    993800   2435.781      -3199.665       4422.2506     -137162.35    
    993900   2231.5302      3026.5206      4405.4445     -137160       
    994000   2488.9769      1078.6552      4374.6506     -137157.97    
    994100   2653.4221      15236.492      4346.2303     -137157.95    
    994200   2310.6789      7212.3306      4368.7326     -137154.66    
    994300   2501.0401     -12914.234      4390.3091     -137163       
    994400   2530.7197     -342.5862       4359.1132     -137162       
    994500   2611.0719      8375.0785      4347.5305     -137160.85    
    994600   2795.1947      574.89407      4390.589      -137158.52    
    994700   2649.302      -8222.2515      4440.6534     -137159.71    
    994800   2370.1022     -3774.8798      4448.503      -137158.61    
    994900   2423.8517      7674.0043      4420.3197     -137160.78    
    995000   2392.0086     -7591.1967      4408.8019     -137156.61    
    995100   2740.2093      10662.769      4377.243      -137158.25    
    995200   2325.5838      2708.6305      4388.5839     -137149.93    
    995300   2424.9185     -1083.569       4369.1783     -137162.7     
    995400   2403.0479      2491.5582      4313.3044     -137162.86    
    995500   2402.6525      9617.9528      4275.5692     -137160.29    
    995600   2497.5328      2714.0191      4289.9767     -137160.79    
    995700   2568.2887     -4324.9697      4329.6099     -137161.26    
    995800   2577.0434      5945.8023      4365.0015     -137159.11    
    995900   2415.7211     -5334.5671      4429.5587     -137156.79    
    996000   2383.6251     -13547.929      4471.2516     -137156.16    
    996100   2536.3742      1928.1337      4415.6978     -137155.23    
    996200   2824.4058      7349.8463      4356.1608     -137156.88    
    996300   2571.5139      7223.7391      4345.3891     -137158.9     
    996400   2548.5823     -4477.7192      4365.3619     -137161.97    
    996500   2472.7454      1782.9886      4377.0629     -137162.5     
    996600   2331.6975      7877.3501      4400.1103     -137159.01    
    996700   2515.4677      4394.8997      4435.1204     -137157.67    
    996800   2559.9939     -2128.2079      4481.3446     -137153.25    
    996900   2494.2021     -12899.662      4494.1929     -137153.39    
    997000   2435.2261     -6258.1118      4396.457      -137161.08    
    997100   2551.5592      2785.7306      4228.9817     -137167.46    
    997200   2472.4234      24445.492      4103.6129     -137165.53    
    997300   2490.8431      2265.4673      4116.4672     -137169.45    
    997400   2356.4358      10344.616      4172.3146     -137167.85    
    997500   2541.9261     -2291.7848      4251.8217     -137165.95    
    997600   2501.6665      1653.3142      4360.631      -137158.24    
    997700   2490.9355     -3898.8647      4463.2632     -137156.17    
    997800   2666.7001     -19251.712      4512.7512     -137158.26    
    997900   2638.331      -1795.4104      4489.0873     -137155.29    
    998000   2593.6233     -1897.8519      4443.3138     -137160.2     
    998100   2313.6598      2358.3879      4389.4575     -137158.14    
    998200   2503.9724      1944.7821      4343.0886     -137160.7     
    998300   2471.156       12191.741      4309.3101     -137159.19    
    998400   2355.7853      2454.7498      4312.1241     -137163.43    
    998500   2168.9909     -3208.9983      4308.9732     -137161.75    
    998600   2402.3865      3235.0274      4269.0647     -137160.64    
    998700   2582.5796     -629.51501      4243.3795     -137161.71    
    998800   2541.9908      677.62832      4258.9162     -137160.22    
    998900   2516.8962      7883.0446      4307.5739     -137161.19    
    999000   2193.8686     -9015.9092      4387.4419     -137159.24    
    999100   2273.7218     -2257.7547      4408.7577     -137160.78    
    999200   2776.2039     -5939.1856      4394.729      -137165.11    
    999300   2450.1145      402.92432      4391.9771     -137155.83    
    999400   2445.4301     -355.19154      4419.7322     -137156.11    
    999500   2413.0613     -2200.2885      4428.167      -137157.99    
    999600   2277.1845     -3621.8214      4397.585      -137161.11    
    999700   2415.5401      3964.6283      4337.6137     -137163.91    
    999800   2719.9738      1633.7661      4288.5533     -137163.26    
    999900   2769.7914      10410.435      4268.6669     -137166.21    
   1000000   2385.8495     -1856.3924      4308.7944     -137161.48    
Loop time of 23462.7 on 8 procs for 1000000 steps with 216 atoms

Performance: 3.682 ns/day, 6.517 hours/ns, 42.621 timesteps/s, 9.206 katom-step/s
99.2% CPU use with 8 MPI tasks x 1 OpenMP threads

MPI task timing breakdown:
Section |  min time  |  avg time  |  max time  |%varavg| %total
---------------------------------------------------------------
Pair    | 20116      | 20298      | 20538      | 116.4 | 86.51
Neigh   | 5.8776     | 5.9456     | 6.0102     |   2.0 |  0.03
Comm    | 2858.5     | 3096.9     | 3278.2     | 297.8 | 13.20
Output  | 9.1225     | 11.265     | 25.556     | 161.0 |  0.05
Modify  | 29.81      | 44.463     | 47.646     |  84.5 |  0.19
Other   |            | 5.866      |            |       |  0.03

Nlocal:             27 ave          30 max          22 min
Histogram: 1 0 0 1 0 0 3 0 2 1
Nghost:        619.875 ave         637 max         597 min
Histogram: 1 0 1 0 1 1 1 1 1 1
Neighs:              0 ave           0 max           0 min
Histogram: 8 0 0 0 0 0 0 0 0 0
FullNghs:      2550.75 ave        2876 max        1992 min
Histogram: 1 0 0 1 0 1 1 2 1 1

Total # of neighbors = 20406
Ave neighs/atom = 94.472222
Neighbor list builds = 30243
Dangerous builds = 0
System init for write_data ...
Total wall time: 6:31:03
