ITEM: TIMESTEP
0
ITEM: NUMBER OF ATOMS
216
ITEM: BOX BOUNDS pp pp pp
0.0000000000000000e+00 1.6292999999999999e+01
0.0000000000000000e+00 1.6292999999999999e+01
0.0000000000000000e+00 1.6292999999999999e+01
ITEM: ATOMS id type xs ys zs
1 1 0 0 0
2 1 0 0.166667 0.166667
3 1 0.166667 0 0.166667
4 1 0.166667 0.166667 0
5 1 0.0833333 0.0833333 0.0833333
9 1 0.333333 0 0
10 1 0.333333 0.166667 0.166667
13 1 0.416667 0.0833333 0.0833333
11 1 0.5 0 0.166667
12 1 0.5 0.166667 0
17 1 0.666667 0 0
18 1 0.666667 0.166667 0.166667
19 1 0.833333 0 0.166667
20 1 0.833333 0.166667 0
21 1 0.75 0.0833333 0.0833333
25 1 0 0.333333 0
27 1 0.166667 0.333333 0.166667
29 1 0.0833333 0.416667 0.0833333
8 1 0.25 0.25 0.0833333
33 1 0.333333 0.333333 0
37 1 0.416667 0.416667 0.0833333
16 1 0.583333 0.25 0.0833333
35 1 0.5 0.333333 0.166667
41 1 0.666667 0.333333 0
24 1 0.916667 0.25 0.0833333
43 1 0.833333 0.333333 0.166667
45 1 0.75 0.416667 0.0833333
26 1 0 0.5 0.166667
28 1 0.166667 0.5 0
49 1 0 0.666667 0
51 1 0.166667 0.666667 0.166667
32 1 0.25 0.583333 0.0833333
34 1 0.333333 0.5 0.166667
57 1 0.333333 0.666667 0
36 1 0.5 0.5 0
40 1 0.583333 0.583333 0.0833333
42 1 0.666667 0.5 0.166667
59 1 0.5 0.666667 0.166667
65 1 0.666667 0.666667 0
44 1 0.833333 0.5 0
48 1 0.916667 0.583333 0.0833333
67 1 0.833333 0.666667 0.166667
50 1 0 0.833333 0.166667
52 1 0.166667 0.833333 0
53 1 0.0833333 0.75 0.0833333
56 1 0.25 0.916667 0.0833333
58 1 0.333333 0.833333 0.166667
61 1 0.416667 0.75 0.0833333
60 1 0.5 0.833333 0
64 1 0.583333 0.916667 0.0833333
66 1 0.666667 0.833333 0.166667
68 1 0.833333 0.833333 0
69 1 0.75 0.75 0.0833333
72 1 0.916667 0.916667 0.0833333
73 1 0 0 0.333333
76 1 0.166667 0.166667 0.333333
77 1 0.0833333 0.0833333 0.416667
7 1 0.25 0.0833333 0.25
81 1 0.333333 0 0.333333
85 1 0.416667 0.0833333 0.416667
15 1 0.583333 0.0833333 0.25
84 1 0.5 0.166667 0.333333
89 1 0.666667 0 0.333333
23 1 0.916667 0.0833333 0.25
92 1 0.833333 0.166667 0.333333
93 1 0.75 0.0833333 0.416667
6 1 0.0833333 0.25 0.25
97 1 0 0.333333 0.333333
101 1 0.0833333 0.416667 0.416667
14 1 0.416667 0.25 0.25
31 1 0.25 0.416667 0.25
80 1 0.25 0.25 0.416667
105 1 0.333333 0.333333 0.333333
109 1 0.416667 0.416667 0.416667
39 1 0.583333 0.416667 0.25
88 1 0.583333 0.25 0.416667
113 1 0.666667 0.333333 0.333333
22 1 0.75 0.25 0.25
47 1 0.916667 0.416667 0.25
96 1 0.916667 0.25 0.416667
117 1 0.75 0.416667 0.416667
30 1 0.0833333 0.583333 0.25
100 1 0.166667 0.5 0.333333
121 1 0 0.666667 0.333333
38 1 0.416667 0.583333 0.25
104 1 0.25 0.583333 0.416667
129 1 0.333333 0.666667 0.333333
108 1 0.5 0.5 0.333333
112 1 0.583333 0.583333 0.416667
137 1 0.666667 0.666667 0.333333
46 1 0.75 0.583333 0.25
116 1 0.833333 0.5 0.333333
120 1 0.916667 0.583333 0.416667
54 1 0.0833333 0.916667 0.25
124 1 0.166667 0.833333 0.333333
125 1 0.0833333 0.75 0.416667
55 1 0.25 0.75 0.25
62 1 0.416667 0.916667 0.25
128 1 0.25 0.916667 0.416667
133 1 0.416667 0.75 0.416667
63 1 0.583333 0.75 0.25
132 1 0.5 0.833333 0.333333
136 1 0.583333 0.916667 0.416667
70 1 0.75 0.916667 0.25
71 1 0.916667 0.75 0.25
140 1 0.833333 0.833333 0.333333
141 1 0.75 0.75 0.416667
144 1 0.916667 0.916667 0.416667
74 1 0 0.166667 0.5
75 1 0.166667 0 0.5
145 1 0 0 0.666667
148 1 0.166667 0.166667 0.666667
79 1 0.25 0.0833333 0.583333
82 1 0.333333 0.166667 0.5
153 1 0.333333 0 0.666667
83 1 0.5 0 0.5
87 1 0.583333 0.0833333 0.583333
90 1 0.666667 0.166667 0.5
156 1 0.5 0.166667 0.666667
161 1 0.666667 0 0.666667
91 1 0.833333 0 0.5
95 1 0.916667 0.0833333 0.583333
164 1 0.833333 0.166667 0.666667
78 1 0.0833333 0.25 0.583333
99 1 0.166667 0.333333 0.5
169 1 0 0.333333 0.666667
86 1 0.416667 0.25 0.583333
103 1 0.25 0.416667 0.583333
177 1 0.333333 0.333333 0.666667
107 1 0.5 0.333333 0.5
111 1 0.583333 0.416667 0.583333
185 1 0.666667 0.333333 0.666667
94 1 0.75 0.25 0.583333
115 1 0.833333 0.333333 0.5
119 1 0.916667 0.416667 0.583333
98 1 0 0.5 0.5
102 1 0.0833333 0.583333 0.583333
123 1 0.166667 0.666667 0.5
172 1 0.166667 0.5 0.666667
193 1 0 0.666667 0.666667
106 1 0.333333 0.5 0.5
110 1 0.416667 0.583333 0.583333
201 1 0.333333 0.666667 0.666667
114 1 0.666667 0.5 0.5
131 1 0.5 0.666667 0.5
180 1 0.5 0.5 0.666667
209 1 0.666667 0.666667 0.666667
118 1 0.75 0.583333 0.583333
139 1 0.833333 0.666667 0.5
188 1 0.833333 0.5 0.666667
122 1 0 0.833333 0.5
126 1 0.0833333 0.916667 0.583333
196 1 0.166667 0.833333 0.666667
127 1 0.25 0.75 0.583333
130 1 0.333333 0.833333 0.5
134 1 0.416667 0.916667 0.583333
135 1 0.583333 0.75 0.583333
138 1 0.666667 0.833333 0.5
204 1 0.5 0.833333 0.666667
142 1 0.75 0.916667 0.583333
143 1 0.916667 0.75 0.583333
212 1 0.833333 0.833333 0.666667
146 1 0 0.166667 0.833333
147 1 0.166667 0 0.833333
149 1 0.0833333 0.0833333 0.75
151 1 0.25 0.0833333 0.916667
154 1 0.333333 0.166667 0.833333
157 1 0.416667 0.0833333 0.75
155 1 0.5 0 0.833333
159 1 0.583333 0.0833333 0.916667
162 1 0.666667 0.166667 0.833333
163 1 0.833333 0 0.833333
165 1 0.75 0.0833333 0.75
167 1 0.916667 0.0833333 0.916667
150 1 0.0833333 0.25 0.916667
171 1 0.166667 0.333333 0.833333
173 1 0.0833333 0.416667 0.75
152 1 0.25 0.25 0.75
158 1 0.416667 0.25 0.916667
175 1 0.25 0.416667 0.916667
181 1 0.416667 0.416667 0.75
160 1 0.583333 0.25 0.75
179 1 0.5 0.333333 0.833333
183 1 0.583333 0.416667 0.916667
166 1 0.75 0.25 0.916667
168 1 0.916667 0.25 0.75
187 1 0.833333 0.333333 0.833333
189 1 0.75 0.416667 0.75
191 1 0.916667 0.416667 0.916667
170 1 0 0.5 0.833333
174 1 0.0833333 0.583333 0.916667
195 1 0.166667 0.666667 0.833333
176 1 0.25 0.583333 0.75
178 1 0.333333 0.5 0.833333
182 1 0.416667 0.583333 0.916667
184 1 0.583333 0.583333 0.75
186 1 0.666667 0.5 0.833333
203 1 0.5 0.666667 0.833333
190 1 0.75 0.583333 0.916667
192 1 0.916667 0.583333 0.75
211 1 0.833333 0.666667 0.833333
194 1 0 0.833333 0.833333
197 1 0.0833333 0.75 0.75
198 1 0.0833333 0.916667 0.916667
199 1 0.25 0.75 0.916667
200 1 0.25 0.916667 0.75
202 1 0.333333 0.833333 0.833333
205 1 0.416667 0.75 0.75
206 1 0.416667 0.916667 0.916667
207 1 0.583333 0.75 0.916667
208 1 0.583333 0.916667 0.75
210 1 0.666667 0.833333 0.833333
213 1 0.75 0.75 0.75
214 1 0.75 0.916667 0.916667
215 1 0.916667 0.75 0.916667
216 1 0.916667 0.916667 0.75
ITEM: TIMESTEP
100
ITEM: NUMBER OF ATOMS
216
ITEM: BOX BOUNDS pp pp pp
-1.1237873888907579e-01 1.6405378738889098e+01
-1.1237873888907579e-01 1.6405378738889098e+01
-1.1237873888907579e-01 1.6405378738889098e+01
ITEM: ATOMS id type xs ys zs
1 1 0.00576849 0.0025615 0.000366258
2 1 0.00464084 0.167636 0.167668
3 1 0.173044 -0.00147281 0.166696
4 1 0.172091 0.168483 0.00145063
5 1 0.0924277 0.0854677 0.0854862
9 1 0.334238 -0.00401412 -0.00147454
10 1 0.338107 0.172934 0.165254
13 1 0.415193 0.0835637 0.0814865
11 1 0.497947 0.00239147 0.167177
12 1 0.498268 0.167655 -0.00531453
17 1 0.662512 0.000997549 -0.00210577
18 1 0.667817 0.167985 0.167891
19 1 0.83557 0.00466955 0.168608
20 1 0.835121 0.16678 0.00885487
21 1 0.75026 0.08439 0.084578
25 1 0.00199113 0.333527 0.00061656
27 1 0.172659 0.340399 0.169709
29 1 0.0836173 0.419891 0.0876369
8 1 0.253501 0.256315 0.0863873
33 1 0.338814 0.336459 -0.0015637
37 1 0.420065 0.423994 0.080938
16 1 0.580358 0.247721 0.0855296
35 1 0.495419 0.335175 0.166436
41 1 0.669508 0.33048 0.00502623
24 1 0.921124 0.251218 0.0859134
43 1 0.834929 0.328791 0.171646
45 1 0.749851 0.413949 0.087334
26 1 -0.00464501 0.499062 0.169795
28 1 0.16528 0.499233 -0.00293367
49 1 -0.00298127 0.665819 -0.00214891
51 1 0.161565 0.665701 0.167775
32 1 0.244421 0.582366 0.0768463
34 1 0.331315 0.503286 0.162041
57 1 0.33648 0.662912 -0.00321235
36 1 0.503635 0.504068 -0.00474968
40 1 0.583287 0.587078 0.0852858
42 1 0.664865 0.500483 0.166441
59 1 0.495966 0.670755 0.162468
65 1 0.662801 0.667673 0.00121963
44 1 0.830679 0.495399 0.00685806
48 1 0.913147 0.584527 0.0869898
67 1 0.828852 0.668278 0.168818
50 1 -0.00613347 0.830378 0.163842
52 1 0.165736 0.826719 -0.00451595
53 1 0.0786351 0.750083 0.0811003
56 1 0.249185 0.914875 0.0771691
58 1 0.331373 0.830638 0.162962
61 1 0.411451 0.747177 0.079721
60 1 0.495956 0.83452 -0.00392798
64 1 0.578774 0.923022 0.0802022
66 1 0.662141 0.840252 0.165151
68 1 0.834621 0.842205 0.00620666
69 1 0.742737 0.754793 0.0830576
72 1 0.918462 0.922502 0.0828459
73 1 -0.00103543 -0.00435352 0.331524
76 1 0.169264 0.164441 0.33258
77 1 0.0853185 0.0842474 0.416299
7 1 0.254628 0.0825515 0.253064
81 1 0.335235 -0.00190331 0.330351
85 1 0.416418 0.0837006 0.417348
15 1 0.578241 0.0844251 0.251191
84 1 0.497882 0.16617 0.336573
89 1 0.661346 0.00266015 0.332368
23 1 0.91821 0.0866025 0.250399
92 1 0.832752 0.166586 0.332959
93 1 0.749965 0.0823355 0.41557
6 1 0.087588 0.252576 0.251272
97 1 0.00386495 0.336738 0.333777
101 1 0.0845881 0.416128 0.424423
14 1 0.416653 0.251808 0.252974
31 1 0.249306 0.422609 0.251262
80 1 0.248815 0.250296 0.415567
105 1 0.32663 0.33451 0.334825
109 1 0.414189 0.416245 0.416669
39 1 0.580156 0.416323 0.251964
88 1 0.580998 0.251074 0.421651
113 1 0.66088 0.336711 0.336535
22 1 0.745628 0.251047 0.252695
47 1 0.912866 0.412658 0.254386
96 1 0.922172 0.249168 0.419714
117 1 0.750638 0.411567 0.417949
30 1 0.080404 0.585962 0.251104
100 1 0.162475 0.503586 0.337014
121 1 -0.0052339 0.667844 0.333195
38 1 0.415055 0.584567 0.247316
104 1 0.246919 0.587775 0.419604
129 1 0.329975 0.665391 0.330638
108 1 0.500441 0.503735 0.333218
112 1 0.583298 0.588403 0.415229
137 1 0.665373 0.670238 0.335565
46 1 0.746213 0.585864 0.250572
116 1 0.827758 0.500981 0.33702
120 1 0.912378 0.58172 0.424048
54 1 0.0831231 0.91695 0.243777
124 1 0.161061 0.832764 0.331486
125 1 0.0780503 0.74833 0.416582
55 1 0.248097 0.748886 0.245517
62 1 0.413408 0.915299 0.247505
128 1 0.245482 0.912831 0.413662
133 1 0.418332 0.751049 0.411932
63 1 0.57909 0.753147 0.249551
132 1 0.501466 0.837358 0.330589
136 1 0.583437 0.916936 0.415758
70 1 0.744203 0.921672 0.24814
71 1 0.913547 0.752193 0.249768
140 1 0.827015 0.837992 0.33286
141 1 0.750431 0.749909 0.41585
144 1 0.916018 0.914827 0.417633
74 1 0.00174475 0.162961 0.50146
75 1 0.164758 -0.0044591 0.499393
145 1 0.00186677 -0.00366064 0.667766
148 1 0.16525 0.161939 0.665195
79 1 0.247196 0.0787753 0.581301
82 1 0.330521 0.16596 0.503311
153 1 0.332955 0.000256241 0.661981
83 1 0.501479 0.00256394 0.49911
87 1 0.583813 0.0800493 0.581047
90 1 0.666493 0.164684 0.505173
156 1 0.500846 0.165012 0.660392
161 1 0.669599 0.00198754 0.665842
91 1 0.833184 -0.000216903 0.498902
95 1 0.919022 0.0763466 0.583726
164 1 0.83811 0.166186 0.667438
78 1 0.0849427 0.246521 0.583787
99 1 0.167391 0.328497 0.504124
169 1 -0.00049673 0.327804 0.668157
86 1 0.41663 0.24878 0.585185
103 1 0.249974 0.416418 0.582617
177 1 0.335062 0.329813 0.668151
107 1 0.505244 0.33884 0.498962
111 1 0.584578 0.414292 0.581775
185 1 0.670172 0.333383 0.667068
94 1 0.752902 0.25019 0.584798
115 1 0.836102 0.333302 0.50216
119 1 0.916789 0.412384 0.586135
98 1 -0.00156404 0.501316 0.501922
102 1 0.081158 0.583277 0.585746
123 1 0.161133 0.666266 0.50054
172 1 0.165438 0.496875 0.668658
193 1 -0.00100848 0.667055 0.66864
106 1 0.330356 0.500297 0.499454
110 1 0.420281 0.581169 0.585646
201 1 0.333819 0.663494 0.663353
114 1 0.663075 0.501285 0.500437
131 1 0.499792 0.667916 0.497299
180 1 0.505486 0.496984 0.670512
209 1 0.668233 0.665629 0.666513
118 1 0.748748 0.583789 0.586351
139 1 0.829556 0.665133 0.502185
188 1 0.832931 0.498556 0.669649
122 1 -0.00311583 0.833334 0.50136
126 1 0.0781897 0.916992 0.582821
196 1 0.16429 0.832943 0.667872
127 1 0.249014 0.74858 0.581934
130 1 0.330632 0.831552 0.495579
134 1 0.417358 0.91547 0.579599
135 1 0.585124 0.747898 0.581258
138 1 0.669177 0.834454 0.497158
204 1 0.504861 0.833336 0.662691
142 1 0.750556 0.917026 0.580637
143 1 0.914534 0.747311 0.584938
212 1 0.8344 0.833785 0.660289
146 1 0.00800592 0.164751 0.838138
147 1 0.168285 -0.0014676 0.833391
149 1 0.0843153 0.0802585 0.747957
151 1 0.253023 0.0815688 0.913897
154 1 0.333496 0.166701 0.83169
157 1 0.420225 0.0812218 0.746313
155 1 0.497424 -0.00316169 0.829613
159 1 0.583917 0.0846531 0.913856
162 1 0.668538 0.167037 0.833691
163 1 0.840672 0.0042387 0.83423
165 1 0.754719 0.0874571 0.749509
167 1 0.921504 0.0845998 0.921419
150 1 0.0890766 0.252975 0.919116
171 1 0.170772 0.337322 0.830134
173 1 0.0852611 0.414548 0.751824
152 1 0.246812 0.245057 0.747042
158 1 0.4174 0.250838 0.912487
175 1 0.250615 0.419061 0.913187
181 1 0.420982 0.415557 0.746385
160 1 0.589088 0.247749 0.748719
179 1 0.50607 0.336479 0.82872
183 1 0.587209 0.415173 0.91582
166 1 0.748922 0.245519 0.920492
168 1 0.922804 0.246603 0.752177
187 1 0.839645 0.335333 0.833284
189 1 0.752079 0.415826 0.754708
191 1 0.915146 0.413837 0.923784
170 1 0.0017268 0.497937 0.832254
174 1 0.0810547 0.586417 0.916746
195 1 0.166546 0.662135 0.828753
176 1 0.253737 0.582383 0.746304
178 1 0.337237 0.499746 0.832097
182 1 0.418503 0.587239 0.916197
184 1 0.588508 0.580969 0.753758
186 1 0.666597 0.495779 0.834386
203 1 0.500947 0.664028 0.833206
190 1 0.750069 0.581519 0.919678
192 1 0.918563 0.584442 0.750288
211 1 0.833936 0.663874 0.833846
194 1 0.00357496 0.834202 0.835722
197 1 0.0842084 0.748144 0.751472
198 1 0.0845602 0.913591 0.922373
199 1 0.247608 0.747551 0.90954
200 1 0.251118 0.916684 0.746763
202 1 0.335653 0.830292 0.829977
205 1 0.419647 0.745173 0.749285
206 1 0.416538 0.913949 0.908194
207 1 0.580228 0.749285 0.917067
208 1 0.581588 0.91937 0.745364
210 1 0.66458 0.834467 0.838044
213 1 0.752957 0.750481 0.751868
214 1 0.749571 0.919702 0.921022
215 1 0.914653 0.751642 0.918417
216 1 0.918056 0.914059 0.749238
ITEM: TIMESTEP
200
ITEM: NUMBER OF ATOMS
216
ITEM: BOX BOUNDS pp pp pp
-3.6301938504154307e-02 1.6329301938504152e+01
-3.6301938504154307e-02 1.6329301938504152e+01
-3.6301938504154307e-02 1.6329301938504152e+01
ITEM: ATOMS id type xs ys zs
1 1 -0.00476754 -0.00735442 0.000195691
2 1 -0.00592217 0.169336 0.165916
3 1 0.158921 0.00252687 0.164038
4 1 0.164212 0.163477 -0.000890366
5 1 0.0702738 0.0801717 0.080641
9 1 0.335337 0.00220559 -0.00444689
10 1 0.325822 0.163347 0.168534
13 1 0.41804 0.0838738 0.0843101
11 1 0.500331 -0.0032833 0.166726
12 1 0.506804 0.165066 0.00577669
17 1 0.670052 0.00586556 0.00366632
18 1 0.6659 0.16777 0.167824
19 1 0.830274 -0.00231118 0.160918
20 1 0.83733 0.167258 -0.000544646
21 1 0.748134 0.0836611 0.0818791
25 1 -0.00258888 0.329408 0.0070024
27 1 0.161954 0.326645 0.165116
29 1 0.0862942 0.412487 0.0800397
8 1 0.243211 0.246326 0.0809842
33 1 0.327576 0.329417 0.0020723
37 1 0.412145 0.411262 0.0894928
16 1 0.586417 0.257039 0.0826055
35 1 0.503984 0.333803 0.170638
41 1 0.66617 0.341969 -0.00290651
24 1 0.912168 0.252884 0.086886
43 1 0.831192 0.339854 0.16047
45 1 0.753922 0.422651 0.0835888
26 1 0.00413651 0.501938 0.166049
28 1 0.168755 0.501567 0.002255
49 1 0.00441037 0.666131 0.00639119
51 1 0.166989 0.668631 0.163029
32 1 0.258501 0.586137 0.0897257
34 1 0.330715 0.496063 0.174965
57 1 0.335792 0.668608 0.000759868
36 1 0.495657 0.498759 0.00111802
40 1 0.580563 0.579682 0.0794285
42 1 0.667109 0.499569 0.166758
59 1 0.501982 0.663487 0.164842
65 1 0.665552 0.667714 -0.000329125
44 1 0.836045 0.50169 -0.00284848
48 1 0.918959 0.580319 0.0790769
67 1 0.837327 0.665592 0.166062
50 1 0.00216799 0.837586 0.165876
52 1 0.164839 0.843313 0.00372357
53 1 0.0862766 0.753735 0.0835613
56 1 0.247437 0.91836 0.0874625
58 1 0.335186 0.835961 0.165916
61 1 0.422318 0.75296 0.0836263
60 1 0.503552 0.833919 -0.00166815
64 1 0.58993 0.914669 0.0843198
66 1 0.669364 0.829866 0.168774
68 1 0.833541 0.826847 -0.00379202
69 1 0.757068 0.747222 0.0829619
72 1 0.915646 0.913529 0.0847328
73 1 -0.00103483 0.00622551 0.333208
76 1 0.168683 0.17347 0.335671
77 1 0.087063 0.0837701 0.417707
7 1 0.239536 0.0866325 0.244072
81 1 0.328188 0.00238555 0.332794
85 1 0.417991 0.0793817 0.410912
15 1 0.585535 0.0823785 0.247312
84 1 0.500183 0.168912 0.326463
89 1 0.665849 -0.00288787 0.333507
23 1 0.914911 0.0793584 0.243804
92 1 0.833774 0.16626 0.330626
93 1 0.74947 0.0798752 0.419472
6 1 0.0824234 0.248704 0.25068
97 1 -0.00482758 0.332331 0.334357
101 1 0.081779 0.417015 0.41097
14 1 0.414813 0.250106 0.246975
31 1 0.249712 0.408586 0.248943
80 1 0.250938 0.252664 0.416573
105 1 0.337745 0.332395 0.32879
109 1 0.420292 0.413955 0.419328
39 1 0.586844 0.417345 0.249859
88 1 0.583442 0.252075 0.40809
113 1 0.672977 0.330536 0.331135
22 1 0.7546 0.254794 0.247769
47 1 0.918832 0.420262 0.245643
96 1 0.909095 0.253413 0.417665
117 1 0.751286 0.419043 0.416641
30 1 0.0825609 0.581324 0.250928
100 1 0.170417 0.495005 0.327737
121 1 0.00232894 0.663366 0.333149
38 1 0.417423 0.586392 0.250666
104 1 0.247465 0.57741 0.411827
129 1 0.330482 0.667823 0.337999
108 1 0.500158 0.498235 0.334815
112 1 0.583585 0.579895 0.416676
137 1 0.664667 0.662702 0.333708
46 1 0.749581 0.582585 0.253151
116 1 0.840079 0.49958 0.330458
120 1 0.917133 0.588087 0.413494
54 1 0.0828152 0.914132 0.252513
124 1 0.170266 0.83093 0.336329
125 1 0.0856452 0.749032 0.418368
55 1 0.248549 0.751504 0.252186
62 1 0.417699 0.917477 0.24918
128 1 0.254915 0.921723 0.416417
133 1 0.414211 0.749481 0.417785
63 1 0.584326 0.744734 0.249549
132 1 0.493002 0.83309 0.33394
136 1 0.579502 0.917654 0.415404
70 1 0.754502 0.917967 0.252377
71 1 0.919265 0.748639 0.250057
140 1 0.836132 0.826734 0.335317
141 1 0.743574 0.747666 0.418327
144 1 0.912472 0.918094 0.419309
74 1 0.00212929 0.172246 0.504052
75 1 0.17018 0.000916611 0.502622
145 1 0.00403065 0.00228242 0.664894
148 1 0.172413 0.170068 0.664401
79 1 0.248817 0.084858 0.586168
82 1 0.332989 0.164768 0.493855
153 1 0.332582 -0.000728258 0.667665
83 1 0.503553 0.00118374 0.499025
87 1 0.583597 0.0849101 0.585268
90 1 0.662723 0.1698 0.497291
156 1 0.506143 0.164189 0.671066
161 1 0.66348 -0.000607614 0.662364
91 1 0.835803 -0.00245586 0.507118
95 1 0.920348 0.0849387 0.587536
164 1 0.832146 0.165369 0.667455
78 1 0.0876363 0.251122 0.586765
99 1 0.165283 0.334616 0.494972
169 1 0.00729639 0.335784 0.666439
86 1 0.421246 0.250159 0.578817
103 1 0.247442 0.414874 0.582449
177 1 0.333569 0.336651 0.665676
107 1 0.498823 0.32846 0.502452
111 1 0.58031 0.417249 0.588706
185 1 0.666405 0.335649 0.667021
94 1 0.749624 0.24968 0.585331
115 1 0.829497 0.333769 0.503079
119 1 0.920036 0.420347 0.581538
98 1 0.000960704 0.498582 0.498011
102 1 0.0826005 0.584101 0.579989
123 1 0.170535 0.66313 0.496294
172 1 0.166183 0.503578 0.666073
193 1 -0.0038519 0.66519 0.663917
106 1 0.333215 0.503579 0.497426
110 1 0.413728 0.585122 0.580913
201 1 0.330953 0.668822 0.669198
114 1 0.667041 0.49869 0.500367
131 1 0.502133 0.665297 0.497914
180 1 0.499132 0.501557 0.661562
209 1 0.662281 0.663778 0.664471
118 1 0.755838 0.584562 0.58022
139 1 0.833427 0.675671 0.499167
188 1 0.833163 0.500308 0.668778
122 1 -0.000193717 0.832721 0.500426
126 1 0.084737 0.918512 0.581798
196 1 0.161918 0.828741 0.661447
127 1 0.248205 0.743714 0.580557
130 1 0.334457 0.832379 0.502414
134 1 0.418119 0.920493 0.582914
135 1 0.582534 0.750904 0.580577
138 1 0.663324 0.834139 0.501694
204 1 0.494622 0.831215 0.668637
142 1 0.752546 0.914119 0.586057
143 1 0.917862 0.750876 0.582015
212 1 0.834975 0.833224 0.672474
146 1 -0.00362083 0.163879 0.829873
147 1 0.162943 -0.000699682 0.832081
149 1 0.0862757 0.0865619 0.745114
151 1 0.250361 0.0856023 0.917434
154 1 0.337175 0.165467 0.831539
157 1 0.417286 0.0792415 0.751251
155 1 0.506548 0.00182859 0.839314
159 1 0.584701 0.0825694 0.916034
162 1 0.667592 0.162559 0.834716
163 1 0.828013 -0.00171533 0.836138
165 1 0.743848 0.0806428 0.754018
167 1 0.916235 0.0835397 0.919873
150 1 0.0781869 0.248875 0.915729
171 1 0.163038 0.326937 0.837025
173 1 0.0862383 0.413221 0.749746
152 1 0.252906 0.256051 0.754216
158 1 0.419167 0.248534 0.919965
175 1 0.246518 0.413573 0.9195
181 1 0.417537 0.416973 0.750956
160 1 0.582672 0.25098 0.754434
179 1 0.497043 0.333056 0.838578
183 1 0.583297 0.422127 0.916144
166 1 0.753199 0.250045 0.916179
168 1 0.915376 0.249671 0.749878
187 1 0.83154 0.331817 0.834745
189 1 0.745378 0.418968 0.749308
191 1 0.919743 0.417085 0.919003
170 1 -0.000605445 0.500185 0.836918
174 1 0.087585 0.580769 0.920452
195 1 0.161083 0.669601 0.836243
176 1 0.243294 0.585905 0.753849
178 1 0.332452 0.501835 0.83232
182 1 0.41933 0.581161 0.913864
184 1 0.578547 0.58282 0.747705
186 1 0.66685 0.504513 0.83004
203 1 0.501886 0.666735 0.834701
190 1 0.74621 0.580583 0.916305
192 1 0.913951 0.583437 0.749869
211 1 0.835255 0.666038 0.835852
194 1 0.00195768 0.8317 0.831315
197 1 0.0773007 0.744309 0.747849
198 1 0.0816308 0.920506 0.913837
199 1 0.251266 0.751866 0.922623
200 1 0.25182 0.913252 0.750388
202 1 0.3333 0.837906 0.837675
205 1 0.413687 0.750996 0.750444
206 1 0.417797 0.921725 0.919699
207 1 0.583295 0.745434 0.914745
208 1 0.582295 0.921187 0.752382
210 1 0.664849 0.835224 0.827347
213 1 0.749423 0.745418 0.74386
214 1 0.749863 0.917843 0.920854
215 1 0.920749 0.748565 0.916754
216 1 0.921334 0.920545 0.746046
ITEM: TIMESTEP
300
ITEM: NUMBER OF ATOMS
216
ITEM: BOX BOUNDS pp pp pp
-6.9422170545916373e-02 1.6362422170545905e+01
-6.9422170545916373e-02 1.6362422170545905e+01
-6.9422170545916373e-02 1.6362422170545905e+01
ITEM: ATOMS id type xs ys zs
1 1 -0.0016838 0.0010446 -0.00150798
2 1 -0.00626251 0.161031 0.164691
3 1 0.170914 -0.0015138 0.171362
4 1 0.164014 0.171811 0.000366032
5 1 0.0843598 0.0785204 0.0845706
9 1 0.331896 -0.0035679 0.00696901
10 1 0.335854 0.166788 0.169502
13 1 0.41652 0.0804869 0.0857264
11 1 0.506554 0.00148131 0.169973
12 1 0.500883 0.165433 -0.00941349
17 1 0.665981 -0.00366373 -0.00629717
18 1 0.671429 0.159098 0.164428
19 1 0.837767 -0.00382846 0.170866
20 1 0.827957 0.167561 -0.00559525
21 1 0.756595 0.0728679 0.0837936
25 1 -0.000734294 0.336198 -0.00964635
27 1 0.171216 0.332095 0.163242
29 1 0.0782677 0.413021 0.0824907
8 1 0.255211 0.246154 0.0858002
33 1 0.330366 0.332598 0.00266208
37 1 0.42168 0.415229 0.0767661
16 1 0.579287 0.241566 0.0864627
35 1 0.499753 0.330517 0.165366
41 1 0.664095 0.332235 0.00129718
24 1 0.913297 0.245549 0.0747133
43 1 0.836111 0.327516 0.165848
45 1 0.753003 0.412128 0.082567
26 1 -0.0010784 0.500018 0.164364
28 1 0.165092 0.49888 0.00020253
49 1 0.00229152 0.67072 -0.00583021
51 1 0.171573 0.667517 0.169606
32 1 0.246235 0.578755 0.0820495
34 1 0.335778 0.497119 0.162675
57 1 0.330777 0.666775 0.00417652
36 1 0.504334 0.503566 -0.000244829
40 1 0.583591 0.587783 0.0867533
42 1 0.66681 0.498588 0.163328
59 1 0.503302 0.667686 0.172173
65 1 0.670582 0.660587 -0.000275548
44 1 0.831103 0.50387 -0.00264862
48 1 0.918245 0.586408 0.0805403
67 1 0.834622 0.665973 0.163163
50 1 0.00230552 0.831116 0.165307
52 1 0.162989 0.829305 8.08926e-05
53 1 0.0841285 0.749665 0.0860277
56 1 0.2522 0.916568 0.0856747
58 1 0.337058 0.838577 0.173065
61 1 0.412685 0.74793 0.0919725
60 1 0.492255 0.82906 0.0056049
64 1 0.58032 0.914907 0.0809554
66 1 0.669179 0.825719 0.166019
68 1 0.834377 0.832026 0.00150689
69 1 0.748191 0.746132 0.079821
72 1 0.916859 0.916314 0.0839049
73 1 -0.000311054 -0.00447054 0.337083
76 1 0.163717 0.159261 0.328755
77 1 0.0836513 0.0817036 0.420001
7 1 0.25785 0.0807599 0.26127
81 1 0.340901 -0.00365456 0.334915
85 1 0.420581 0.0838316 0.42382
15 1 0.587475 0.0817716 0.25445
84 1 0.507274 0.167358 0.335222
89 1 0.668223 -0.00154794 0.332747
23 1 0.913165 0.0850267 0.255144
92 1 0.833957 0.172228 0.334222
93 1 0.749039 0.0835592 0.415202
6 1 0.0808053 0.244225 0.246453
97 1 0.00178246 0.332307 0.331757
101 1 0.0897915 0.417577 0.415847
14 1 0.422719 0.248551 0.249476
31 1 0.250057 0.418485 0.249293
80 1 0.243719 0.246479 0.414545
105 1 0.331435 0.327349 0.332801
109 1 0.414207 0.412377 0.412764
39 1 0.585225 0.413335 0.247748
88 1 0.58529 0.248461 0.423056
113 1 0.662283 0.334124 0.333662
22 1 0.75011 0.25002 0.248393
47 1 0.913889 0.414389 0.246149
96 1 0.918294 0.24947 0.415742
117 1 0.748337 0.413894 0.413933
30 1 0.0898445 0.582764 0.252175
100 1 0.172119 0.503314 0.337557
121 1 0.00328529 0.668641 0.333842
38 1 0.416602 0.57718 0.247971
104 1 0.252366 0.590743 0.420156
129 1 0.339148 0.664485 0.336474
108 1 0.504773 0.499586 0.33224
112 1 0.58587 0.590678 0.416014
137 1 0.673677 0.669297 0.336878
46 1 0.749644 0.583165 0.248851
116 1 0.831924 0.502052 0.332589
120 1 0.923246 0.579781 0.414109
54 1 0.0847686 0.91802 0.250001
124 1 0.170101 0.839175 0.331281
125 1 0.0893238 0.749056 0.414598
55 1 0.259572 0.750856 0.252137
62 1 0.421992 0.91829 0.255407
128 1 0.244938 0.918528 0.420498
133 1 0.419764 0.749311 0.420318
63 1 0.58509 0.746575 0.257741
132 1 0.507641 0.832127 0.337798
136 1 0.586115 0.917431 0.421698
70 1 0.752876 0.911841 0.2487
71 1 0.922565 0.75107 0.250213
140 1 0.834556 0.834408 0.336735
141 1 0.757228 0.749753 0.418816
144 1 0.920801 0.915135 0.4194
74 1 -0.0061985 0.165662 0.500418
75 1 0.166882 0.00317108 0.503287
145 1 -0.00771245 0.00415742 0.663519
148 1 0.158048 0.167807 0.667119
79 1 0.248447 0.0858882 0.586764
82 1 0.330155 0.170465 0.504415
153 1 0.335859 0.0075997 0.667507
83 1 0.498212 -0.00443745 0.505008
87 1 0.57881 0.0773916 0.584257
90 1 0.665243 0.162872 0.506124
156 1 0.493333 0.16695 0.665874
161 1 0.665275 0.00370997 0.670849
91 1 0.830508 0.00160334 0.49731
95 1 0.908813 0.081422 0.579831
164 1 0.829904 0.167633 0.6619
78 1 0.0808431 0.253349 0.583776
99 1 0.162377 0.330308 0.502731
169 1 -0.00550007 0.336006 0.661269
86 1 0.415266 0.257795 0.586219
103 1 0.253016 0.419435 0.584359
177 1 0.32942 0.332977 0.674663
107 1 0.503209 0.334793 0.495095
111 1 0.579508 0.416109 0.578546
185 1 0.662624 0.335599 0.661808
94 1 0.749671 0.255513 0.577295
115 1 0.833163 0.330996 0.492665
119 1 0.907946 0.413596 0.582696
98 1 0.00233662 0.498622 0.501145
102 1 0.0884117 0.58843 0.585333
123 1 0.172361 0.670424 0.502803
172 1 0.16728 0.498356 0.665646
193 1 0.00944038 0.672345 0.667365
106 1 0.334449 0.49868 0.498739
110 1 0.418436 0.581289 0.587249
201 1 0.333455 0.666561 0.666287
114 1 0.663551 0.500252 0.499855
131 1 0.496312 0.665309 0.504724
180 1 0.49923 0.500858 0.669494
209 1 0.662569 0.669686 0.672554
118 1 0.745904 0.58602 0.585931
139 1 0.841645 0.660649 0.497042
188 1 0.832374 0.500186 0.664157
122 1 0.00375376 0.83185 0.506271
126 1 0.0823241 0.924235 0.587154
196 1 0.175036 0.841228 0.670747
127 1 0.252785 0.756239 0.585348
130 1 0.331288 0.835127 0.495806
134 1 0.41312 0.915898 0.584808
135 1 0.582554 0.749538 0.585556
138 1 0.669832 0.832227 0.496644
204 1 0.50211 0.835902 0.668304
142 1 0.743526 0.922175 0.579947
143 1 0.918776 0.746111 0.586648
212 1 0.832376 0.833001 0.652024
146 1 -0.00220522 0.172659 0.829045
147 1 0.165119 0.00286966 0.838171
149 1 0.0743469 0.0813006 0.748541
151 1 0.248866 0.0793634 0.921089
154 1 0.324645 0.170531 0.837342
157 1 0.415137 0.0858997 0.756678
155 1 0.493865 0.000872423 0.839216
159 1 0.584635 0.0764451 0.918003
162 1 0.65546 0.166524 0.834601
163 1 0.830746 -0.00111667 0.823428
165 1 0.743594 0.0888647 0.742052
167 1 0.913528 0.0811202 0.910582
150 1 0.0869807 0.253516 0.908006
171 1 0.169501 0.336385 0.828763
173 1 0.082918 0.417843 0.750584
152 1 0.240975 0.243884 0.748441
158 1 0.41051 0.251032 0.919054
175 1 0.248278 0.414329 0.917001
181 1 0.414621 0.42189 0.75062
160 1 0.581512 0.250883 0.746246
179 1 0.494248 0.331905 0.831915
183 1 0.576777 0.418855 0.912024
166 1 0.743744 0.251637 0.910402
168 1 0.913187 0.255406 0.742727
187 1 0.827262 0.340465 0.826253
189 1 0.74596 0.418142 0.744271
191 1 0.914844 0.424477 0.911841
170 1 0.00273889 0.508883 0.826902
174 1 0.0848527 0.58788 0.910927
195 1 0.173303 0.663472 0.831252
176 1 0.254801 0.582913 0.748311
178 1 0.33227 0.499331 0.838096
182 1 0.416234 0.587199 0.920475
184 1 0.579742 0.584669 0.757468
186 1 0.666025 0.499158 0.832644
203 1 0.494314 0.667525 0.831604
190 1 0.753377 0.583934 0.912238
192 1 0.923214 0.5863 0.740444
211 1 0.832956 0.666571 0.825941
194 1 -0.00159016 0.833826 0.833772
197 1 0.0909643 0.755319 0.753732
198 1 0.0793906 0.915927 0.918887
199 1 0.247653 0.751851 0.914229
200 1 0.253897 0.926151 0.754434
202 1 0.338011 0.833543 0.832499
205 1 0.414539 0.751408 0.752879
206 1 0.417992 0.915666 0.918116
207 1 0.577601 0.749117 0.922254
208 1 0.58319 0.918709 0.753801
210 1 0.668445 0.825532 0.837664
213 1 0.752623 0.7552 0.748039
214 1 0.749041 0.911887 0.915409
215 1 0.914647 0.751242 0.916764
216 1 0.914927 0.911188 0.745808
ITEM: TIMESTEP
400
ITEM: NUMBER OF ATOMS
216
ITEM: BOX BOUNDS pp pp pp
-7.8680244154011092e-02 1.6371680244153993e+01
-7.8680244154011092e-02 1.6371680244153993e+01
-7.8680244154011092e-02 1.6371680244153993e+01
ITEM: ATOMS id type xs ys zs
1 1 0.00607684 -0.000858481 0.00218208
2 1 0.00802245 0.170472 0.169287
3 1 0.168428 -0.00281132 0.170417
4 1 0.170595 0.171589 0.000394337
5 1 0.0902968 0.0901242 0.0843198
9 1 0.330487 -0.00149061 -0.00294057
10 1 0.329449 0.174525 0.165323
13 1 0.412605 0.0846171 0.0850705
11 1 0.490558 -0.00619069 0.174545
12 1 0.497582 0.163721 -0.00146062
17 1 0.656443 0.00646221 -0.00499658
18 1 0.660397 0.169215 0.170833
19 1 0.833782 0.00487171 0.16189
20 1 0.832957 0.165285 0.0098876
21 1 0.742349 0.0913659 0.082628
25 1 0.000841937 0.330525 0.00664577
27 1 0.169613 0.339909 0.164947
29 1 0.0896886 0.425817 0.0818547
8 1 0.254936 0.259789 0.079697
33 1 0.337369 0.336398 -0.00321793
37 1 0.41166 0.413545 0.0894945
16 1 0.579955 0.255901 0.0838958
35 1 0.494585 0.336066 0.170933
41 1 0.672879 0.326793 -0.00221855
24 1 0.91896 0.2528 0.0928322
43 1 0.832125 0.331278 0.167923
45 1 0.751288 0.417927 0.0833809
26 1 -0.000822214 0.495677 0.166847
28 1 0.168748 0.501173 -0.00572539
49 1 -0.00498064 0.664373 0.000455978
51 1 0.16041 0.66437 0.163691
32 1 0.249513 0.583754 0.0853476
34 1 0.334186 0.506074 0.166136
57 1 0.337897 0.662765 0.00175639
36 1 0.49801 0.493702 0.0069057
40 1 0.588931 0.578735 0.0814181
42 1 0.665992 0.499782 0.167543
59 1 0.502945 0.66458 0.160847
65 1 0.669882 0.668172 0.00765584
44 1 0.830312 0.496483 -0.00026832
48 1 0.912168 0.576329 0.082375
67 1 0.83131 0.66764 0.166754
50 1 0.00230561 0.833541 0.166957
52 1 0.170169 0.833445 0.00186405
53 1 0.0786052 0.7459 0.0795963
56 1 0.25449 0.912705 0.0847266
58 1 0.331024 0.822444 0.16342
61 1 0.423969 0.749718 0.0824324
60 1 0.500859 0.840992 -0.00466562
64 1 0.585903 0.920318 0.082962
66 1 0.671384 0.835946 0.175169
68 1 0.83454 0.839054 0.00164483
69 1 0.754717 0.755935 0.0828406
72 1 0.918914 0.918419 0.0809243
73 1 0.00549227 0.00126522 0.320998
76 1 0.174483 0.167583 0.336243
77 1 0.084008 0.0858412 0.409803
7 1 0.247506 0.0865255 0.244386
81 1 0.324274 -0.0015278 0.329261
85 1 0.413497 0.0814523 0.412197
15 1 0.577991 0.0831354 0.249341
84 1 0.496408 0.164719 0.332601
89 1 0.663223 0.000264568 0.333194
23 1 0.921828 0.0815372 0.241151
92 1 0.83891 0.157896 0.328062
93 1 0.755774 0.0859152 0.414065
6 1 0.0902322 0.255121 0.255342
97 1 -0.00514976 0.33261 0.336636
101 1 0.0835034 0.413716 0.41392
14 1 0.414958 0.248311 0.248827
31 1 0.250086 0.423577 0.254028
80 1 0.252547 0.253178 0.416863
105 1 0.337226 0.340208 0.333806
109 1 0.418218 0.418921 0.42697
39 1 0.581662 0.414687 0.247783
88 1 0.576101 0.256607 0.413769
113 1 0.66657 0.331643 0.333909
22 1 0.752118 0.245309 0.249911
47 1 0.918301 0.410778 0.247199
96 1 0.908456 0.249681 0.413682
117 1 0.757382 0.411753 0.415021
30 1 0.0791493 0.583185 0.250855
100 1 0.162686 0.502407 0.333426
121 1 -0.00364117 0.661372 0.335141
38 1 0.41848 0.592998 0.250296
104 1 0.246587 0.577953 0.413332
129 1 0.33058 0.666099 0.334302
108 1 0.496318 0.496754 0.329614
112 1 0.583658 0.583947 0.41339
137 1 0.665019 0.665524 0.325275
46 1 0.7521 0.582151 0.249367
116 1 0.838316 0.497859 0.335664
120 1 0.911012 0.588128 0.417344
54 1 0.0828153 0.910845 0.249299
124 1 0.165783 0.833998 0.337964
125 1 0.0808285 0.74568 0.417176
55 1 0.243456 0.745615 0.249197
62 1 0.405805 0.907473 0.247235
128 1 0.256075 0.910439 0.420917
133 1 0.418768 0.753094 0.416716
63 1 0.584812 0.746888 0.245653
132 1 0.501977 0.834714 0.329394
136 1 0.584407 0.917477 0.419027
70 1 0.754042 0.92487 0.253153
71 1 0.916009 0.747731 0.249213
140 1 0.829007 0.832438 0.330452
141 1 0.742238 0.747774 0.406468
144 1 0.911171 0.923042 0.406806
74 1 -0.00383999 0.168069 0.49246
75 1 0.166901 -0.00497413 0.491162
145 1 0.000347658 -2.095e-05 0.667986
148 1 0.17151 0.169946 0.669731
79 1 0.24132 0.0753117 0.581881
82 1 0.329337 0.160735 0.5061
153 1 0.32487 -0.00737191 0.664627
83 1 0.504532 0.00321336 0.501063
87 1 0.591075 0.0878356 0.583664
90 1 0.667185 0.173508 0.490404
156 1 0.499768 0.165719 0.665816
161 1 0.672672 -0.00251387 0.661362
91 1 0.838261 -0.00103881 0.504582
95 1 0.921126 0.0855769 0.584285
164 1 0.834906 0.162232 0.665287
78 1 0.0786306 0.246957 0.580123
99 1 0.168546 0.335415 0.499469
169 1 -0.00319115 0.33051 0.665124
86 1 0.41203 0.246455 0.583035
103 1 0.247474 0.415054 0.578771
177 1 0.330492 0.328241 0.666293
107 1 0.50365 0.337285 0.500605
111 1 0.582305 0.416177 0.58367
185 1 0.671611 0.337892 0.669069
94 1 0.749664 0.252383 0.584629
115 1 0.840844 0.336406 0.501651
119 1 0.916798 0.415566 0.582147
98 1 -5.26916e-05 0.507482 0.493779
102 1 0.0833985 0.586095 0.580285
123 1 0.168124 0.663674 0.497661
172 1 0.167457 0.505345 0.669829
193 1 -0.0097785 0.662739 0.663374
106 1 0.33288 0.508572 0.501699
110 1 0.419309 0.588609 0.583652
201 1 0.340213 0.669845 0.669739
114 1 0.667729 0.491886 0.495262
131 1 0.502628 0.666456 0.495346
180 1 0.50032 0.499996 0.66636
209 1 0.671407 0.665541 0.668384
118 1 0.755234 0.580194 0.579091
139 1 0.831957 0.675348 0.497489
188 1 0.838047 0.496758 0.671599
122 1 -0.00726364 0.837868 0.493021
126 1 0.0847114 0.917793 0.580385
196 1 0.159805 0.826481 0.666175
127 1 0.253437 0.746737 0.582562
130 1 0.340368 0.834786 0.509606
134 1 0.41995 0.924122 0.585649
135 1 0.583847 0.747692 0.577247
138 1 0.672807 0.833094 0.500096
204 1 0.493734 0.827116 0.66584
142 1 0.756782 0.912088 0.590615
143 1 0.913443 0.755172 0.587663
212 1 0.832804 0.829778 0.682007
146 1 0.00351591 0.16448 0.841653
147 1 0.164652 0.0013211 0.832014
149 1 0.0896905 0.0892592 0.751352
151 1 0.252891 0.0896364 0.914494
154 1 0.337067 0.169154 0.827539
157 1 0.411995 0.0803068 0.746872
155 1 0.498305 0.00331371 0.832103
159 1 0.579444 0.0906273 0.912332
162 1 0.669616 0.161561 0.834185
163 1 0.832119 0.00170885 0.840586
165 1 0.753911 0.0814259 0.750388
167 1 0.920071 0.085852 0.927756
150 1 0.0812329 0.251314 0.924181
171 1 0.16142 0.335295 0.838303
173 1 0.0788101 0.415826 0.750779
152 1 0.246527 0.255781 0.756021
158 1 0.414913 0.251365 0.918523
175 1 0.251143 0.413873 0.912699
181 1 0.416259 0.41307 0.746989
160 1 0.588802 0.252466 0.753456
179 1 0.501598 0.335376 0.832432
183 1 0.587468 0.415602 0.9186
166 1 0.755297 0.240175 0.915716
168 1 0.917091 0.245741 0.752079
187 1 0.836093 0.33004 0.83175
189 1 0.755872 0.418022 0.751842
191 1 0.913326 0.409332 0.917102
170 1 -0.00447023 0.492839 0.832587
174 1 0.0747993 0.581448 0.914956
195 1 0.158282 0.669608 0.835614
176 1 0.248326 0.590412 0.749341
178 1 0.328526 0.498401 0.827787
182 1 0.42158 0.576545 0.915581
184 1 0.586388 0.580348 0.744073
186 1 0.670126 0.501402 0.833587
203 1 0.503515 0.66497 0.831835
190 1 0.747819 0.584595 0.923964
192 1 0.913129 0.582824 0.756309
211 1 0.82921 0.666473 0.843341
194 1 0.00190858 0.837992 0.8379
197 1 0.0744169 0.743957 0.748729
198 1 0.0878443 0.91358 0.919196
199 1 0.249273 0.746896 0.915918
200 1 0.242301 0.910384 0.750591
202 1 0.330333 0.831982 0.836226
205 1 0.416485 0.744225 0.756528
206 1 0.415076 0.915011 0.91659
207 1 0.59232 0.752359 0.915025
208 1 0.582588 0.920349 0.744159
210 1 0.66911 0.840067 0.831004
213 1 0.747005 0.746552 0.757409
214 1 0.746255 0.917686 0.92206
215 1 0.919415 0.751441 0.91443
216 1 0.918811 0.919067 0.755299
ITEM: TIMESTEP
500
ITEM: NUMBER OF ATOMS
216
ITEM: BOX BOUNDS pp pp pp
-4.8826695687235855e-02 1.6341826695687221e+01
-4.8826695687235855e-02 1.6341826695687221e+01
-4.8826695687235855e-02 1.6341826695687221e+01
ITEM: ATOMS id type xs ys zs
1 1 -0.00302372 -0.00407368 -0.00189757
2 1 -0.0112292 0.164625 0.168278
3 1 0.165984 -0.000702271 0.165917
4 1 0.167814 0.166063 -0.00358804
5 1 0.079101 0.0788151 0.0819569
9 1 0.341947 -0.00170848 -0.00704357
10 1 0.331909 0.163029 0.174023
13 1 0.416688 0.0909328 0.0793609
11 1 0.503575 0.0104907 0.156761
12 1 0.503492 0.170247 -0.00554553
17 1 0.679295 0.00313919 0.000635058
18 1 0.670248 0.166009 0.167398
19 1 0.834881 0.00289072 0.17441
20 1 0.837769 0.173258 -0.00440188
21 1 0.754228 0.083339 0.0839932
25 1 0.00505032 0.331156 -0.000103466
27 1 0.165683 0.327881 0.166021
29 1 0.0807751 0.412432 0.0859491
8 1 0.249997 0.243364 0.0788958
33 1 0.332666 0.337319 0.00468552
37 1 0.418526 0.417525 0.0767992
16 1 0.581224 0.24859 0.0865882
35 1 0.496914 0.340511 0.163328
41 1 0.662702 0.337729 0.00486972
24 1 0.916915 0.248323 0.0795689
43 1 0.836422 0.336101 0.167028
45 1 0.748369 0.417354 0.091727
26 1 0.0010317 0.506378 0.177397
28 1 0.166828 0.500195 0.00463274
49 1 0.00187339 0.666971 0.00342743
51 1 0.170682 0.666411 0.166348
32 1 0.252877 0.582897 0.0836113
34 1 0.339066 0.493618 0.164643
57 1 0.325455 0.67275 -0.00473065
36 1 0.503039 0.508336 -0.00165417
40 1 0.577759 0.590002 0.0855457
42 1 0.662327 0.503497 0.166826
59 1 0.498205 0.671378 0.168808
65 1 0.664313 0.661116 -0.00659428
44 1 0.834615 0.499353 0.00214453
48 1 0.918553 0.585998 0.0856758
67 1 0.827509 0.670696 0.165474
50 1 -0.00258461 0.840599 0.165819
52 1 0.164392 0.833468 -0.00605559
53 1 0.0899706 0.755283 0.0865858
56 1 0.246285 0.914906 0.0802506
58 1 0.336692 0.844247 0.159145
61 1 0.407046 0.754037 0.0856683
60 1 0.490064 0.827372 -0.00239299
64 1 0.578133 0.917662 0.0780837
66 1 0.656133 0.830891 0.162373
68 1 0.827278 0.828653 -0.00164152
69 1 0.741361 0.747126 0.0826797
72 1 0.913552 0.918004 0.0878038
73 1 -0.000641821 0.00444283 0.339501
76 1 0.164326 0.163989 0.334567
77 1 0.086125 0.0782432 0.422376
7 1 0.248742 0.083029 0.249621
81 1 0.331899 -0.00113829 0.336519
85 1 0.418172 0.0837542 0.4176
15 1 0.582124 0.0884911 0.25034
84 1 0.500613 0.174649 0.333187
89 1 0.661214 0.00145219 0.328983
23 1 0.916102 0.0861408 0.265373
92 1 0.832535 0.177589 0.339845
93 1 0.74706 0.0789485 0.412001
6 1 0.0773116 0.245949 0.251281
97 1 0.00112919 0.33785 0.33495
101 1 0.0853207 0.425706 0.419304
14 1 0.417568 0.253668 0.251326
31 1 0.245507 0.421042 0.249547
80 1 0.244959 0.248337 0.421774
105 1 0.33249 0.328859 0.331924
109 1 0.420435 0.414935 0.418515
39 1 0.580974 0.420336 0.24816
88 1 0.583914 0.241885 0.419527
113 1 0.663554 0.331442 0.340068
22 1 0.746646 0.252231 0.255527
47 1 0.914429 0.423024 0.258519
96 1 0.925788 0.25126 0.421784
117 1 0.749256 0.420097 0.42527
30 1 0.0851004 0.586703 0.252551
100 1 0.166586 0.505984 0.336226
121 1 -0.0038288 0.66262 0.332291
38 1 0.416843 0.580699 0.244196
104 1 0.245631 0.582029 0.421153
129 1 0.328518 0.661177 0.334294
108 1 0.499546 0.503669 0.34024
112 1 0.585851 0.591408 0.420828
137 1 0.666969 0.67825 0.336892
46 1 0.73775 0.5884 0.256538
116 1 0.82947 0.504041 0.333965
120 1 0.917257 0.581892 0.415047
54 1 0.0780209 0.92362 0.250632
124 1 0.161475 0.831647 0.322867
125 1 0.0814085 0.750032 0.413126
55 1 0.254953 0.756294 0.241867
62 1 0.420568 0.920629 0.245407
128 1 0.244074 0.92056 0.410697
133 1 0.413594 0.745609 0.417712
63 1 0.579874 0.74855 0.251529
132 1 0.493523 0.835141 0.329573
136 1 0.578724 0.915213 0.409868
70 1 0.743116 0.913839 0.249401
71 1 0.911567 0.755356 0.254378
140 1 0.827074 0.834332 0.334237
141 1 0.753356 0.755014 0.422398
144 1 0.916469 0.911463 0.418294
74 1 0.00652798 0.163255 0.505444
75 1 0.172143 0.00116991 0.50489
145 1 0.000371134 -0.00255337 0.670609
148 1 0.176846 0.156857 0.663727
79 1 0.259738 0.0814351 0.582526
82 1 0.335379 0.172162 0.494325
153 1 0.345232 -0.000969235 0.658517
83 1 0.494131 -0.00952332 0.497829
87 1 0.575747 0.0699968 0.586214
90 1 0.662523 0.158083 0.506525
156 1 0.501179 0.166308 0.663614
161 1 0.669128 0.0039781 0.669937
91 1 0.831668 0.00073043 0.500435
95 1 0.921321 0.0801768 0.58332
164 1 0.843304 0.165075 0.673881
78 1 0.0929968 0.248223 0.587323
99 1 0.169341 0.337087 0.494765
169 1 0.00398043 0.334747 0.672908
86 1 0.426153 0.257276 0.574801
103 1 0.25519 0.416246 0.586694
177 1 0.340512 0.336772 0.662499
107 1 0.501239 0.330073 0.499815
111 1 0.581755 0.411801 0.587879
185 1 0.667864 0.331357 0.664875
94 1 0.761768 0.241437 0.584535
115 1 0.832445 0.328355 0.49747
119 1 0.913096 0.413855 0.587857
98 1 -0.00937851 0.492129 0.505631
102 1 0.071705 0.582576 0.587116
123 1 0.158122 0.663437 0.499347
172 1 0.158252 0.496058 0.66619
193 1 0.00117867 0.667936 0.673475
106 1 0.331173 0.500311 0.495017
110 1 0.412581 0.579462 0.585238
201 1 0.330076 0.663952 0.661472
114 1 0.661901 0.501103 0.507314
131 1 0.495854 0.665836 0.510073
180 1 0.506312 0.501778 0.659093
209 1 0.663762 0.674594 0.674238
118 1 0.750027 0.58517 0.592148
139 1 0.831643 0.665368 0.496242
188 1 0.827338 0.493232 0.671146
122 1 0.0011372 0.822934 0.507207
126 1 0.0842443 0.912339 0.585752
196 1 0.170554 0.834925 0.669513
127 1 0.242134 0.745511 0.583425
130 1 0.322458 0.831118 0.490697
134 1 0.407473 0.903756 0.574246
135 1 0.585569 0.750929 0.58351
138 1 0.660669 0.836944 0.497748
204 1 0.495643 0.83538 0.66453
142 1 0.745011 0.920765 0.577642
143 1 0.912138 0.742206 0.583751
212 1 0.827978 0.842463 0.657722
146 1 0.0074386 0.166445 0.829349
147 1 0.167892 -0.0118474 0.831318
149 1 0.0866226 0.0744067 0.748785
151 1 0.250613 0.0810611 0.912484
154 1 0.336378 0.167464 0.829277
157 1 0.420081 0.0822156 0.745151
155 1 0.511499 0.0010774 0.840642
159 1 0.589214 0.0815636 0.916
162 1 0.670778 0.16558 0.84191
163 1 0.836312 -0.000924791 0.833001
165 1 0.747069 0.0880299 0.757671
167 1 0.916357 0.0883763 0.914036
150 1 0.0921204 0.246201 0.90879
171 1 0.176167 0.326968 0.830976
173 1 0.087428 0.412692 0.757112
152 1 0.263377 0.248447 0.743477
158 1 0.413031 0.253397 0.911073
175 1 0.250589 0.417359 0.923271
181 1 0.423438 0.420277 0.746593
160 1 0.586313 0.240686 0.749507
179 1 0.498528 0.329219 0.832478
183 1 0.582301 0.415153 0.915556
166 1 0.750889 0.253883 0.919504
168 1 0.918853 0.250208 0.759041
187 1 0.833463 0.334036 0.842561
189 1 0.750231 0.407353 0.753871
191 1 0.921669 0.421641 0.92236
170 1 -0.000313648 0.502322 0.838933
174 1 0.0895462 0.582352 0.923542
195 1 0.16944 0.66112 0.826991
176 1 0.253924 0.580407 0.748277
178 1 0.337701 0.498221 0.833116
182 1 0.414954 0.59069 0.908507
184 1 0.583835 0.582659 0.753921
186 1 0.674771 0.497412 0.828781
203 1 0.502413 0.673986 0.823897
190 1 0.751038 0.579232 0.915518
192 1 0.912993 0.579461 0.750251
211 1 0.833958 0.669419 0.823683
194 1 0.00015868 0.827555 0.831337
197 1 0.0835442 0.752938 0.754521
198 1 0.0790513 0.917962 0.911914
199 1 0.250344 0.756259 0.907744
200 1 0.265401 0.918559 0.742642
202 1 0.3392 0.830843 0.822368
205 1 0.411994 0.75065 0.732742
206 1 0.412939 0.915586 0.908122
207 1 0.581525 0.747718 0.91625
208 1 0.593963 0.916056 0.756683
210 1 0.676104 0.829374 0.830721
213 1 0.757472 0.759808 0.742558
214 1 0.753613 0.917854 0.915832
215 1 0.911006 0.750097 0.918006
216 1 0.912226 0.908003 0.745568
ITEM: TIMESTEP
600
ITEM: NUMBER OF ATOMS
216
ITEM: BOX BOUNDS pp pp pp
-9.2866431834076835e-02 1.6385866431834081e+01
-9.2866431834076835e-02 1.6385866431834081e+01
-9.2866431834076835e-02 1.6385866431834081e+01
ITEM: ATOMS id type xs ys zs
1 1 0.000625968 -0.00093657 -0.0027748
2 1 -0.00321861 0.166359 0.169125
3 1 0.160487 0.000545749 0.169018
4 1 0.162711 0.169394 0.000182994
5 1 0.0807328 0.0846471 0.0841931
9 1 0.329607 -0.00061505 0.00954456
10 1 0.337532 0.167909 0.159684
13 1 0.42001 0.0769845 0.0882098
11 1 0.502345 -0.00342869 0.172787
12 1 0.510531 0.163093 0.00391973
17 1 0.662602 -0.00064821 -0.00268607
18 1 0.669482 0.166807 0.168392
19 1 0.831196 -0.00404674 0.165046
20 1 0.832154 0.166242 0.00201978
21 1 0.750999 0.0852253 0.0818052
25 1 -0.00741739 0.332995 -0.000737876
27 1 0.165137 0.331452 0.164592
29 1 0.0834781 0.420723 0.0776663
8 1 0.252408 0.251458 0.083798
33 1 0.338291 0.327869 -0.00179058
37 1 0.410155 0.412026 0.0921354
16 1 0.592332 0.257361 0.0864952
35 1 0.499784 0.329879 0.165275
41 1 0.678041 0.337508 -0.00277734
24 1 0.913402 0.249653 0.0824313
43 1 0.83554 0.336026 0.165945
45 1 0.751488 0.425979 0.0805561
26 1 -0.000187858 0.49992 0.161324
28 1 0.172316 0.500364 -0.00266313
49 1 0.00495261 0.666385 -0.00298555
51 1 0.155034 0.665201 0.171076
32 1 0.243 0.586803 0.0804284
34 1 0.324282 0.500349 0.158393
57 1 0.33957 0.668825 0.00737534
36 1 0.491462 0.488179 0.0115589
40 1 0.583824 0.585377 0.0849524
42 1 0.667473 0.505511 0.163185
59 1 0.499547 0.669691 0.159914
65 1 0.661144 0.671628 0.00791737
44 1 0.834272 0.501969 -0.000944356
48 1 0.916115 0.583809 0.0836485
67 1 0.833927 0.662875 0.172869
50 1 0.00180112 0.828286 0.168248
52 1 0.163269 0.837325 -0.000200619
53 1 0.0816488 0.752998 0.0808214
56 1 0.24608 0.917914 0.0898155
58 1 0.329206 0.829286 0.165478
61 1 0.418459 0.75123 0.0854352
60 1 0.502431 0.833073 0.00386585
64 1 0.593106 0.915724 0.0894155
66 1 0.672088 0.827854 0.174388
68 1 0.835046 0.838193 0.00135522
69 1 0.750444 0.752262 0.0810376
72 1 0.918669 0.914302 0.0788569
73 1 -0.000600115 -0.000948021 0.331542
76 1 0.166479 0.167545 0.336463
77 1 0.0757373 0.0841237 0.414232
7 1 0.246055 0.0848254 0.247601
81 1 0.332051 0.0047226 0.323083
85 1 0.419631 0.0882154 0.408732
15 1 0.592097 0.0815585 0.24963
84 1 0.510066 0.164349 0.326406
89 1 0.671246 -0.00130413 0.335867
23 1 0.916804 0.0843101 0.243407
92 1 0.837719 0.161002 0.32748
93 1 0.749407 0.0822129 0.419315
6 1 0.0795012 0.249899 0.251932
97 1 -0.00628299 0.32832 0.337638
101 1 0.0795064 0.40978 0.413399
14 1 0.427131 0.242986 0.244299
31 1 0.250466 0.418292 0.247811
80 1 0.253394 0.246385 0.413866
105 1 0.333847 0.326618 0.333641
109 1 0.414992 0.411011 0.417938
39 1 0.589363 0.420131 0.251276
88 1 0.574708 0.256725 0.413622
113 1 0.671923 0.334978 0.332114
22 1 0.758046 0.250934 0.244349
47 1 0.919528 0.419848 0.247727
96 1 0.905093 0.245736 0.420963
117 1 0.755013 0.414616 0.41306
30 1 0.0831918 0.578368 0.251397
100 1 0.15934 0.497859 0.33152
121 1 0.00288944 0.666171 0.331336
38 1 0.412343 0.580848 0.242662
104 1 0.247699 0.577066 0.409704
129 1 0.325881 0.669484 0.3309
108 1 0.496494 0.501069 0.325526
112 1 0.581068 0.577727 0.409048
137 1 0.660529 0.664451 0.333914
46 1 0.751189 0.575607 0.252084
116 1 0.83818 0.501789 0.336553
120 1 0.920067 0.580414 0.423834
54 1 0.0827826 0.918011 0.251684
124 1 0.167725 0.838252 0.341817
125 1 0.0801785 0.745888 0.417109
55 1 0.244264 0.753633 0.244915
62 1 0.408228 0.915288 0.246622
128 1 0.252233 0.919913 0.421021
133 1 0.419462 0.760535 0.412651
63 1 0.579672 0.74904 0.247546
132 1 0.507641 0.835377 0.329382
136 1 0.588896 0.922884 0.417522
70 1 0.753428 0.910894 0.255523
71 1 0.919986 0.751659 0.253037
140 1 0.830268 0.827331 0.342632
141 1 0.746307 0.746471 0.41639
144 1 0.917289 0.921417 0.414504
74 1 -0.00726799 0.166078 0.497182
75 1 0.164312 0.00547328 0.496966
145 1 0.00380632 0.00663801 0.658316
148 1 0.163538 0.16891 0.668922
79 1 0.248362 0.0856329 0.583414
82 1 0.331376 0.16493 0.502122
153 1 0.322408 0.00057964 0.668296
83 1 0.502724 0.00704279 0.501259
87 1 0.585532 0.0927381 0.580242
90 1 0.666657 0.173536 0.492815
156 1 0.501498 0.169251 0.664682
161 1 0.666915 -0.00136608 0.658469
91 1 0.828608 -0.00173288 0.507054
95 1 0.913988 0.0852485 0.584853
164 1 0.828371 0.1637 0.666511
78 1 0.0785014 0.251631 0.580466
99 1 0.16392 0.325591 0.499271
169 1 -0.00477603 0.336056 0.668271
86 1 0.414061 0.248861 0.587177
103 1 0.25337 0.411993 0.57964
177 1 0.333517 0.326275 0.675203
107 1 0.502278 0.33238 0.505725
111 1 0.577558 0.417366 0.578325
185 1 0.664103 0.347137 0.671089
94 1 0.742387 0.262112 0.586103
115 1 0.832146 0.337253 0.506322
119 1 0.919704 0.422787 0.583101
98 1 0.00859822 0.498853 0.498266
102 1 0.0946708 0.576942 0.575072
123 1 0.176024 0.664146 0.491372
172 1 0.177367 0.496897 0.665331
193 1 0.00938087 0.664198 0.664192
106 1 0.334958 0.501323 0.49931
110 1 0.418755 0.581441 0.583541
201 1 0.337805 0.664877 0.671075
114 1 0.665887 0.499394 0.502109
131 1 0.498457 0.664253 0.492625
180 1 0.4958 0.496461 0.666534
209 1 0.666087 0.661083 0.663651
118 1 0.755642 0.582529 0.581776
139 1 0.834204 0.669812 0.498151
188 1 0.842367 0.501968 0.66942
122 1 -0.00053852 0.83868 0.496808
126 1 0.0845653 0.92348 0.577872
196 1 0.162366 0.826682 0.665631
127 1 0.261437 0.747165 0.582277
130 1 0.342358 0.842394 0.505467
134 1 0.420625 0.93107 0.589874
135 1 0.583226 0.748978 0.577286
138 1 0.673447 0.832332 0.495637
204 1 0.498854 0.827809 0.660966
142 1 0.754002 0.90526 0.591398
143 1 0.920693 0.753237 0.588351
212 1 0.834864 0.823687 0.672596
146 1 -0.0041513 0.168545 0.834015
147 1 0.163189 0.00733845 0.831887
149 1 0.0748617 0.0919827 0.749191
151 1 0.248501 0.0860372 0.919484
154 1 0.335224 0.169773 0.838816
157 1 0.41322 0.0810547 0.751813
155 1 0.492298 -0.00232971 0.834437
159 1 0.591358 0.082932 0.91694
162 1 0.665916 0.170394 0.831372
163 1 0.830464 -0.00459051 0.82754
165 1 0.743267 0.0817408 0.744859
167 1 0.917013 0.0808949 0.91654
150 1 0.0759706 0.254556 0.920945
171 1 0.161785 0.331885 0.836962
173 1 0.087005 0.417488 0.750754
152 1 0.24087 0.245147 0.757553
158 1 0.426107 0.243084 0.926011
175 1 0.247814 0.417432 0.916005
181 1 0.41025 0.41734 0.749445
160 1 0.585474 0.254271 0.755605
179 1 0.497237 0.332355 0.837397
183 1 0.58319 0.425631 0.914687
166 1 0.754519 0.250419 0.913549
168 1 0.915501 0.248694 0.74742
187 1 0.835073 0.334449 0.826826
189 1 0.752412 0.425468 0.752334
191 1 0.915143 0.415394 0.916258
170 1 0.00712034 0.499601 0.831327
174 1 0.0856571 0.577961 0.914185
195 1 0.163082 0.673185 0.840107
176 1 0.252085 0.587766 0.749126
178 1 0.327331 0.499145 0.833502
182 1 0.41614 0.576719 0.923969
184 1 0.579549 0.579231 0.748746
186 1 0.663877 0.502515 0.834042
203 1 0.492735 0.662987 0.836249
190 1 0.746407 0.585762 0.918377
192 1 0.926703 0.584269 0.746727
211 1 0.832013 0.66379 0.838227
194 1 0.00488394 0.835932 0.830486
197 1 0.0829728 0.747979 0.74696
198 1 0.0842154 0.916243 0.916445
199 1 0.249593 0.751906 0.92568
200 1 0.2427 0.911846 0.756184
202 1 0.333091 0.83501 0.840967
205 1 0.410365 0.750949 0.760652
206 1 0.424223 0.91244 0.916181
207 1 0.582091 0.748943 0.915438
208 1 0.575915 0.917342 0.74462
210 1 0.665325 0.826245 0.834698
213 1 0.748842 0.742079 0.750854
214 1 0.745503 0.914163 0.914564
215 1 0.923408 0.750934 0.913676
216 1 0.925594 0.916509 0.746136
ITEM: TIMESTEP
700
ITEM: NUMBER OF ATOMS
216
ITEM: BOX BOUNDS pp pp pp
-4.5425475427453677e-02 1.6338425475427481e+01
-4.5425475427453677e-02 1.6338425475427481e+01
-4.5425475427453677e-02 1.6338425475427481e+01
ITEM: ATOMS id type xs ys zs
1 1 0.000111297 0.000491482 0.00253844
2 1 0.00140863 0.166404 0.158575
3 1 0.172483 -0.00129079 0.165655
4 1 0.161824 0.165392 0.00118115
5 1 0.0841005 0.0809554 0.0867942
9 1 0.330503 0.00235459 0.00120464
10 1 0.332183 0.167815 0.173045
13 1 0.415 0.0912679 0.0875052
11 1 0.499393 -0.000536809 0.172747
12 1 0.48441 0.163845 -0.00851772
17 1 0.664019 -0.00430429 -0.00585506
18 1 0.662698 0.157936 0.166992
19 1 0.840254 0.00452525 0.162665
20 1 0.828488 0.168575 -0.000969533
21 1 0.743984 0.0795223 0.0767412
25 1 0.00217478 0.332614 -0.00445339
27 1 0.166701 0.336025 0.164692
29 1 0.0804674 0.419461 0.0818126
8 1 0.250856 0.245192 0.0850516
33 1 0.331953 0.34069 0.00655604
37 1 0.422149 0.418464 0.0826907
16 1 0.573144 0.232805 0.079509
35 1 0.496471 0.329807 0.162833
41 1 0.661607 0.324138 0.00136598
24 1 0.919697 0.250463 0.0824022
43 1 0.827807 0.325806 0.159773
45 1 0.750927 0.408826 0.0813751
26 1 0.00213789 0.500839 0.169971
28 1 0.157171 0.503527 -0.00128074
49 1 -0.000993101 0.666656 0.000203416
51 1 0.17354 0.664259 0.164316
32 1 0.255149 0.570543 0.0890476
34 1 0.345641 0.495152 0.169679
57 1 0.331081 0.660776 0.00527996
36 1 0.507914 0.509889 -0.00335419
40 1 0.592427 0.579377 0.0848186
42 1 0.673297 0.492566 0.165321
59 1 0.507381 0.665696 0.169795
65 1 0.671988 0.663103 -0.00301339
44 1 0.829014 0.496013 -0.000955979
48 1 0.919897 0.574324 0.077371
67 1 0.841824 0.665948 0.15983
50 1 0.00169842 0.836512 0.163385
52 1 0.169543 0.833648 0.00630602
53 1 0.0815332 0.746246 0.085731
56 1 0.254636 0.911634 0.0869575
58 1 0.342592 0.832025 0.172854
61 1 0.415226 0.745379 0.0908295
60 1 0.494873 0.830543 -0.00246963
64 1 0.581319 0.913387 0.0768323
66 1 0.669568 0.835883 0.167245
68 1 0.834471 0.833659 -0.00240206
69 1 0.75284 0.751537 0.0834648
72 1 0.918155 0.914447 0.0807711
73 1 0.000781818 0.00120119 0.331627
76 1 0.168682 0.166072 0.331237
77 1 0.0878571 0.0850915 0.416467
7 1 0.252713 0.0796914 0.252513
81 1 0.337229 -0.0036838 0.341888
85 1 0.417551 0.08147 0.427926
15 1 0.577123 0.0824326 0.255803
84 1 0.495621 0.164035 0.337642
89 1 0.660183 0.000792161 0.333312
23 1 0.920622 0.0837479 0.252076
92 1 0.830035 0.167765 0.333782
93 1 0.749541 0.0863225 0.414275
6 1 0.0870031 0.243994 0.243599
97 1 0.00917761 0.3407 0.327427
101 1 0.0905638 0.425433 0.418114
14 1 0.411239 0.248064 0.252516
31 1 0.24863 0.417055 0.251297
80 1 0.247497 0.248639 0.416761
105 1 0.331669 0.335254 0.332574
109 1 0.420549 0.41835 0.41869
39 1 0.578982 0.412541 0.241681
88 1 0.584523 0.248842 0.420836
113 1 0.661774 0.330653 0.332818
22 1 0.741795 0.244239 0.248588
47 1 0.912993 0.408191 0.24395
96 1 0.923368 0.254652 0.407645
117 1 0.748299 0.420881 0.412291
30 1 0.0877319 0.583947 0.251969
100 1 0.175028 0.506592 0.335742
121 1 0.0116025 0.666422 0.334368
38 1 0.42422 0.585267 0.256364
104 1 0.248452 0.584871 0.423378
129 1 0.339489 0.663331 0.34217
108 1 0.511386 0.494414 0.338317
112 1 0.584641 0.589363 0.419631
137 1 0.67796 0.667624 0.334488
46 1 0.759671 0.580593 0.239128
116 1 0.833243 0.495688 0.327135
120 1 0.919505 0.581951 0.41043
54 1 0.0835406 0.916292 0.246879
124 1 0.167782 0.832159 0.328258
125 1 0.0955494 0.751858 0.420316
55 1 0.2574 0.747036 0.256609
62 1 0.424794 0.912829 0.257226
128 1 0.250218 0.915248 0.418979
133 1 0.419112 0.744981 0.426025
63 1 0.591601 0.750785 0.252271
132 1 0.503426 0.828491 0.338999
136 1 0.586156 0.907339 0.424503
70 1 0.748516 0.923774 0.250094
71 1 0.923909 0.744336 0.248178
140 1 0.838038 0.832385 0.328088
141 1 0.750747 0.7513 0.41792
144 1 0.917734 0.910021 0.417447
74 1 -0.000503413 0.166617 0.495494
75 1 0.162079 -0.00384122 0.502282
145 1 -0.00737982 -0.00228269 0.671918
148 1 0.162927 0.163938 0.670335
79 1 0.241191 0.0803086 0.585819
82 1 0.326211 0.167597 0.50662
153 1 0.34317 0.0052921 0.661228
83 1 0.505334 -0.006562 0.509381
87 1 0.583647 0.0805543 0.592004
90 1 0.66165 0.162615 0.507694
156 1 0.494943 0.168767 0.668689
161 1 0.668694 0.00272829 0.669518
91 1 0.840228 -0.000863777 0.498529
95 1 0.920837 0.0821211 0.584797
164 1 0.836114 0.170284 0.663843
78 1 0.0799138 0.241983 0.584129
99 1 0.168715 0.335525 0.496161
169 1 -0.0045214 0.332146 0.656897
86 1 0.415015 0.250533 0.577894
103 1 0.242814 0.422848 0.582979
177 1 0.332792 0.335398 0.664014
107 1 0.506514 0.338566 0.494143
111 1 0.578687 0.419226 0.584605
185 1 0.66151 0.331507 0.662487
94 1 0.751735 0.248541 0.578659
115 1 0.841367 0.340585 0.488039
119 1 0.915138 0.418285 0.575564
98 1 0.00159732 0.502224 0.498784
102 1 0.0825945 0.592122 0.586198
123 1 0.169572 0.668556 0.507137
172 1 0.162208 0.507698 0.670841
193 1 -0.00254263 0.674925 0.669768
106 1 0.331635 0.503319 0.501688
110 1 0.412606 0.586361 0.58601
201 1 0.335544 0.670686 0.665684
114 1 0.66136 0.496236 0.493816
131 1 0.501041 0.663274 0.504685
180 1 0.498074 0.503952 0.66817
209 1 0.667931 0.668171 0.671501
118 1 0.742377 0.585334 0.581389
139 1 0.832068 0.665821 0.500546
188 1 0.825755 0.498145 0.657905
122 1 0.00547722 0.834744 0.503765
126 1 0.0781766 0.922633 0.590419
196 1 0.167391 0.848032 0.670745
127 1 0.247853 0.758481 0.585496
130 1 0.333191 0.831232 0.499862
134 1 0.415906 0.911589 0.581805
135 1 0.579845 0.750091 0.590446
138 1 0.667845 0.827442 0.505857
204 1 0.493474 0.84065 0.672784
142 1 0.743577 0.920654 0.57747
143 1 0.915813 0.752096 0.584894
212 1 0.829599 0.83579 0.656154
146 1 -0.00117128 0.168035 0.830421
147 1 0.161233 -0.00188302 0.839046
149 1 0.0831871 0.0793823 0.749061
151 1 0.248927 0.0860682 0.916572
154 1 0.327591 0.167258 0.830507
157 1 0.418843 0.0851329 0.756784
155 1 0.500383 0.00238626 0.835709
159 1 0.575016 0.0842624 0.91727
162 1 0.661284 0.16156 0.831223
163 1 0.82707 0.00520252 0.837879
165 1 0.752246 0.0901947 0.749398
167 1 0.917313 0.0898285 0.920134
150 1 0.0797375 0.247753 0.909335
171 1 0.162025 0.338061 0.83286
173 1 0.077976 0.417037 0.747124
152 1 0.246158 0.255417 0.747567
158 1 0.40158 0.254659 0.914826
175 1 0.242772 0.415218 0.916723
181 1 0.422228 0.415926 0.7506
160 1 0.582005 0.250073 0.745964
179 1 0.500701 0.335116 0.83075
183 1 0.586227 0.413126 0.917435
166 1 0.742699 0.241478 0.911588
168 1 0.913092 0.251762 0.749588
187 1 0.827041 0.33862 0.830492
189 1 0.741334 0.421239 0.744244
191 1 0.917938 0.417419 0.910682
170 1 -0.00429327 0.504568 0.826521
174 1 0.0787433 0.589042 0.91463
195 1 0.162939 0.663289 0.823315
176 1 0.255894 0.5787 0.746274
178 1 0.334946 0.49565 0.834912
182 1 0.417325 0.588345 0.915388
184 1 0.585694 0.584276 0.752586
186 1 0.665004 0.501603 0.8312
203 1 0.506756 0.67485 0.83679
190 1 0.748732 0.58069 0.91365
192 1 0.911592 0.584746 0.744342
211 1 0.832114 0.6717 0.823239
194 1 0.00654568 0.833952 0.833307
197 1 0.0849185 0.755338 0.750812
198 1 0.0788521 0.911065 0.92468
199 1 0.248917 0.751343 0.912241
200 1 0.258811 0.927228 0.751257
202 1 0.335168 0.833856 0.833368
205 1 0.417582 0.746991 0.752801
206 1 0.413339 0.915312 0.915449
207 1 0.587349 0.751318 0.926504
208 1 0.581644 0.920285 0.753948
210 1 0.666285 0.835716 0.836515
213 1 0.747448 0.757331 0.744175
214 1 0.748606 0.911084 0.925441
215 1 0.91873 0.753104 0.912671
216 1 0.909941 0.913478 0.749973
ITEM: TIMESTEP
800
ITEM: NUMBER OF ATOMS
216
ITEM: BOX BOUNDS pp pp pp
-8.6349461940494976e-02 1.6379349461940510e+01
-8.6349461940494976e-02 1.6379349461940510e+01
-8.6349461940494976e-02 1.6379349461940510e+01
ITEM: ATOMS id type xs ys zs
1 1 0.00547414 -0.00263004 0.00493239
2 1 0.00322071 0.166184 0.168127
3 1 0.165083 0.000316313 0.165896
4 1 0.167313 0.16823 -0.000808179
5 1 0.0851202 0.0825692 0.0835341
9 1 0.332322 -0.00733912 -0.00463833
10 1 0.330864 0.165969 0.169012
13 1 0.412637 0.0861358 0.0804624
11 1 0.495767 0.00312598 0.168419
12 1 0.504506 0.165772 0.00509564
17 1 0.668891 0.00683869 0.00295691
18 1 0.664027 0.171575 0.171304
19 1 0.830692 -0.00670483 0.16738
20 1 0.834925 0.16419 0.00254444
21 1 0.745983 0.0834431 0.0914684
25 1 0.000514727 0.331091 0.00459136
27 1 0.170359 0.335567 0.171764
29 1 0.0886204 0.410818 0.0820899
8 1 0.255731 0.253147 0.0830968
33 1 0.33075 0.332544 -0.00687991
37 1 0.411631 0.411306 0.0816633
16 1 0.580395 0.25912 0.0863925
35 1 0.49573 0.340901 0.177586
41 1 0.666438 0.342773 -0.000383951
24 1 0.915155 0.245813 0.085559
43 1 0.838354 0.338519 0.16516
45 1 0.752739 0.419605 0.0890131
26 1 0.00295986 0.501963 0.160982
28 1 0.17596 0.497574 -0.00144278
49 1 0.000602781 0.662359 0.00275575
51 1 0.168207 0.6695 0.166179
32 1 0.251715 0.59088 0.0765687
34 1 0.326889 0.502475 0.163513
57 1 0.34273 0.668419 -0.00132566
36 1 0.496727 0.488358 0.00282302
40 1 0.57983 0.58163 0.0775191
42 1 0.663747 0.49645 0.166682
59 1 0.501203 0.662905 0.165767
65 1 0.663087 0.664488 -0.00700513
44 1 0.833632 0.501575 0.00356355
48 1 0.916399 0.592096 0.0843399
67 1 0.829061 0.66717 0.166651
50 1 0.00111794 0.832998 0.164686
52 1 0.162166 0.833823 -0.00256469
53 1 0.085062 0.751808 0.0792027
56 1 0.24585 0.914357 0.0832634
58 1 0.330175 0.835438 0.161788
61 1 0.425295 0.756385 0.0806615
60 1 0.507616 0.832187 0.000912491
64 1 0.584628 0.920596 0.0885048
66 1 0.66338 0.827591 0.16246
68 1 0.831892 0.837587 0.00406088
69 1 0.752357 0.747401 0.081053
72 1 0.920721 0.916908 0.0869236
73 1 0.00449353 -0.00243824 0.33282
76 1 0.166142 0.167216 0.336399
77 1 0.0871067 0.0841443 0.420056
7 1 0.248129 0.0901539 0.249288
81 1 0.328826 -0.00708684 0.330676
85 1 0.412372 0.0822209 0.412098
15 1 0.586476 0.0830087 0.245112
84 1 0.503373 0.16773 0.329463
89 1 0.665756 0.000979841 0.326967
23 1 0.918267 0.0853338 0.246776
92 1 0.83621 0.166701 0.329182
93 1 0.749236 0.0814274 0.412421
6 1 0.0824158 0.248755 0.253513
97 1 -0.00602558 0.326617 0.335055
101 1 0.0826148 0.418033 0.414551
14 1 0.412552 0.250294 0.250814
31 1 0.252896 0.424731 0.251817
80 1 0.248455 0.25293 0.418379
105 1 0.335907 0.333467 0.33451
109 1 0.416871 0.419292 0.418279
39 1 0.588613 0.418563 0.255301
88 1 0.583609 0.245763 0.416327
113 1 0.668143 0.330181 0.333828
22 1 0.757233 0.252667 0.250292
47 1 0.917282 0.422081 0.247754
96 1 0.912522 0.243655 0.420943
117 1 0.75398 0.411181 0.419713
30 1 0.0807378 0.580548 0.248178
100 1 0.167061 0.496586 0.336584
121 1 -0.00781641 0.66729 0.326084
38 1 0.412949 0.580283 0.246141
104 1 0.249714 0.588786 0.415324
129 1 0.336453 0.667284 0.335876
108 1 0.49886 0.502281 0.336697
112 1 0.586131 0.580919 0.421801
137 1 0.663701 0.663102 0.333009
46 1 0.74333 0.582484 0.255887
116 1 0.8298 0.495665 0.33308
120 1 0.913887 0.586 0.409573
54 1 0.0896317 0.909759 0.250197
124 1 0.168854 0.828104 0.339707
125 1 0.0746895 0.747861 0.412866
55 1 0.252456 0.750212 0.252741
62 1 0.410847 0.911438 0.248976
128 1 0.252085 0.911629 0.423577
133 1 0.41782 0.75177 0.416914
63 1 0.579974 0.747689 0.251888
132 1 0.494393 0.83673 0.334377
136 1 0.581971 0.921986 0.41325
70 1 0.749703 0.910064 0.249659
71 1 0.913727 0.754895 0.243928
140 1 0.83533 0.834591 0.334192
141 1 0.75041 0.759162 0.415628
144 1 0.916342 0.924546 0.414941
74 1 0.00200453 0.167956 0.506616
75 1 0.171565 -0.00045101 0.503047
145 1 0.0104736 0.00494601 0.656345
148 1 0.165765 0.170257 0.65908
79 1 0.25089 0.0874976 0.583311
82 1 0.334431 0.170026 0.494201
153 1 0.330203 -0.00465544 0.67119
83 1 0.493813 -0.000902293 0.499191
87 1 0.582982 0.0810262 0.57484
90 1 0.666982 0.165858 0.493455
156 1 0.503014 0.159202 0.667912
161 1 0.661951 0.00308072 0.667209
91 1 0.831865 0.00250246 0.501232
95 1 0.917648 0.0854865 0.58332
164 1 0.8318 0.16039 0.667551
78 1 0.0844162 0.25658 0.584761
99 1 0.163924 0.338721 0.498989
169 1 -0.00187779 0.337218 0.668891
86 1 0.419751 0.252855 0.586616
103 1 0.25141 0.422976 0.584773
177 1 0.327138 0.338409 0.670645
107 1 0.497214 0.331058 0.502445
111 1 0.592584 0.413412 0.58123
185 1 0.667579 0.328998 0.667991
94 1 0.748643 0.238995 0.584973
115 1 0.83024 0.327692 0.502743
119 1 0.912412 0.413137 0.584231
98 1 -0.00676933 0.491589 0.502657
102 1 0.0777861 0.583108 0.582167
123 1 0.16089 0.665127 0.494164
172 1 0.162117 0.502582 0.664121
193 1 -0.00339064 0.666008 0.664608
106 1 0.336505 0.507031 0.499937
110 1 0.424752 0.586723 0.584821
201 1 0.331602 0.663421 0.670942
114 1 0.676796 0.500818 0.498924
131 1 0.501289 0.668541 0.498542
180 1 0.506632 0.496467 0.665585
209 1 0.670131 0.666659 0.666889
118 1 0.754324 0.581045 0.586188
139 1 0.835247 0.673757 0.499624
188 1 0.838548 0.498947 0.669155
122 1 -0.00370853 0.835284 0.50138
126 1 0.0856965 0.913171 0.579644
196 1 0.156764 0.819164 0.665226
127 1 0.246194 0.741643 0.579861
130 1 0.336979 0.830473 0.506144
134 1 0.41293 0.913448 0.587635
135 1 0.596412 0.75145 0.571139
138 1 0.672632 0.843844 0.494228
204 1 0.500398 0.833534 0.666892
142 1 0.752863 0.917958 0.587062
143 1 0.915969 0.753664 0.581076
212 1 0.834013 0.834618 0.67271
146 1 0.004829 0.168415 0.834661
147 1 0.164062 0.00398899 0.832257
149 1 0.0828587 0.0888767 0.74381
151 1 0.252119 0.0842146 0.914394
154 1 0.334685 0.165435 0.829826
157 1 0.412657 0.0845252 0.748402
155 1 0.499812 0.00479182 0.833125
159 1 0.580304 0.0835635 0.916936
162 1 0.662865 0.166287 0.835293
163 1 0.830655 -9.02468e-05 0.832802
165 1 0.742228 0.0888033 0.7475
167 1 0.919934 0.0821217 0.917697
150 1 0.0917953 0.254328 0.915431
171 1 0.167346 0.333061 0.830608
173 1 0.0848973 0.418669 0.748889
152 1 0.247255 0.246211 0.753465
158 1 0.423993 0.244236 0.91604
175 1 0.256627 0.417497 0.911353
181 1 0.411937 0.425034 0.750549
160 1 0.582464 0.249822 0.747361
179 1 0.495466 0.329831 0.826823
183 1 0.577501 0.418281 0.907121
166 1 0.751713 0.251068 0.920177
168 1 0.920643 0.242055 0.744833
187 1 0.835137 0.323629 0.831424
189 1 0.752425 0.410404 0.747826
191 1 0.915448 0.419848 0.920458
170 1 -0.000344116 0.500184 0.839384
174 1 0.0827409 0.577268 0.92028
195 1 0.160194 0.665293 0.836712
176 1 0.236724 0.58966 0.751984
178 1 0.329508 0.509865 0.828731
182 1 0.419563 0.578076 0.914825
184 1 0.587429 0.581709 0.748962
186 1 0.671836 0.495245 0.83101
203 1 0.502207 0.662724 0.830293
190 1 0.744878 0.575593 0.920167
192 1 0.918149 0.581709 0.752379
211 1 0.832368 0.663279 0.841566
194 1 -0.00458831 0.831558 0.839769
197 1 0.0708872 0.745047 0.7556
198 1 0.0827681 0.920001 0.912689
199 1 0.253603 0.749152 0.920272
200 1 0.24232 0.90575 0.753049
202 1 0.3385 0.833039 0.831349
205 1 0.41744 0.753336 0.746231
206 1 0.421271 0.917983 0.919183
207 1 0.580327 0.747564 0.911814
208 1 0.586047 0.923307 0.754349
210 1 0.666647 0.836057 0.836889
213 1 0.753074 0.7507 0.754132
214 1 0.748891 0.923145 0.923003
215 1 0.913251 0.75314 0.927279
216 1 0.927479 0.919297 0.743659
ITEM: TIMESTEP
900
ITEM: NUMBER OF ATOMS
216
ITEM: BOX BOUNDS pp pp pp
-5.7070961539936960e-02 1.6350070961539920e+01
-5.7070961539936960e-02 1.6350070961539920e+01
-5.7070961539936960e-02 1.6350070961539920e+01
ITEM: ATOMS id type xs ys zs
1 1 -0.00303078 -0.00144116 -0.00257866
2 1 -0.000146904 0.168347 0.169218
3 1 0.166601 0.00334967 0.164604
4 1 0.167437 0.162336 -0.000646221
5 1 0.0774387 0.0827222 0.0820552
9 1 0.336802 0.00674514 0.00301312
10 1 0.33667 0.168586 0.16532
13 1 0.420011 0.0830256 0.0834551
11 1 0.505631 0.00081845 0.164055
12 1 0.506515 0.167918 -0.00790301
17 1 0.668163 -0.000400341 -0.00108577
18 1 0.672642 0.161427 0.167087
19 1 0.83497 0.00451231 0.164516
20 1 0.84073 0.17572 0.00458265
21 1 0.760412 0.0886119 0.0785888
25 1 0.0034281 0.330133 0.00138243
27 1 0.165249 0.328557 0.16265
29 1 0.0805185 0.42493 0.0876769
8 1 0.24857 0.24574 0.0836696
33 1 0.335351 0.336509 0.00466822
37 1 0.419879 0.423395 0.0845351
16 1 0.591595 0.246594 0.0844003
35 1 0.503952 0.330626 0.157767
41 1 0.673296 0.334694 0.00111062
24 1 0.917938 0.257574 0.0911644
43 1 0.83056 0.333333 0.172967
45 1 0.750164 0.418783 0.0856671
26 1 -0.0113793 0.499091 0.170441
28 1 0.165372 0.503896 0.000698672
49 1 -0.00144713 0.671948 0.000525117
51 1 0.160433 0.666733 0.162981
32 1 0.251486 0.580682 0.0874602
34 1 0.332727 0.497953 0.169515
57 1 0.325233 0.664527 -0.00554153
36 1 0.495621 0.506644 -0.00668256
40 1 0.579991 0.586421 0.086659
42 1 0.665096 0.506691 0.167798
59 1 0.489822 0.673891 0.162743
65 1 0.666253 0.672329 0.0073549
44 1 0.830271 0.502187 0.000728149
48 1 0.911543 0.580068 0.0836318
67 1 0.836274 0.66671 0.171521
50 1 -0.00868772 0.83203 0.170441
52 1 0.166607 0.839122 0.000488429
53 1 0.0758672 0.756431 0.0847969
56 1 0.254434 0.923989 0.0810829
58 1 0.33266 0.836737 0.168743
61 1 0.403125 0.747232 0.0767333
60 1 0.489371 0.832119 -0.00619163
64 1 0.580218 0.915315 0.0731787
66 1 0.668988 0.840134 0.170905
68 1 0.833196 0.828461 9.60926e-05
69 1 0.749062 0.750894 0.0848336
72 1 0.90957 0.914996 0.0781616
73 1 -0.00448324 0.000119149 0.338805
76 1 0.170911 0.170461 0.33104
77 1 0.0822451 0.0817463 0.415291
7 1 0.247657 0.0822878 0.248751
81 1 0.334755 0.00706009 0.326618
85 1 0.422367 0.0846232 0.415595
15 1 0.584332 0.0863739 0.252099
84 1 0.500059 0.173043 0.327843
89 1 0.667935 0.00167484 0.339224
23 1 0.91098 0.0889398 0.250236
92 1 0.831675 0.168559 0.339382
93 1 0.747063 0.0830224 0.424358
6 1 0.0857456 0.250138 0.25108
97 1 0.00294332 0.334815 0.335322
101 1 0.0841008 0.413698 0.418171
14 1 0.419117 0.254545 0.243585
31 1 0.248263 0.409994 0.248967
80 1 0.25118 0.248931 0.41255
105 1 0.330903 0.33354 0.333081
109 1 0.412479 0.413576 0.412734
39 1 0.580546 0.419435 0.251416
88 1 0.58382 0.254328 0.415382
113 1 0.668309 0.339779 0.334623
22 1 0.749403 0.252394 0.251177
47 1 0.912857 0.415356 0.255812
96 1 0.915598 0.250505 0.420919
117 1 0.745805 0.421095 0.419328
30 1 0.0796355 0.585155 0.255563
100 1 0.164325 0.499354 0.326081
121 1 -0.000701799 0.6735 0.338749
38 1 0.408897 0.586414 0.254941
104 1 0.246519 0.576678 0.409718
129 1 0.323059 0.670649 0.330058
108 1 0.497101 0.504324 0.327999
112 1 0.581627 0.582462 0.413858
137 1 0.661381 0.669534 0.334433
46 1 0.750883 0.582385 0.248653
116 1 0.829981 0.504753 0.336534
120 1 0.915295 0.581461 0.424382
54 1 0.0743841 0.922288 0.248058
124 1 0.162002 0.837473 0.327734
125 1 0.0871145 0.749509 0.419326
55 1 0.247033 0.754498 0.24185
62 1 0.41834 0.923816 0.244577
128 1 0.245537 0.919516 0.408218
133 1 0.41103 0.751978 0.410417
63 1 0.576447 0.753944 0.248749
132 1 0.495496 0.829623 0.331965
136 1 0.582735 0.913196 0.411741
70 1 0.751742 0.923829 0.253957
71 1 0.913052 0.749321 0.25623
140 1 0.826637 0.830606 0.333328
141 1 0.745726 0.745903 0.417222
144 1 0.915539 0.901412 0.419067
74 1 -0.000693658 0.164724 0.499566
75 1 0.161316 -0.00338073 0.497474
145 1 -0.00305122 -5.15355e-05 0.66997
148 1 0.171598 0.163827 0.676526
79 1 0.251636 0.0782232 0.582266
82 1 0.327159 0.162661 0.500896
153 1 0.340588 0.00222657 0.659503
83 1 0.504797 -0.00200926 0.49861
87 1 0.583636 0.0859898 0.588396
90 1 0.668696 0.168195 0.503691
156 1 0.499774 0.169736 0.668469
161 1 0.67345 -0.00149144 0.662828
91 1 0.833914 -0.00169124 0.500911
95 1 0.913562 0.0827546 0.589134
164 1 0.837294 0.168303 0.668114
78 1 0.087091 0.245328 0.583688
99 1 0.166348 0.326005 0.504176
169 1 0.00514515 0.32835 0.669844
86 1 0.414763 0.242794 0.578747
103 1 0.246224 0.410056 0.581892
177 1 0.342114 0.331151 0.663662
107 1 0.503096 0.33425 0.495792
111 1 0.580919 0.41793 0.584914
185 1 0.670242 0.334077 0.670116
94 1 0.752826 0.258227 0.586083
115 1 0.833385 0.336735 0.504748
119 1 0.91818 0.413917 0.59394
98 1 0.00415188 0.503588 0.503459
102 1 0.0883506 0.578594 0.589249
123 1 0.171032 0.664055 0.500441
172 1 0.174892 0.495175 0.668959
193 1 0.0024279 0.664519 0.670528
106 1 0.327572 0.49181 0.494945
110 1 0.411791 0.579019 0.573898
201 1 0.331161 0.666391 0.665799
114 1 0.661832 0.501467 0.504701
131 1 0.497516 0.6699 0.492176
180 1 0.495523 0.503807 0.666136
209 1 0.664949 0.661175 0.665864
118 1 0.749747 0.578579 0.58559
139 1 0.828749 0.664262 0.502301
188 1 0.833404 0.495202 0.669759
122 1 0.00136032 0.825586 0.499812
126 1 0.0787375 0.916767 0.582984
196 1 0.169333 0.837363 0.662505
127 1 0.256897 0.755639 0.580094
130 1 0.330031 0.835166 0.485832
134 1 0.416523 0.918169 0.569653
135 1 0.573784 0.743648 0.589151
138 1 0.662414 0.828457 0.501147
204 1 0.496993 0.834922 0.663191
142 1 0.74769 0.913573 0.580703
143 1 0.920368 0.745126 0.589891
212 1 0.835279 0.831249 0.656915
146 1 0.000906992 0.165933 0.829467
147 1 0.173227 -0.00473887 0.833678
149 1 0.0839773 0.0771924 0.755745
151 1 0.251553 0.0823403 0.91391
154 1 0.337659 0.168844 0.83171
157 1 0.420767 0.0800842 0.749637
155 1 0.499207 -0.00267216 0.833949
159 1 0.593355 0.0805278 0.916553
162 1 0.669854 0.166718 0.831815
163 1 0.831693 -0.00167081 0.836411
165 1 0.753852 0.0784899 0.747337
167 1 0.92029 0.0847429 0.920118
150 1 0.0822368 0.24711 0.918688
171 1 0.174133 0.328341 0.837296
173 1 0.0870817 0.413082 0.755792
152 1 0.255257 0.249085 0.748766
158 1 0.414919 0.25511 0.918407
175 1 0.247544 0.419629 0.920124
181 1 0.422578 0.409465 0.749654
160 1 0.586965 0.245586 0.756691
179 1 0.508902 0.33101 0.840183
183 1 0.585809 0.424023 0.923837
166 1 0.753197 0.249552 0.916176
168 1 0.914213 0.252793 0.753095
187 1 0.836738 0.34073 0.836002
189 1 0.749699 0.419365 0.75593
191 1 0.921423 0.415957 0.922596
170 1 0.00744688 0.49997 0.83248
174 1 0.0859666 0.590151 0.91358
195 1 0.17196 0.666207 0.82815
176 1 0.261522 0.573187 0.750521
178 1 0.337084 0.489719 0.835954
182 1 0.414395 0.584142 0.91202
184 1 0.581771 0.583029 0.753616
186 1 0.664761 0.505572 0.838659
203 1 0.49921 0.669296 0.831311
190 1 0.752898 0.588531 0.917465
192 1 0.919917 0.579437 0.750158
211 1 0.833464 0.668024 0.834271
194 1 0.00504161 0.830656 0.830226
197 1 0.0942217 0.747863 0.740929
198 1 0.0831622 0.916799 0.916694
199 1 0.241798 0.749334 0.914141
200 1 0.256977 0.921081 0.7453
202 1 0.332669 0.831823 0.832395
205 1 0.415492 0.74499 0.754764
206 1 0.416554 0.914538 0.90939
207 1 0.583958 0.75076 0.915896
208 1 0.583799 0.912174 0.746496
210 1 0.668792 0.827986 0.831444
213 1 0.750862 0.748502 0.746359
214 1 0.746538 0.909137 0.913564
215 1 0.921512 0.745466 0.913558
216 1 0.914237 0.910958 0.755614
ITEM: TIMESTEP
1000
ITEM: NUMBER OF ATOMS
216
ITEM: BOX BOUNDS pp pp pp
-6.8559692166214603e-02 1.6361559692166196e+01
-6.8559692166214603e-02 1.6361559692166196e+01
-6.8559692166214603e-02 1.6361559692166196e+01
ITEM: ATOMS id type xs ys zs
1 1 0.00313152 0.00191577 -0.00146366
2 1 -0.00672393 0.170167 0.159603
3 1 0.168452 -0.0010156 0.167496
4 1 0.167147 0.170821 0.00339514
5 1 0.0868351 0.0879823 0.0834308
9 1 0.329824 -0.00546118 -0.00408896
10 1 0.332607 0.165107 0.166759
13 1 0.414188 0.0797752 0.0835598
11 1 0.496181 0.00110645 0.16796
12 1 0.497162 0.164723 0.0023857
17 1 0.668212 -0.00249771 -0.00393046
18 1 0.666948 0.173557 0.163132
19 1 0.825896 -0.001902 0.171724
20 1 0.825315 0.155319 0.000162528
21 1 0.740057 0.0793747 0.0840357
25 1 -0.00984414 0.334896 -0.0014894
27 1 0.165249 0.334331 0.176738
29 1 0.0798462 0.40941 0.0806366
8 1 0.248821 0.254263 0.0850867
33 1 0.338058 0.330463 -0.00194939
37 1 0.415254 0.415326 0.0848127
16 1 0.582005 0.25399 0.0823065
35 1 0.494322 0.333468 0.170824
41 1 0.663762 0.33158 -0.000307383
24 1 0.911193 0.245616 0.0756846
43 1 0.836884 0.332705 0.160174
45 1 0.753103 0.418431 0.081298
26 1 0.00546057 0.502097 0.170466
28 1 0.167891 0.494539 -0.00236815
49 1 -0.000677318 0.664046 -0.00515728
51 1 0.169007 0.666429 0.172333
32 1 0.244537 0.585387 0.0794016
34 1 0.331944 0.500936 0.162638
57 1 0.336142 0.670968 0.00907389
36 1 0.505241 0.50075 0.00319025
40 1 0.589469 0.581307 0.0812058
42 1 0.674396 0.497866 0.168503
59 1 0.503787 0.664165 0.170175
65 1 0.667744 0.663086 -0.0100388
44 1 0.835612 0.502385 0.00188074
48 1 0.920359 0.585718 0.0862822
67 1 0.83335 0.670619 0.167442
50 1 0.00030017 0.830222 0.16741
52 1 0.168641 0.825219 -0.00596856
53 1 0.0843938 0.743288 0.0816847
56 1 0.244361 0.912069 0.0812642
58 1 0.329793 0.830676 0.162796
61 1 0.418804 0.757675 0.090989
60 1 0.506711 0.838985 0.000913601
64 1 0.583096 0.922959 0.087853
66 1 0.667097 0.832277 0.166131
68 1 0.836623 0.837833 -0.00624501
69 1 0.752704 0.751772 0.0788395
72 1 0.922953 0.923477 0.0870544
73 1 -0.00235242 0.00196007 0.329767
76 1 0.162558 0.162271 0.330475
77 1 0.0829308 0.0879067 0.415962
7 1 0.25064 0.0852092 0.248064
81 1 0.329115 -0.00121905 0.335376
85 1 0.414501 0.0828745 0.417727
15 1 0.583488 0.0801215 0.250725
84 1 0.503377 0.159927 0.33759
89 1 0.667747 -0.000688139 0.331456
23 1 0.91552 0.0776652 0.24971
92 1 0.830699 0.166964 0.333023
93 1 0.752832 0.0827571 0.410701
6 1 0.0798435 0.249991 0.248635
97 1 -0.00256585 0.33687 0.330282
101 1 0.088849 0.412971 0.421895
14 1 0.41786 0.2447 0.257966
31 1 0.248287 0.419705 0.25345
80 1 0.250587 0.248631 0.416534
105 1 0.330148 0.32882 0.331181
109 1 0.416632 0.415756 0.413579
39 1 0.581599 0.414674 0.245682
88 1 0.584303 0.247389 0.416529
113 1 0.664019 0.331187 0.336082
22 1 0.746734 0.250227 0.250322
47 1 0.91782 0.41738 0.249718
96 1 0.92019 0.256199 0.416192
117 1 0.748912 0.417256 0.417815
30 1 0.0878175 0.582811 0.251161
100 1 0.16991 0.500168 0.342587
121 1 0.000196367 0.663879 0.333287
38 1 0.41918 0.582012 0.24278
104 1 0.256897 0.584174 0.419124
129 1 0.340685 0.665841 0.332208
108 1 0.49669 0.494822 0.334429
112 1 0.577119 0.582857 0.415799
137 1 0.668896 0.667124 0.337608
46 1 0.754285 0.588529 0.250536
116 1 0.837125 0.497625 0.331809
120 1 0.918467 0.585231 0.416348
54 1 0.0886577 0.915895 0.250379
124 1 0.167176 0.831259 0.339541
125 1 0.0747006 0.756914 0.415616
55 1 0.250388 0.74854 0.256202
62 1 0.416572 0.910453 0.249657
128 1 0.255239 0.91646 0.422179
133 1 0.41554 0.74941 0.417667
63 1 0.587695 0.749437 0.255837
132 1 0.500516 0.836911 0.335032
136 1 0.582621 0.918412 0.417736
70 1 0.751304 0.911711 0.257302
71 1 0.918481 0.75089 0.253845
140 1 0.838723 0.831514 0.331229
141 1 0.758574 0.746409 0.412753
144 1 0.911865 0.920856 0.418521
74 1 -0.00364685 0.165652 0.500989
75 1 0.171701 0.0036457 0.498069
145 1 0.00208393 -0.00550729 0.667343
148 1 0.168365 0.164326 0.661454
79 1 0.255253 0.0824562 0.579343
82 1 0.340658 0.17264 0.498824
153 1 0.330527 0.00377834 0.667881
83 1 0.499873 -0.000148059 0.501473
87 1 0.586393 0.0795224 0.584144
90 1 0.66949 0.16922 0.502595
156 1 0.505969 0.168716 0.668008
161 1 0.667833 -0.00260016 0.668842
91 1 0.825514 -0.000523074 0.506696
95 1 0.916961 0.0819157 0.583129
164 1 0.833872 0.170266 0.670099
78 1 0.0826384 0.253359 0.580624
99 1 0.178219 0.329508 0.496918
169 1 -0.00441018 0.332411 0.667683
86 1 0.419772 0.250361 0.59014
103 1 0.256441 0.410795 0.581839
177 1 0.32652 0.323694 0.667406
107 1 0.495142 0.335166 0.501073
111 1 0.582169 0.419972 0.580122
185 1 0.666465 0.338175 0.665965
94 1 0.753577 0.246976 0.58702
115 1 0.833366 0.334671 0.501428
119 1 0.917071 0.421485 0.580361
98 1 0.0021589 0.499198 0.496925
102 1 0.0859274 0.587167 0.583197
123 1 0.162324 0.669589 0.497932
172 1 0.169458 0.498426 0.663753
193 1 0.0040707 0.669287 0.662814
106 1 0.331851 0.494973 0.50098
110 1 0.414468 0.581797 0.589772
201 1 0.332928 0.667335 0.665398
114 1 0.661596 0.501474 0.493636
131 1 0.493407 0.664953 0.498338
180 1 0.502112 0.492853 0.673506
209 1 0.659305 0.666789 0.667068
118 1 0.744343 0.584429 0.580683
139 1 0.832897 0.662057 0.502657
188 1 0.828458 0.508211 0.663208
122 1 0.000353603 0.839814 0.501386
126 1 0.0910689 0.913331 0.579555
196 1 0.171875 0.83545 0.671877
127 1 0.247477 0.755228 0.581996
130 1 0.338212 0.835255 0.504256
134 1 0.412933 0.919028 0.589383
135 1 0.579737 0.747724 0.579006
138 1 0.665435 0.833109 0.503044
204 1 0.499008 0.829809 0.662435
142 1 0.75218 0.913456 0.590154
143 1 0.917924 0.752297 0.579586
212 1 0.830687 0.827288 0.672351
146 1 -0.000432975 0.166071 0.838092
147 1 0.160146 0.000405742 0.833968
149 1 0.0858907 0.0836006 0.749946
151 1 0.247767 0.0835272 0.919015
154 1 0.333558 0.161087 0.835324
157 1 0.418612 0.0858563 0.743786
155 1 0.50113 0.00106741 0.832981
159 1 0.582813 0.0864014 0.910308
162 1 0.669062 0.169661 0.835512
163 1 0.840014 -0.0011716 0.826591
165 1 0.751282 0.0869341 0.753609
167 1 0.913168 0.0824468 0.915459
150 1 0.0798963 0.250937 0.918245
171 1 0.162958 0.335414 0.832634
173 1 0.0851323 0.416359 0.743992
152 1 0.25149 0.24738 0.753392
158 1 0.41911 0.249285 0.908241
175 1 0.254406 0.412507 0.911062
181 1 0.407732 0.415996 0.754475
160 1 0.584921 0.253307 0.746642
179 1 0.498829 0.338399 0.830012
183 1 0.583918 0.411531 0.917485
166 1 0.751043 0.247954 0.918198
168 1 0.9181 0.249554 0.75409
187 1 0.831364 0.332053 0.83241
189 1 0.75483 0.422701 0.747723
191 1 0.91103 0.417783 0.911044
170 1 -0.00556849 0.497958 0.82952
174 1 0.0859217 0.581631 0.919232
195 1 0.166618 0.667251 0.835618
176 1 0.246224 0.5891 0.750089
178 1 0.330962 0.508377 0.837244
182 1 0.415053 0.588023 0.925322
184 1 0.578203 0.586189 0.75118
186 1 0.665553 0.499059 0.828785
203 1 0.493723 0.662441 0.837904
190 1 0.751261 0.583144 0.914634
192 1 0.915614 0.590359 0.745609
211 1 0.835252 0.666948 0.828514
194 1 0.00238821 0.834339 0.835026
197 1 0.0815978 0.748563 0.753836
198 1 0.0832536 0.919376 0.917333
199 1 0.259657 0.751359 0.913362
200 1 0.246845 0.923646 0.750181
202 1 0.333749 0.835726 0.833403
205 1 0.417493 0.748144 0.744963
206 1 0.416712 0.917522 0.919816
207 1 0.58045 0.753894 0.914805
208 1 0.584375 0.913799 0.748846
210 1 0.664093 0.834468 0.833676
213 1 0.741941 0.747146 0.754528
214 1 0.7523 0.917252 0.911497
215 1 0.912518 0.75396 0.912588
216 1 0.912812 0.915168 0.740552
ITEM: TIMESTEP
1100
ITEM: NUMBER OF ATOMS
216
ITEM: BOX BOUNDS pp pp pp
-7.4289139204074317e-02 1.6367289139204054e+01
-7.4289139204074317e-02 1.6367289139204054e+01
-7.4289139204074317e-02 1.6367289139204054e+01
ITEM: ATOMS id type xs ys zs
1 1 -0.000388989 0.00134445 -0.00523708
2 1 0.00791343 0.164096 0.170256
3 1 0.168859 -1.53424e-05 0.169751
4 1 0.161497 0.161551 -0.00492806
5 1 0.083755 0.0744193 0.0823047
9 1 0.334372 0.00275057 0.00572265
10 1 0.330822 0.16468 0.168508
13 1 0.417082 0.0804295 0.0894894
11 1 0.502574 -0.00351731 0.167223
12 1 0.49379 0.171407 0.00795594
17 1 0.663716 8.72074e-05 0.0108683
18 1 0.661829 0.157701 0.166905
19 1 0.837128 -0.000153529 0.164051
20 1 0.837649 0.178525 -0.00419698
21 1 0.756751 0.0890795 0.0837102
25 1 0.00452805 0.33327 -0.00344344
27 1 0.171159 0.334906 0.15821
29 1 0.0884548 0.419561 0.0811559
8 1 0.247889 0.243806 0.0801328
33 1 0.322751 0.335731 0.0011226
37 1 0.419878 0.412697 0.0812675
16 1 0.584608 0.248458 0.0833108
35 1 0.506769 0.332596 0.16459
41 1 0.662263 0.331323 -0.00222737
24 1 0.924929 0.253832 0.0803364
43 1 0.835007 0.334638 0.166332
45 1 0.743506 0.411499 0.0770203
26 1 -0.00217511 0.496312 0.1621
28 1 0.168531 0.509399 -0.000662529
49 1 0.00151354 0.668182 0.00420651
51 1 0.173517 0.664061 0.164466
32 1 0.256283 0.58303 0.0856559
34 1 0.3385 0.500375 0.170489
57 1 0.334566 0.660755 -0.00869643
36 1 0.49419 0.495775 -0.00162648
40 1 0.577793 0.581445 0.0818221
42 1 0.659751 0.496821 0.162283
59 1 0.499402 0.662689 0.16762
65 1 0.663217 0.667149 0.00761424
44 1 0.832391 0.492197 -0.00851785
48 1 0.91585 0.581226 0.0769747
67 1 0.839323 0.662498 0.165993
50 1 0.00314805 0.831439 0.17013
52 1 0.169016 0.844218 0.00657363
53 1 0.0932588 0.748267 0.0856698
56 1 0.258899 0.917028 0.093287
58 1 0.340699 0.830776 0.170167
61 1 0.420133 0.739281 0.0778789
60 1 0.499837 0.825294 0.00487744
64 1 0.580605 0.911541 0.087742
66 1 0.66645 0.836771 0.169041
68 1 0.827106 0.828517 0.000764214
69 1 0.753632 0.742775 0.0901945
72 1 0.914398 0.910381 0.0808756
73 1 0.00926582 -0.00181871 0.336238
76 1 0.17091 0.168846 0.33917
77 1 0.0852144 0.0824282 0.417335
7 1 0.247785 0.0806566 0.254102
81 1 0.336774 -0.00126263 0.338779
85 1 0.417658 0.0882624 0.419426
15 1 0.580312 0.0791442 0.250062
84 1 0.494888 0.169507 0.333281
89 1 0.667972 -0.00337554 0.33136
23 1 0.918714 0.0843439 0.248997
92 1 0.836076 0.16108 0.328335
93 1 0.747851 0.0788104 0.417191
6 1 0.088053 0.250559 0.252559
97 1 0.00135674 0.329673 0.330567
101 1 0.0771462 0.418347 0.40905
14 1 0.414571 0.252824 0.246263
31 1 0.255791 0.414948 0.247323
80 1 0.245762 0.254821 0.423467
105 1 0.338373 0.337985 0.340815
109 1 0.419936 0.421645 0.424572
39 1 0.585672 0.413613 0.253405
88 1 0.581213 0.249306 0.412488
113 1 0.668029 0.330962 0.327928
22 1 0.749493 0.243578 0.247546
47 1 0.919697 0.414508 0.246219
96 1 0.915946 0.242968 0.410876
117 1 0.753722 0.414886 0.413383
30 1 0.0807189 0.586012 0.239413
100 1 0.160994 0.49806 0.321418
121 1 0.00367999 0.668334 0.3271
38 1 0.41972 0.581374 0.261353
104 1 0.248895 0.581845 0.414365
129 1 0.335906 0.66642 0.33533
108 1 0.508794 0.504458 0.338555
112 1 0.596715 0.583234 0.421194
137 1 0.667477 0.658106 0.32457
46 1 0.74645 0.580001 0.246335
116 1 0.834906 0.499713 0.329752
120 1 0.916047 0.588024 0.407448
54 1 0.0852477 0.913798 0.250906
124 1 0.170837 0.831585 0.331093
125 1 0.0898666 0.742743 0.414465
55 1 0.253731 0.746285 0.247749
62 1 0.422116 0.91556 0.252243
128 1 0.246262 0.911967 0.422466
133 1 0.422254 0.749758 0.421059
63 1 0.584356 0.746467 0.247798
132 1 0.50229 0.827939 0.336864
136 1 0.584661 0.919634 0.413801
70 1 0.750919 0.920269 0.244434
71 1 0.913398 0.747265 0.248345
140 1 0.835902 0.839302 0.325827
141 1 0.750841 0.755271 0.410581
144 1 0.922541 0.914645 0.412046
74 1 0.00529561 0.168399 0.493164
75 1 0.165566 -0.000444039 0.503894
145 1 -0.00491216 0.00699115 0.666421
148 1 0.163746 0.172655 0.666195
79 1 0.245241 0.0792865 0.592049
82 1 0.327141 0.164931 0.504298
153 1 0.329645 -0.00769029 0.671663
83 1 0.497047 -0.000266557 0.498589
87 1 0.57455 0.0899523 0.583017
90 1 0.663992 0.16234 0.491647
156 1 0.485417 0.165076 0.663726
161 1 0.662394 0.00222687 0.665561
91 1 0.842727 0.00217411 0.487179
95 1 0.913419 0.0893904 0.575974
164 1 0.827621 0.167037 0.66012
78 1 0.0753953 0.253761 0.579046
99 1 0.160496 0.349931 0.498743
169 1 -0.00469406 0.339103 0.66733
86 1 0.409391 0.254857 0.583563
103 1 0.243393 0.423485 0.584834
177 1 0.332196 0.34662 0.657449
107 1 0.499901 0.329377 0.504579
111 1 0.589127 0.415322 0.581355
185 1 0.662494 0.325807 0.664762
94 1 0.745056 0.249414 0.574845
115 1 0.833667 0.327306 0.491311
119 1 0.913046 0.413731 0.575951
98 1 -0.0034608 0.504049 0.496647
102 1 0.0724668 0.581621 0.583079
123 1 0.16979 0.665231 0.502624
172 1 0.159276 0.506744 0.666346
193 1 -0.00783135 0.665097 0.667888
106 1 0.337047 0.504627 0.504157
110 1 0.422091 0.59237 0.579283
201 1 0.333315 0.666217 0.676322
114 1 0.678764 0.49824 0.503948
131 1 0.516344 0.67164 0.504258
180 1 0.504527 0.505733 0.661432
209 1 0.682036 0.668924 0.665242
118 1 0.756684 0.580072 0.583833
139 1 0.837821 0.669371 0.494517
188 1 0.838276 0.495789 0.666613
122 1 0.00675169 0.828512 0.496506
126 1 0.0770346 0.91907 0.587231
196 1 0.160363 0.83432 0.665906
127 1 0.253534 0.745009 0.592082
130 1 0.333565 0.830652 0.505584
134 1 0.416522 0.912797 0.590632
135 1 0.590989 0.752311 0.591683
138 1 0.668479 0.83874 0.50305
204 1 0.501204 0.838456 0.675006
142 1 0.755182 0.929043 0.578095
143 1 0.918512 0.75299 0.579297
212 1 0.831883 0.850564 0.668415
146 1 -0.00735978 0.17084 0.829827
147 1 0.170231 -0.000218969 0.832371
149 1 0.0786858 0.086433 0.756294
151 1 0.247104 0.080013 0.916828
154 1 0.32668 0.173917 0.834293
157 1 0.406449 0.0885481 0.753425
155 1 0.493617 0.000363776 0.835642
159 1 0.580921 0.0849885 0.927157
162 1 0.662037 0.164527 0.830232
163 1 0.826917 0.00198774 0.841161
165 1 0.747046 0.084724 0.748132
167 1 0.914573 0.0863988 0.914071
150 1 0.0855688 0.250303 0.9144
171 1 0.163673 0.338185 0.83098
173 1 0.0798939 0.418272 0.747604
152 1 0.248628 0.263406 0.748717
158 1 0.411711 0.253426 0.923298
175 1 0.243354 0.421803 0.923082
181 1 0.420774 0.4163 0.74713
160 1 0.571536 0.245916 0.752017
179 1 0.496433 0.328907 0.835488
183 1 0.577826 0.412623 0.914741
166 1 0.745841 0.256657 0.91264
168 1 0.91128 0.250611 0.742801
187 1 0.835812 0.329851 0.829331
189 1 0.747969 0.408036 0.748985
191 1 0.916768 0.40758 0.918525
170 1 -0.00205106 0.502097 0.839775
174 1 0.0821995 0.587165 0.91509
195 1 0.16581 0.670439 0.834301
176 1 0.244826 0.582356 0.754044
178 1 0.332194 0.497446 0.831624
182 1 0.418833 0.576648 0.908819
184 1 0.589925 0.585749 0.742619
186 1 0.664026 0.497929 0.832205
203 1 0.510487 0.666143 0.832342
190 1 0.748982 0.582349 0.915722
192 1 0.910378 0.580707 0.75063
211 1 0.832031 0.668764 0.835425
194 1 -0.00722913 0.83649 0.836505
197 1 0.0799095 0.749737 0.750205
198 1 0.0878307 0.916895 0.914909
199 1 0.242998 0.742091 0.927919
200 1 0.247457 0.911034 0.753982
202 1 0.325418 0.832282 0.838685
205 1 0.4197 0.753006 0.758119
206 1 0.412268 0.915278 0.927885
207 1 0.591465 0.744255 0.915005
208 1 0.587042 0.918458 0.755843
210 1 0.669833 0.834907 0.836572
213 1 0.760224 0.757752 0.749637
214 1 0.747552 0.919192 0.923623
215 1 0.916416 0.74474 0.920882
216 1 0.915352 0.924519 0.75716
ITEM: TIMESTEP
1200
ITEM: NUMBER OF ATOMS
216
ITEM: BOX BOUNDS pp pp pp
-5.9906368366826612e-02 1.6352906368366781e+01
-5.9906368366826612e-02 1.6352906368366781e+01
-5.9906368366826612e-02 1.6352906368366781e+01
ITEM: ATOMS id type xs ys zs
1 1 0.00281302 0.00607433 0.00628383
2 1 0.000705957 0.162053 0.162471
3 1 0.166847 -0.00260508 0.160712
4 1 0.174311 0.173166 0.00574163
5 1 0.0922471 0.0891591 0.0854181
9 1 0.326567 0.005864 0.00330583
10 1 0.337172 0.166976 0.165382
13 1 0.417158 0.084214 0.0792224
11 1 0.502032 0.00276554 0.162305
12 1 0.500506 0.16986 -0.00275401
17 1 0.66707 -0.0104359 -0.004557
18 1 0.659719 0.171105 0.163862
19 1 0.825656 -0.00246236 0.17282
20 1 0.833508 0.156497 -0.00328956
21 1 0.745273 0.0756192 0.0865391
25 1 -0.00188133 0.335807 -0.00446289
27 1 0.163241 0.33028 0.16876
29 1 0.0780327 0.416381 0.0798467
8 1 0.257074 0.255417 0.0873441
33 1 0.341419 0.330311 -0.00389543
37 1 0.414922 0.418698 0.0824019
16 1 0.578483 0.251319 0.08103
35 1 0.501438 0.329296 0.165763
41 1 0.664781 0.329859 -0.000670925
24 1 0.913308 0.247139 0.0813932
43 1 0.830653 0.332583 0.165977
45 1 0.750408 0.413772 0.0808842
26 1 0.00587845 0.504219 0.166077
28 1 0.168238 0.491266 0.00288845
49 1 -0.00112572 0.665575 -0.00526701
51 1 0.163499 0.666757 0.16775
32 1 0.245461 0.586509 0.0847466
34 1 0.32955 0.502995 0.167888
57 1 0.331293 0.670118 0.00617245
36 1 0.50556 0.499075 -0.0030822
40 1 0.585559 0.580883 0.0847334
42 1 0.667294 0.500052 0.173205
59 1 0.507378 0.668719 0.164272
65 1 0.664924 0.664703 -0.00465879
44 1 0.837435 0.501979 0.00525895
48 1 0.916262 0.58339 0.0891327
67 1 0.830128 0.668323 0.165422
50 1 0.00406937 0.832661 0.169965
52 1 0.16296 0.825272 -0.00484062
53 1 0.0768872 0.74814 0.0818892
56 1 0.24428 0.921288 0.0749435
58 1 0.326944 0.837696 0.171459
61 1 0.41669 0.752668 0.0872546
60 1 0.505163 0.835781 0.00267109
64 1 0.582873 0.920134 0.0834984
66 1 0.668629 0.833039 0.162504
68 1 0.832397 0.834562 -0.00192557
69 1 0.744271 0.753705 0.0742933
72 1 0.9123 0.921691 0.0841427
73 1 -0.00186785 -0.00160683 0.337434
76 1 0.160454 0.162438 0.329921
77 1 0.0829652 0.0786913 0.418579
7 1 0.247798 0.0829029 0.247598
81 1 0.333942 0.00218808 0.330955
85 1 0.41766 0.0775385 0.42003
15 1 0.581878 0.0854923 0.251408
84 1 0.500892 0.162159 0.335789
89 1 0.670586 0.00221174 0.332423
23 1 0.916508 0.0833912 0.246311
92 1 0.83786 0.172719 0.340735
93 1 0.750415 0.0856868 0.421362
6 1 0.0818432 0.24875 0.252566
97 1 0.000422711 0.334762 0.336409
101 1 0.0814342 0.416706 0.418115
14 1 0.419911 0.248574 0.252852
31 1 0.245163 0.415649 0.25054
80 1 0.251277 0.247393 0.410115
105 1 0.330049 0.335503 0.331059
109 1 0.415397 0.417681 0.414352
39 1 0.579829 0.416706 0.248794
88 1 0.581373 0.251093 0.422156
113 1 0.664214 0.335594 0.336636
22 1 0.753359 0.252721 0.25247
47 1 0.921764 0.4186 0.24818
96 1 0.922911 0.253752 0.419598
117 1 0.741809 0.419842 0.418701
30 1 0.0875815 0.585206 0.258545
100 1 0.169399 0.502889 0.340005
121 1 0.000136047 0.667863 0.33417
38 1 0.416477 0.583978 0.246753
104 1 0.25447 0.590199 0.423558
129 1 0.336529 0.669796 0.331511
108 1 0.502119 0.50065 0.326744
112 1 0.576114 0.583942 0.416999
137 1 0.660945 0.666929 0.342764
46 1 0.754005 0.58387 0.250432
116 1 0.829828 0.498093 0.333015
120 1 0.922241 0.573673 0.417523
54 1 0.0908462 0.922509 0.25613
124 1 0.1664 0.830839 0.334396
125 1 0.080569 0.754483 0.415371
55 1 0.247293 0.747466 0.249679
62 1 0.418779 0.924131 0.249684
128 1 0.247625 0.91847 0.417202
133 1 0.41635 0.745149 0.424156
63 1 0.584143 0.751991 0.251658
132 1 0.49786 0.83167 0.335401
136 1 0.582179 0.917523 0.416288
70 1 0.746204 0.910999 0.251898
71 1 0.922684 0.745246 0.245627
140 1 0.839797 0.833996 0.331794
141 1 0.749223 0.749334 0.420176
144 1 0.914254 0.921344 0.419484
74 1 -0.00317444 0.161759 0.497607
75 1 0.160022 0.000608976 0.500498
145 1 0.0027967 -0.00682739 0.662686
148 1 0.165455 0.163381 0.671122
79 1 0.25572 0.0842156 0.576106
82 1 0.339504 0.167614 0.5003
153 1 0.333505 0.0038181 0.667532
83 1 0.496025 -0.00331186 0.505438
87 1 0.585047 0.0812915 0.582959
90 1 0.665523 0.166756 0.504962
156 1 0.504404 0.171057 0.671989
161 1 0.665451 -0.00066115 0.669473
91 1 0.82616 0.00127436 0.504564
95 1 0.917309 0.0788962 0.58534
164 1 0.836908 0.164693 0.673708
78 1 0.0870729 0.25127 0.580627
99 1 0.1659 0.329942 0.501426
169 1 0.000327822 0.328047 0.663486
86 1 0.420233 0.245989 0.586588
103 1 0.251102 0.419472 0.586629
177 1 0.335543 0.328947 0.668538
107 1 0.496506 0.334067 0.497448
111 1 0.582055 0.420239 0.579685
185 1 0.666137 0.332338 0.662403
94 1 0.751508 0.249973 0.583075
115 1 0.830716 0.333799 0.503715
119 1 0.91788 0.416458 0.590177
98 1 0.00242041 0.496587 0.502858
102 1 0.0883681 0.582273 0.582909
123 1 0.16061 0.671874 0.504307
172 1 0.171025 0.498982 0.664187
193 1 0.00244073 0.663851 0.666258
106 1 0.334076 0.49649 0.505951
110 1 0.417319 0.578126 0.583133
201 1 0.330973 0.665282 0.654999
114 1 0.659454 0.505651 0.499051
131 1 0.4979 0.661773 0.501321
180 1 0.496904 0.500856 0.666245
209 1 0.660091 0.667299 0.666212
118 1 0.740952 0.586959 0.583971
139 1 0.832688 0.658347 0.504652
188 1 0.829272 0.503593 0.659933
122 1 -0.00616889 0.840222 0.49978
126 1 0.0893648 0.915805 0.582419
196 1 0.176203 0.833042 0.668164
127 1 0.247623 0.754921 0.575976
130 1 0.3331 0.831412 0.499205
134 1 0.413632 0.917356 0.583457
135 1 0.577946 0.750072 0.585339
138 1 0.662708 0.83421 0.500115
204 1 0.50579 0.83648 0.660476
142 1 0.74514 0.913766 0.586751
143 1 0.916961 0.749022 0.590473
212 1 0.833201 0.82486 0.670145
146 1 -0.000674908 0.168573 0.832242
147 1 0.169625 -0.00346793 0.838057
149 1 0.0839931 0.0751597 0.749825
151 1 0.249463 0.0808977 0.917716
154 1 0.334957 0.159806 0.836205
157 1 0.419415 0.0790866 0.743161
155 1 0.503246 -0.00263496 0.824786
159 1 0.582755 0.0811161 0.917704
162 1 0.666447 0.173252 0.832378
163 1 0.835066 0.00206095 0.829015
165 1 0.752146 0.0772232 0.748628
167 1 0.922237 0.0790229 0.91309
150 1 0.0777 0.250431 0.91765
171 1 0.166712 0.329498 0.838769
173 1 0.0877312 0.419252 0.750235
152 1 0.252155 0.244722 0.749171
158 1 0.420926 0.249086 0.911725
175 1 0.254925 0.413527 0.908669
181 1 0.415466 0.415711 0.74579
160 1 0.584281 0.254286 0.748851
179 1 0.501244 0.334296 0.83296
183 1 0.586118 0.415769 0.918641
166 1 0.750637 0.247848 0.920747
168 1 0.916397 0.253084 0.752291
187 1 0.831004 0.332586 0.839607
189 1 0.753271 0.416609 0.745728
191 1 0.915113 0.415774 0.913842
170 1 0.000203188 0.499693 0.827357
174 1 0.0875824 0.581243 0.91768
195 1 0.168907 0.660171 0.835015
176 1 0.249561 0.586884 0.743108
178 1 0.33301 0.504706 0.83131
182 1 0.418597 0.589464 0.925615
184 1 0.584921 0.587915 0.754909
186 1 0.665435 0.499991 0.835834
203 1 0.496898 0.669484 0.833349
190 1 0.755671 0.585181 0.91558
192 1 0.917035 0.5886 0.749045
211 1 0.834683 0.670452 0.831848
194 1 -0.00140262 0.836133 0.831402
197 1 0.0864893 0.750608 0.752348
198 1 0.0790203 0.919791 0.917334
199 1 0.249355 0.751238 0.907407
200 1 0.248664 0.92508 0.747908
202 1 0.340184 0.83522 0.820523
205 1 0.422244 0.749335 0.737698
206 1 0.41952 0.915423 0.912762
207 1 0.579923 0.754619 0.918446
208 1 0.580803 0.910976 0.743735
210 1 0.665965 0.833385 0.832394
213 1 0.741803 0.74711 0.751763
214 1 0.751995 0.918622 0.908485
215 1 0.916475 0.754399 0.916384
216 1 0.91632 0.918207 0.752621
ITEM: TIMESTEP
1300
ITEM: NUMBER OF ATOMS
216
ITEM: BOX BOUNDS pp pp pp
-7.3795809190034589e-02 1.6366795809189966e+01
-7.3795809190034589e-02 1.6366795809189966e+01
-7.3795809190034589e-02 1.6366795809189966e+01
ITEM: ATOMS id type xs ys zs
1 1 0.0019466 -0.00114051 -0.00442414
2 1 0.000525706 0.17265 0.168315
3 1 0.1596 0.00540439 0.16549
4 1 0.161905 0.156515 -0.00152581
5 1 0.073709 0.0811742 0.0851874
9 1 0.332783 0.00167943 -0.00216958
10 1 0.333133 0.166371 0.157116
13 1 0.419504 0.0819709 0.0797509
11 1 0.498475 0.000302998 0.165867
12 1 0.50234 0.169292 0.0071148
17 1 0.669487 -0.000666513 0.00358275
18 1 0.670035 0.170781 0.167785
19 1 0.83515 -0.000288663 0.166119
20 1 0.830667 0.171911 -0.00159778
21 1 0.751258 0.0832835 0.0808558
25 1 0.00567406 0.336425 0.00696179
27 1 0.16816 0.338486 0.170258
29 1 0.080711 0.417114 0.0891342
8 1 0.243476 0.250964 0.0803823
33 1 0.332323 0.330719 0.00135041
37 1 0.421588 0.41823 0.0832458
16 1 0.591179 0.252529 0.0802367
35 1 0.505594 0.33394 0.166985
41 1 0.669152 0.338341 0.00320244
24 1 0.918439 0.257128 0.0906077
43 1 0.833423 0.338596 0.172868
45 1 0.752208 0.423419 0.089383
26 1 -0.00438214 0.498152 0.166997
28 1 0.158613 0.506636 0.000229177
49 1 0.00243439 0.667159 0.00262474
51 1 0.165156 0.668971 0.16869
32 1 0.246499 0.584451 0.0801991
34 1 0.327724 0.502199 0.160124
57 1 0.332162 0.663097 -4.45883e-05
36 1 0.506156 0.509176 0.00156536
40 1 0.583292 0.592821 0.0838485
42 1 0.667585 0.503191 0.164559
59 1 0.488135 0.667101 0.168819
65 1 0.670348 0.677898 0.00553153
44 1 0.834637 0.503354 0.00175175
48 1 0.919977 0.585702 0.0872019
67 1 0.836619 0.667614 0.170069
50 1 -0.0097884 0.826943 0.161594
52 1 0.169944 0.837847 0.00661823
53 1 0.0857358 0.747857 0.0859552
56 1 0.246752 0.922266 0.0880757
58 1 0.330012 0.830108 0.161189
61 1 0.418635 0.751751 0.0749477
60 1 0.507468 0.836951 -0.0051086
64 1 0.584725 0.917391 0.0809875
66 1 0.664314 0.840716 0.163327
68 1 0.835937 0.830543 -0.00105196
69 1 0.756904 0.755328 0.0946766
72 1 0.918579 0.916594 0.0823194
73 1 -0.00603459 0.00311702 0.335046
76 1 0.162246 0.166275 0.329432
77 1 0.0800751 0.0901057 0.412175
7 1 0.247618 0.0873603 0.243438
81 1 0.334062 0.0055287 0.329692
85 1 0.417734 0.0894744 0.408146
15 1 0.583887 0.0799135 0.248551
84 1 0.504002 0.172406 0.329549
89 1 0.665263 0.000564466 0.33462
23 1 0.911108 0.0815671 0.255463
92 1 0.823326 0.165987 0.337984
93 1 0.749735 0.0816269 0.419658
6 1 0.0808526 0.255832 0.247089
97 1 -0.000417749 0.3293 0.339264
101 1 0.08197 0.412046 0.423186
14 1 0.415483 0.252223 0.243904
31 1 0.254198 0.417824 0.248188
80 1 0.25186 0.242616 0.414985
105 1 0.333603 0.328876 0.327505
109 1 0.417095 0.411224 0.411474
39 1 0.58393 0.421014 0.248221
88 1 0.590807 0.249687 0.414478
113 1 0.665763 0.339611 0.331643
22 1 0.745385 0.253664 0.252891
47 1 0.911101 0.413792 0.263553
96 1 0.91344 0.2506 0.417681
117 1 0.751292 0.41723 0.420102
30 1 0.0736299 0.585323 0.242502
100 1 0.160625 0.490996 0.327457
121 1 -0.00346163 0.667886 0.336757
38 1 0.413437 0.583874 0.243882
104 1 0.246522 0.576504 0.411282
129 1 0.324357 0.672323 0.326087
108 1 0.493963 0.498282 0.334494
112 1 0.576857 0.576585 0.414102
137 1 0.661048 0.661898 0.326112
46 1 0.753136 0.584751 0.247692
116 1 0.831939 0.502425 0.339168
120 1 0.916407 0.587584 0.422885
54 1 0.0711519 0.91815 0.240611
124 1 0.155829 0.836022 0.327161
125 1 0.0829641 0.746789 0.416828
55 1 0.236001 0.754459 0.254139
62 1 0.415142 0.915182 0.244083
128 1 0.246694 0.919152 0.408431
133 1 0.408431 0.753939 0.401093
63 1 0.583499 0.75475 0.243222
132 1 0.498237 0.841174 0.326214
136 1 0.583348 0.913572 0.420412
70 1 0.749846 0.92448 0.246697
71 1 0.91071 0.752295 0.260219
140 1 0.826045 0.83865 0.336967
141 1 0.743147 0.744597 0.41614
144 1 0.916587 0.916157 0.420289
74 1 -0.000353202 0.168872 0.501716
75 1 0.163186 0.00355477 0.493594
145 1 3.89464e-05 -0.000638466 0.671267
148 1 0.169039 0.165095 0.661327
79 1 0.250195 0.0748158 0.582343
82 1 0.339337 0.165325 0.494302
153 1 0.339412 -0.00472019 0.664605
83 1 0.506722 0.00819881 0.490107
87 1 0.591522 0.0826108 0.582118
90 1 0.672587 0.172309 0.502002
156 1 0.510222 0.166225 0.662712
161 1 0.667606 -0.00450479 0.667642
91 1 0.838944 -0.00362078 0.500398
95 1 0.91621 0.0822969 0.585539
164 1 0.835657 0.171099 0.666728
78 1 0.077781 0.246869 0.591318
99 1 0.171608 0.324568 0.500588
169 1 -0.000921433 0.332068 0.672172
86 1 0.420485 0.247364 0.582257
103 1 0.254461 0.408474 0.583086
177 1 0.335403 0.328962 0.664665
107 1 0.50084 0.3334 0.5014
111 1 0.58323 0.416543 0.585358
185 1 0.667473 0.336861 0.677399
94 1 0.748996 0.252016 0.591458
115 1 0.841567 0.337414 0.50238
119 1 0.923197 0.420042 0.582994
98 1 0.00503879 0.499324 0.50332
102 1 0.0929473 0.579644 0.585116
123 1 0.168999 0.662341 0.501138
172 1 0.171555 0.496974 0.666141
193 1 0.00436273 0.663506 0.664756
106 1 0.32985 0.497301 0.496634
110 1 0.410063 0.584167 0.576376
201 1 0.331458 0.664724 0.668098
114 1 0.6667 0.501764 0.495024
131 1 0.487454 0.665639 0.485533
180 1 0.492519 0.495859 0.666099
209 1 0.66298 0.661373 0.662931
118 1 0.747037 0.572084 0.586131
139 1 0.823418 0.665406 0.512013
188 1 0.838313 0.505754 0.670875
122 1 0.00412208 0.830972 0.502471
126 1 0.0821929 0.92068 0.578414
196 1 0.168843 0.838661 0.657743
127 1 0.248171 0.748647 0.580208
130 1 0.333682 0.834828 0.496203
134 1 0.424836 0.917979 0.579954
135 1 0.57772 0.74369 0.579077
138 1 0.660892 0.82445 0.504968
204 1 0.49667 0.829711 0.663903
142 1 0.751696 0.914516 0.579927
143 1 0.917051 0.745332 0.579952
212 1 0.833989 0.828364 0.666785
146 1 0.00229408 0.162198 0.843812
147 1 0.170607 0.00362253 0.826868
149 1 0.0841829 0.0850629 0.755174
151 1 0.254263 0.0845917 0.915137
154 1 0.34274 0.167209 0.83575
157 1 0.421758 0.0882211 0.74732
155 1 0.503823 0.00136164 0.824393
159 1 0.585671 0.0883596 0.913874
162 1 0.679964 0.167666 0.829674
163 1 0.837369 -0.00762784 0.835702
165 1 0.762001 0.0783778 0.752412
167 1 0.908867 0.0802461 0.916421
150 1 0.0864874 0.252088 0.920449
171 1 0.169988 0.332829 0.831848
173 1 0.0866201 0.413079 0.74757
152 1 0.253862 0.250602 0.753242
158 1 0.424058 0.251384 0.921461
175 1 0.248083 0.414198 0.925427
181 1 0.41681 0.407382 0.760504
160 1 0.586276 0.250057 0.746706
179 1 0.512391 0.335375 0.837816
183 1 0.584245 0.417561 0.926721
166 1 0.751945 0.260435 0.915994
168 1 0.923737 0.243948 0.75915
187 1 0.840765 0.329902 0.833204
189 1 0.753204 0.42325 0.761562
191 1 0.919433 0.415493 0.921396
170 1 0.000801455 0.496794 0.840463
174 1 0.082104 0.588301 0.914216
195 1 0.169828 0.665568 0.829243
176 1 0.245573 0.571454 0.753124
178 1 0.334167 0.495607 0.836838
182 1 0.415846 0.581115 0.917905
184 1 0.576236 0.580524 0.74244
186 1 0.66062 0.501566 0.839799
203 1 0.495429 0.664066 0.836506
190 1 0.744555 0.586673 0.921337
192 1 0.923276 0.577504 0.753946
211 1 0.836 0.661965 0.834465
194 1 0.00459719 0.825616 0.837297
197 1 0.0841497 0.742897 0.748531
198 1 0.0903531 0.915779 0.910409
199 1 0.252178 0.747215 0.922372
200 1 0.248153 0.917993 0.745406
202 1 0.320061 0.835257 0.838012
205 1 0.414259 0.749203 0.753096
206 1 0.418164 0.920932 0.917202
207 1 0.582087 0.749025 0.91511
208 1 0.584145 0.91435 0.745314
210 1 0.661809 0.835973 0.833081
213 1 0.747054 0.737087 0.747427
214 1 0.754677 0.912362 0.920791
215 1 0.91668 0.74765 0.916671
216 1 0.916653 0.911255 0.747527
ITEM: TIMESTEP
1400
ITEM: NUMBER OF ATOMS
216
ITEM: BOX BOUNDS pp pp pp
-6.4331108972163875e-02 1.6357331108972097e+01
-6.4331108972163875e-02 1.6357331108972097e+01
-6.4331108972163875e-02 1.6357331108972097e+01
ITEM: ATOMS id type xs ys zs
1 1 -0.00554621 0.00199806 0.0044763
2 1 0.0066043 0.16371 0.16393
3 1 0.173178 -0.00131688 0.164839
4 1 0.168009 0.167014 -0.00379366
5 1 0.0925341 0.0841356 0.0797264
9 1 0.340018 0.000971612 0.000858396
10 1 0.33908 0.164649 0.175635
13 1 0.416995 0.0853726 0.0842896
11 1 0.503524 -0.00144906 0.161396
12 1 0.494685 0.169176 0.000418688
17 1 0.66809 -0.00391344 0.00392648
18 1 0.671746 0.167044 0.165001
19 1 0.831044 -0.00102596 0.164477
20 1 0.842118 0.165077 0.00173817
21 1 0.753506 0.0858231 0.0865078
25 1 -0.00525352 0.334259 -0.00226505
27 1 0.1608 0.329829 0.167672
29 1 0.0896241 0.41607 0.084188
8 1 0.250392 0.246559 0.0872761
33 1 0.333339 0.332284 -0.0024938
37 1 0.412076 0.420474 0.0844628
16 1 0.583236 0.250306 0.0802474
35 1 0.498379 0.331429 0.167017
41 1 0.665833 0.334458 -0.00455178
24 1 0.921346 0.251328 0.080693
43 1 0.830827 0.332325 0.165963
45 1 0.743099 0.410966 0.0815958
26 1 0.000262754 0.500383 0.165379
28 1 0.175866 0.496032 0.00404605
49 1 -0.00638855 0.667063 0.00086155
51 1 0.169523 0.667754 0.162813
32 1 0.254894 0.586773 0.0874049
34 1 0.332254 0.498873 0.178025
57 1 0.332416 0.669177 -0.0074645
36 1 0.492656 0.493269 -0.0117339
40 1 0.577598 0.573728 0.0833445
42 1 0.665635 0.499283 0.169218
59 1 0.499612 0.66845 0.161963
65 1 0.657476 0.659459 -0.00539586
44 1 0.831833 0.498097 0.00241815
48 1 0.91238 0.589454 0.0832063
67 1 0.826731 0.667838 0.168502
50 1 0.00226436 0.842534 0.171133
52 1 0.162778 0.831088 -0.00675682
53 1 0.0799016 0.753114 0.0837005
56 1 0.252864 0.915071 0.0761088
58 1 0.33226 0.837081 0.168495
61 1 0.4112 0.748985 0.0795291
60 1 0.495926 0.830418 0.00516688
64 1 0.581099 0.911636 0.0851574
66 1 0.66529 0.835282 0.166646
68 1 0.830868 0.832618 0.00144151
69 1 0.740429 0.743487 0.0780798
72 1 0.90914 0.915432 0.0868909
73 1 0.00288004 -0.00259247 0.338703
76 1 0.169817 0.168957 0.340414
77 1 0.0856352 0.0790554 0.423147
7 1 0.251313 0.079253 0.255303
81 1 0.335351 -0.00284819 0.335533
85 1 0.41478 0.0808109 0.421645
15 1 0.584674 0.0868857 0.246927
84 1 0.489818 0.160416 0.340627
89 1 0.669951 -0.00133765 0.333476
23 1 0.919677 0.084784 0.244682
92 1 0.839699 0.166493 0.329034
93 1 0.750531 0.0853031 0.417384
6 1 0.0835031 0.244834 0.253305
97 1 -0.000915865 0.334358 0.323817
101 1 0.0794925 0.417636 0.412416
14 1 0.415114 0.251159 0.25861
31 1 0.248722 0.406271 0.248489
80 1 0.253819 0.259328 0.417051
105 1 0.332686 0.339609 0.336404
109 1 0.414589 0.423831 0.414072
39 1 0.584419 0.414031 0.255568
88 1 0.581686 0.248386 0.413947
113 1 0.668027 0.327639 0.330628
22 1 0.75509 0.249623 0.251783
47 1 0.917536 0.417837 0.241125
96 1 0.921899 0.248883 0.418036
117 1 0.746649 0.416928 0.418888
30 1 0.0894681 0.589412 0.249972
100 1 0.17126 0.499333 0.332025
121 1 0.00208373 0.670305 0.332645
38 1 0.419021 0.58369 0.257466
104 1 0.25279 0.589523 0.420619
129 1 0.337949 0.664112 0.33174
108 1 0.505704 0.505721 0.335212
112 1 0.587462 0.585091 0.424826
137 1 0.667755 0.670544 0.341727
46 1 0.742704 0.586362 0.25511
116 1 0.827956 0.497323 0.33032
120 1 0.913563 0.582021 0.415182
54 1 0.0943043 0.916259 0.255347
124 1 0.179084 0.826112 0.336471
125 1 0.0837339 0.754635 0.420011
55 1 0.258758 0.745182 0.24283
62 1 0.418456 0.919965 0.252199
128 1 0.251616 0.915743 0.419062
133 1 0.421154 0.745251 0.423573
63 1 0.576781 0.752099 0.252998
132 1 0.493735 0.827175 0.341508
136 1 0.580734 0.915664 0.409672
70 1 0.750009 0.911419 0.248333
71 1 0.916694 0.747737 0.241177
140 1 0.837359 0.830035 0.32908
141 1 0.758963 0.759487 0.423177
144 1 0.914386 0.913551 0.416873
74 1 0.00696363 0.165449 0.502959
75 1 0.169142 -0.00449627 0.506929
145 1 0.00415565 -0.00292471 0.664772
148 1 0.1648 0.169401 0.672541
79 1 0.249519 0.0908073 0.583577
82 1 0.331726 0.167827 0.498033
153 1 0.329416 0.000689982 0.670593
83 1 0.494111 -0.00371441 0.502309
87 1 0.573164 0.0852936 0.582593
90 1 0.661095 0.15794 0.495953
156 1 0.493462 0.163475 0.670514
161 1 0.661727 0.00136909 0.666035
91 1 0.828737 0.00186197 0.495154
95 1 0.91394 0.0813261 0.581867
164 1 0.830361 0.165571 0.669327
78 1 0.0885817 0.248487 0.578552
99 1 0.165041 0.343662 0.497907
169 1 0.00463042 0.333503 0.667132
86 1 0.414301 0.247109 0.585938
103 1 0.243477 0.42242 0.586685
177 1 0.3318 0.337007 0.66274
107 1 0.49731 0.330915 0.496752
111 1 0.589785 0.414502 0.583681
185 1 0.664641 0.32265 0.663958
94 1 0.746603 0.242325 0.578602
115 1 0.826146 0.330444 0.499486
119 1 0.913983 0.410934 0.58643
98 1 -0.0038905 0.4993 0.504692
102 1 0.0750059 0.581194 0.587104
123 1 0.158172 0.66592 0.499192
172 1 0.161838 0.503392 0.669287
193 1 -0.00580832 0.663409 0.666283
106 1 0.336079 0.496671 0.500776
110 1 0.421774 0.579918 0.586858
201 1 0.331878 0.664999 0.664628
114 1 0.670821 0.504393 0.507059
131 1 0.511765 0.668937 0.51452
180 1 0.509654 0.500732 0.670343
209 1 0.675357 0.668375 0.662478
118 1 0.753036 0.591951 0.582254
139 1 0.837422 0.669616 0.494938
188 1 0.829807 0.499105 0.661448
122 1 -0.00265017 0.831263 0.498601
126 1 0.081616 0.905911 0.586386
196 1 0.166337 0.830851 0.670941
127 1 0.249904 0.746948 0.582925
130 1 0.332217 0.829212 0.498797
134 1 0.410493 0.913056 0.584731
135 1 0.59184 0.758282 0.589802
138 1 0.668328 0.840594 0.494963
204 1 0.504506 0.842164 0.670164
142 1 0.74898 0.916629 0.58211
143 1 0.921471 0.751257 0.57935
212 1 0.836571 0.842522 0.662549
146 1 -0.00263146 0.16626 0.81968
147 1 0.16758 -0.00470271 0.834013
149 1 0.0844518 0.082601 0.747471
151 1 0.243848 0.0805302 0.911582
154 1 0.32636 0.162805 0.831417
157 1 0.416561 0.0819098 0.754057
155 1 0.498127 -0.00692486 0.835034
159 1 0.581517 0.0805037 0.921433
162 1 0.66163 0.171593 0.833853
163 1 0.832869 0.00983782 0.835153
165 1 0.741873 0.0868377 0.748775
167 1 0.92437 0.087486 0.90828
150 1 0.0800647 0.244978 0.913924
171 1 0.166087 0.331402 0.833586
173 1 0.083097 0.417615 0.752253
152 1 0.252691 0.251807 0.748056
158 1 0.411611 0.248346 0.908798
175 1 0.254784 0.421176 0.910869
181 1 0.417733 0.421334 0.741216
160 1 0.576884 0.249881 0.754731
179 1 0.49584 0.336939 0.829932
183 1 0.583794 0.412918 0.908741
166 1 0.750693 0.246306 0.920742
168 1 0.912096 0.258235 0.742202
187 1 0.829592 0.336526 0.834169
189 1 0.745889 0.409183 0.744554
191 1 0.914898 0.419246 0.915402
170 1 0.00222253 0.506139 0.834915
174 1 0.0859433 0.584813 0.921444
195 1 0.169162 0.666022 0.837015
176 1 0.251898 0.589134 0.750571
178 1 0.33881 0.506505 0.828398
182 1 0.411346 0.587519 0.913815
184 1 0.591672 0.587803 0.756035
186 1 0.669786 0.494667 0.832058
203 1 0.50467 0.663262 0.835186
190 1 0.756152 0.581081 0.91143
192 1 0.911243 0.585373 0.748921
211 1 0.837152 0.668303 0.833389
194 1 -0.00550527 0.838088 0.827986
197 1 0.0856088 0.751427 0.750933
198 1 0.0801549 0.918944 0.919835
199 1 0.249497 0.749677 0.913129
200 1 0.253176 0.915168 0.750688
202 1 0.340371 0.830061 0.827371
205 1 0.424454 0.747384 0.747509
206 1 0.414672 0.913049 0.918826
207 1 0.578393 0.747511 0.916415
208 1 0.581112 0.919278 0.750267
210 1 0.664384 0.833641 0.834376
213 1 0.759454 0.758268 0.749396
214 1 0.752637 0.923299 0.913443
215 1 0.91747 0.752239 0.917275
216 1 0.914631 0.927065 0.75367
ITEM: TIMESTEP
1500
ITEM: NUMBER OF ATOMS
216
ITEM: BOX BOUNDS pp pp pp
-6.7682714309821534e-02 1.6360682714309760e+01
-6.7682714309821534e-02 1.6360682714309760e+01
-6.7682714309821534e-02 1.6360682714309760e+01
ITEM: ATOMS id type xs ys zs
1 1 -0.000968527 0.00201923 0.000221665
2 1 -0.00336269 0.169403 0.166378
3 1 0.164037 0.000884579 0.167953
4 1 0.166277 0.16848 0.00498057
5 1 0.0806047 0.0877002 0.0858338
9 1 0.326421 0.000744862 0.00193935
10 1 0.328734 0.164226 0.163246
13 1 0.410438 0.0766092 0.0864471
11 1 0.490609 -0.00205088 0.163371
12 1 0.493369 0.161661 0.0046055
17 1 0.661547 0.00399189 0.00646359
18 1 0.664885 0.16657 0.165542
19 1 0.834006 0.000143316 0.161883
20 1 0.823483 0.164064 -0.00177542
21 1 0.75003 0.0821182 0.0873995
25 1 0.000881379 0.329886 0.000272527
27 1 0.173163 0.342396 0.170765
29 1 0.0814845 0.41228 0.0813069
8 1 0.24205 0.254121 0.0874194
33 1 0.33255 0.334693 -0.00351437
37 1 0.416749 0.414536 0.0812441
16 1 0.584003 0.247354 0.0867429
35 1 0.497994 0.331206 0.170958
41 1 0.660572 0.332751 -0.000574633
24 1 0.908139 0.240687 0.0827225
43 1 0.836086 0.328416 0.164564
45 1 0.754244 0.411593 0.078235
26 1 -0.000704183 0.494175 0.161291
28 1 0.156328 0.501489 -0.00360122
49 1 0.00396264 0.669063 -0.00506817
51 1 0.176786 0.665856 0.173391
32 1 0.251064 0.582904 0.079135
34 1 0.33698 0.500433 0.166059
57 1 0.342178 0.664462 0.0012133
36 1 0.502565 0.499943 -0.000181449
40 1 0.593233 0.583276 0.08413
42 1 0.672289 0.493496 0.166595
59 1 0.503701 0.659058 0.174134
65 1 0.676079 0.670536 -0.00141533
44 1 0.833516 0.497162 -0.0047551
48 1 0.918125 0.577575 0.0768538
67 1 0.842828 0.659666 0.165684
50 1 -7.66892e-06 0.825305 0.159933
52 1 0.173803 0.830763 0.00317915
53 1 0.0906155 0.742832 0.0819509
56 1 0.253321 0.912472 0.0941461
58 1 0.338587 0.823293 0.175525
61 1 0.424696 0.746516 0.0857001
60 1 0.505429 0.834494 -0.00147284
64 1 0.579588 0.91861 0.0856916
66 1 0.668472 0.830765 0.164378
68 1 0.839293 0.838743 0.003983
69 1 0.762483 0.754662 0.0859181
72 1 0.923549 0.918238 0.0814871
73 1 0.00467556 -0.0016105 0.326435
76 1 0.166658 0.170137 0.326225
77 1 0.0870632 0.0867347 0.415214
7 1 0.25409 0.0811167 0.251273
81 1 0.332466 -0.00137519 0.341198
85 1 0.413796 0.0834164 0.417784
15 1 0.576278 0.0821692 0.252749
84 1 0.49779 0.173049 0.332707
89 1 0.671253 -0.00408402 0.334934
23 1 0.914109 0.0808466 0.245528
92 1 0.822559 0.166424 0.328113
93 1 0.749577 0.0830825 0.414052
6 1 0.0896161 0.259176 0.243281
97 1 0.00433946 0.332213 0.330369
101 1 0.0864152 0.416342 0.415794
14 1 0.408334 0.248914 0.254435
31 1 0.256997 0.417301 0.253341
80 1 0.248623 0.250709 0.417306
105 1 0.330758 0.333442 0.337303
109 1 0.413169 0.412368 0.416185
39 1 0.584984 0.418548 0.251013
88 1 0.585791 0.247792 0.414943
113 1 0.673727 0.330099 0.331667
22 1 0.746732 0.247595 0.239618
47 1 0.921715 0.413132 0.249605
96 1 0.914816 0.246109 0.406903
117 1 0.749991 0.415269 0.406477
30 1 0.0839032 0.576701 0.245934
100 1 0.172862 0.503459 0.333839
121 1 -0.000337215 0.671253 0.328432
38 1 0.411211 0.575275 0.25665
104 1 0.257477 0.584641 0.416962
129 1 0.338101 0.667874 0.33702
108 1 0.493492 0.492835 0.334605
112 1 0.587255 0.576015 0.409898
137 1 0.676776 0.661016 0.330383
46 1 0.762056 0.573886 0.234986
116 1 0.839369 0.499038 0.323292
120 1 0.912052 0.586114 0.413579
54 1 0.0837824 0.910226 0.248072
124 1 0.161861 0.832661 0.339235
125 1 0.0807994 0.751938 0.417766
55 1 0.254828 0.743739 0.257359
62 1 0.417862 0.910515 0.259656
128 1 0.253069 0.911747 0.419156
133 1 0.419172 0.754231 0.419037
63 1 0.590493 0.749356 0.253079
132 1 0.508683 0.832957 0.336154
136 1 0.585686 0.9138 0.422375
70 1 0.755497 0.914776 0.248671
71 1 0.916379 0.754447 0.247178
140 1 0.837241 0.834006 0.335496
141 1 0.752359 0.748471 0.414696
144 1 0.92668 0.914435 0.417554
74 1 -0.000590461 0.168449 0.491967
75 1 0.168509 -0.000507823 0.496743
145 1 -0.00105505 0.00457479 0.668726
148 1 0.159654 0.169504 0.664985
79 1 0.252799 0.0834833 0.586121
82 1 0.335865 0.165632 0.500098
153 1 0.331797 -0.00236763 0.671808
83 1 0.49838 0.00279571 0.501962
87 1 0.586471 0.0852554 0.585241
90 1 0.670299 0.167698 0.501169
156 1 0.497114 0.171878 0.666003
161 1 0.667828 0.0012249 0.669268
91 1 0.834785 0.00188158 0.497033
95 1 0.919861 0.09127 0.577003
164 1 0.832463 0.169223 0.665575
78 1 0.0770191 0.25795 0.583255
99 1 0.168739 0.328048 0.503377
169 1 -0.00949383 0.335463 0.663048
86 1 0.406422 0.247339 0.58909
103 1 0.251259 0.419047 0.578271
177 1 0.329262 0.337359 0.673826
107 1 0.498251 0.335996 0.503
111 1 0.586394 0.423645 0.582735
185 1 0.669662 0.337098 0.664326
94 1 0.749886 0.253867 0.580583
115 1 0.831702 0.33508 0.495087
119 1 0.914675 0.421464 0.576884
98 1 0.00208282 0.507246 0.492406
102 1 0.082376 0.591199 0.57607
123 1 0.168175 0.672398 0.500541
172 1 0.161406 0.499936 0.656995
193 1 -0.00365359 0.671335 0.662869
106 1 0.336561 0.500752 0.504128
110 1 0.417332 0.591127 0.584306
201 1 0.334758 0.667063 0.676319
114 1 0.673901 0.499124 0.497043
131 1 0.506178 0.672001 0.488642
180 1 0.495211 0.501554 0.666956
209 1 0.664038 0.662979 0.665322
118 1 0.753679 0.582603 0.578051
139 1 0.832291 0.668133 0.49991
188 1 0.831557 0.501285 0.666938
122 1 0.0044644 0.834223 0.499072
126 1 0.0831431 0.91772 0.580611
196 1 0.16202 0.83488 0.670181
127 1 0.24619 0.753974 0.590069
130 1 0.336038 0.834308 0.503916
134 1 0.420771 0.914775 0.589204
135 1 0.585079 0.751538 0.582353
138 1 0.673983 0.833843 0.501628
204 1 0.506669 0.828105 0.671907
142 1 0.751084 0.924986 0.583927
143 1 0.912223 0.75514 0.580068
212 1 0.834183 0.833138 0.670351
146 1 -0.000610614 0.168389 0.842319
147 1 0.165004 0.00982907 0.829987
149 1 0.0809285 0.0890099 0.75392
151 1 0.249396 0.0868886 0.923193
154 1 0.327448 0.172921 0.833877
157 1 0.410735 0.0867144 0.748515
155 1 0.493446 0.00453347 0.832464
159 1 0.579735 0.0870123 0.913645
162 1 0.662196 0.166986 0.828726
163 1 0.835448 -0.00246002 0.831815
165 1 0.755405 0.0788519 0.755101
167 1 0.910845 0.0801919 0.921372
150 1 0.0843568 0.25024 0.921498
171 1 0.164523 0.340261 0.825722
173 1 0.076089 0.423191 0.742617
152 1 0.248452 0.246182 0.74368
158 1 0.418438 0.247761 0.918276
175 1 0.245001 0.419804 0.913987
181 1 0.414463 0.417722 0.756408
160 1 0.580429 0.249556 0.743997
179 1 0.500315 0.327516 0.835815
183 1 0.58407 0.414494 0.916852
166 1 0.740328 0.252146 0.914888
168 1 0.919932 0.243215 0.752648
187 1 0.830621 0.326638 0.830029
189 1 0.751818 0.418592 0.747108
191 1 0.912863 0.409015 0.912518
170 1 -0.00976902 0.495161 0.824663
174 1 0.0754733 0.582642 0.911499
195 1 0.166335 0.670284 0.836853
176 1 0.246769 0.580787 0.753872
178 1 0.330996 0.502878 0.839169
182 1 0.423328 0.58284 0.9156
184 1 0.580564 0.582647 0.750959
186 1 0.660466 0.49935 0.830786
203 1 0.498433 0.665496 0.833302
190 1 0.745838 0.580282 0.914501
192 1 0.914857 0.588983 0.752192
211 1 0.830797 0.66748 0.837886
194 1 -0.00551928 0.833744 0.839928
197 1 0.076954 0.753559 0.750096
198 1 0.0858539 0.918627 0.913916
199 1 0.251165 0.746445 0.92241
200 1 0.238446 0.913342 0.757157
202 1 0.327465 0.836501 0.844423
205 1 0.415996 0.754889 0.756044
206 1 0.419879 0.91529 0.918019
207 1 0.584777 0.751295 0.91596
208 1 0.582983 0.919696 0.755708
210 1 0.666292 0.839192 0.835277
213 1 0.744673 0.748439 0.754084
214 1 0.748702 0.920935 0.919828
215 1 0.910646 0.743565 0.922706
216 1 0.914511 0.916132 0.751184
ITEM: TIMESTEP
1600
ITEM: NUMBER OF ATOMS
216
ITEM: BOX BOUNDS pp pp pp
-6.8706747502311316e-02 1.6361706747502261e+01
-6.8706747502311316e-02 1.6361706747502261e+01
-6.8706747502311316e-02 1.6361706747502261e+01
ITEM: ATOMS id type xs ys zs
1 1 -0.00102481 -0.00290183 0.00368493
2 1 0.00516735 0.166161 0.163244
3 1 0.167523 0.00136121 0.16996
4 1 0.164745 0.164122 -0.00448166
5 1 0.085126 0.0800253 0.0776306
9 1 0.339774 0.00624837 0.00326054
10 1 0.339025 0.167271 0.16449
13 1 0.423115 0.0872551 0.0855446
11 1 0.504195 -0.00167225 0.169513
12 1 0.497451 0.16712 -0.00403127
17 1 0.667907 -0.00469657 -0.00240595
18 1 0.671145 0.167101 0.165968
19 1 0.831188 0.00131129 0.166107
20 1 0.834982 0.162092 0.00384927
21 1 0.747696 0.0808339 0.0800772
25 1 0.00205288 0.34317 -0.00220008
27 1 0.161395 0.327167 0.162341
29 1 0.0874207 0.418605 0.0862494
8 1 0.251152 0.246587 0.0790928
33 1 0.332044 0.332494 0.00345244
37 1 0.416563 0.422732 0.0838995
16 1 0.584478 0.245041 0.0752244
35 1 0.500721 0.331916 0.16031
41 1 0.669388 0.32837 -0.00155154
24 1 0.922862 0.256456 0.0860919
43 1 0.827201 0.331411 0.174295
45 1 0.745246 0.419234 0.085238
26 1 0.000682701 0.500357 0.164551
28 1 0.171532 0.495805 -0.000991861
49 1 -0.00324393 0.666316 -0.00254592
51 1 0.159382 0.669621 0.161536
32 1 0.248772 0.578238 0.0875145
34 1 0.334579 0.499365 0.170804
57 1 0.321844 0.669673 -0.00166108
36 1 0.499269 0.5032 0.000478219
40 1 0.582118 0.580031 0.0830137
42 1 0.671319 0.505648 0.167701
59 1 0.49681 0.675303 0.16768
65 1 0.667704 0.665736 -0.000898711
44 1 0.831847 0.505918 0.00122158
48 1 0.91967 0.586813 0.0880326
67 1 0.830954 0.66817 0.168739
50 1 -0.00171759 0.837298 0.170224
52 1 0.165728 0.826007 0.00392881
53 1 0.073587 0.751056 0.0842222
56 1 0.247443 0.918744 0.0777145
58 1 0.32955 0.837495 0.162457
61 1 0.409822 0.756531 0.0801403
60 1 0.500401 0.835716 0.00388359
64 1 0.584738 0.91226 0.0831843
66 1 0.666883 0.835815 0.168253
68 1 0.837588 0.823927 -0.00791709
69 1 0.749028 0.74576 0.0851792
72 1 0.910763 0.91514 0.0886399
73 1 -0.00862748 0.000646781 0.337398
76 1 0.164114 0.162299 0.338025
77 1 0.0705448 0.0819892 0.417032
7 1 0.254213 0.084634 0.249132
81 1 0.33515 0.00179234 0.333992
85 1 0.415095 0.0835656 0.416665
15 1 0.589181 0.0846036 0.248883
84 1 0.500535 0.16046 0.337715
89 1 0.668936 0.00401587 0.342442
23 1 0.911669 0.0840374 0.253471
92 1 0.835426 0.168714 0.340887
93 1 0.752264 0.0916363 0.422666
6 1 0.0796757 0.245809 0.247389
97 1 -0.00246095 0.33346 0.332401
101 1 0.0818711 0.415378 0.419025
14 1 0.420879 0.248957 0.250603
31 1 0.248191 0.412346 0.247131
80 1 0.256025 0.2496 0.417142
105 1 0.339368 0.335156 0.328164
109 1 0.417911 0.424064 0.406533
39 1 0.584764 0.420055 0.245722
88 1 0.589431 0.246216 0.416084
113 1 0.662393 0.334615 0.330419
22 1 0.746522 0.247545 0.258102
47 1 0.910603 0.418965 0.250139
96 1 0.918635 0.254344 0.424881
117 1 0.749865 0.419997 0.422857
30 1 0.0844566 0.584061 0.247089
100 1 0.165909 0.491357 0.331259
121 1 0.00635451 0.668602 0.344295
38 1 0.423657 0.590525 0.246547
104 1 0.247693 0.583146 0.41376
129 1 0.334923 0.666101 0.327319
108 1 0.502719 0.50384 0.328282
112 1 0.575805 0.584996 0.420774
137 1 0.664312 0.671852 0.32904
46 1 0.749307 0.58699 0.255323
116 1 0.830432 0.501318 0.33933
120 1 0.921421 0.580993 0.421413
54 1 0.0811482 0.919557 0.252601
124 1 0.171887 0.836284 0.330065
125 1 0.0880056 0.757941 0.421452
55 1 0.245612 0.753098 0.25076
62 1 0.417781 0.918232 0.244222
128 1 0.24876 0.923787 0.411951
133 1 0.409537 0.746609 0.409675
63 1 0.584253 0.75692 0.250516
132 1 0.495982 0.832439 0.332947
136 1 0.583334 0.913372 0.418857
70 1 0.752641 0.922598 0.250724
71 1 0.916633 0.745559 0.254944
140 1 0.833228 0.829996 0.329379
141 1 0.752368 0.745717 0.415979
144 1 0.907644 0.913916 0.415894
74 1 -0.00368318 0.167672 0.507824
75 1 0.163202 -0.00123452 0.499423
145 1 -0.00405486 -0.00264372 0.672433
148 1 0.167603 0.167561 0.669521
79 1 0.24241 0.0873059 0.581655
82 1 0.33264 0.165971 0.498956
153 1 0.335455 0.00719906 0.663127
83 1 0.503727 0.00140661 0.494613
87 1 0.589424 0.0857455 0.584766
90 1 0.672424 0.171468 0.499654
156 1 0.507405 0.163739 0.670717
161 1 0.667052 -0.00474566 0.667034
91 1 0.82998 -0.00133998 0.502154
95 1 0.909992 0.0789119 0.587952
164 1 0.829302 0.171662 0.660229
78 1 0.0850658 0.242078 0.583888
99 1 0.166817 0.333595 0.500114
169 1 0.00918411 0.330515 0.665888
86 1 0.420926 0.24824 0.584356
103 1 0.248688 0.40913 0.585416
177 1 0.329292 0.325527 0.660578
107 1 0.496201 0.334278 0.494739
111 1 0.58237 0.41599 0.586949
185 1 0.664342 0.330437 0.670683
94 1 0.745024 0.252396 0.585543
115 1 0.835685 0.334348 0.502662
119 1 0.921705 0.414568 0.585868
98 1 0.00477716 0.496564 0.5085
102 1 0.0912289 0.579114 0.592207
123 1 0.16608 0.666748 0.501753
172 1 0.172843 0.498755 0.675996
193 1 0.00648545 0.665961 0.668462
106 1 0.329246 0.495654 0.493171
110 1 0.408939 0.573578 0.583618
201 1 0.337022 0.674094 0.65804
114 1 0.660322 0.497605 0.496717
131 1 0.485596 0.662544 0.506359
180 1 0.503224 0.501433 0.669121
209 1 0.661543 0.6695 0.669996
118 1 0.746682 0.578473 0.577969
139 1 0.832156 0.662311 0.501957
188 1 0.831907 0.500502 0.662825
122 1 6.80771e-05 0.832421 0.498665
126 1 0.0824281 0.913903 0.58424
196 1 0.174613 0.840754 0.660469
127 1 0.251775 0.75806 0.577885
130 1 0.3337 0.837156 0.49231
134 1 0.417589 0.921634 0.578919
135 1 0.574627 0.752463 0.58341
138 1 0.660605 0.82246 0.500788
204 1 0.490101 0.834695 0.661913
142 1 0.745113 0.908285 0.582944
143 1 0.922385 0.745929 0.579321
212 1 0.836264 0.831071 0.666286
146 1 -0.00307909 0.164896 0.824462
147 1 0.166538 -0.00388594 0.835823
149 1 0.0868644 0.0803062 0.753669
151 1 0.249511 0.0822299 0.915883
154 1 0.335986 0.163388 0.838196
157 1 0.424309 0.087737 0.755928
155 1 0.504664 -0.00612728 0.832754
159 1 0.579908 0.0812104 0.916947
162 1 0.670522 0.163353 0.836118
163 1 0.831249 -8.6178e-05 0.83129
165 1 0.748281 0.0830458 0.746504
167 1 0.916092 0.0827649 0.912428
150 1 0.0779245 0.245551 0.913635
171 1 0.165882 0.326396 0.839061
173 1 0.0812592 0.411063 0.751193
152 1 0.249276 0.251489 0.75472
158 1 0.413535 0.255608 0.913682
175 1 0.257326 0.415167 0.918226
181 1 0.411684 0.413457 0.750164
160 1 0.583571 0.254945 0.753712
179 1 0.500432 0.34077 0.832249
183 1 0.58291 0.419303 0.920184
166 1 0.757578 0.246637 0.917083
168 1 0.915095 0.257325 0.744415
187 1 0.831794 0.339141 0.829006
189 1 0.743147 0.423777 0.752662
191 1 0.919149 0.429076 0.912232
170 1 0.00575811 0.50482 0.836493
174 1 0.0882344 0.583299 0.915813
195 1 0.170909 0.667501 0.831469
176 1 0.255483 0.581805 0.751405
178 1 0.336343 0.498043 0.831727
182 1 0.410081 0.58163 0.91759
184 1 0.578755 0.582757 0.752949
186 1 0.670152 0.50705 0.837881
203 1 0.496421 0.66647 0.83641
190 1 0.755562 0.589901 0.915904
192 1 0.918774 0.573217 0.747658
211 1 0.836877 0.665802 0.830164
194 1 0.00476935 0.830109 0.828704
197 1 0.0956013 0.751122 0.745302
198 1 0.0835463 0.914965 0.920472
199 1 0.254085 0.753826 0.914948
200 1 0.256048 0.923116 0.747442
202 1 0.330508 0.829583 0.830198
205 1 0.418915 0.74539 0.748363
206 1 0.416811 0.917744 0.921595
207 1 0.578794 0.752839 0.919508
208 1 0.584581 0.912454 0.744017
210 1 0.659765 0.82735 0.831492
213 1 0.751759 0.747864 0.751561
214 1 0.754159 0.907024 0.908589
215 1 0.922712 0.752616 0.90548
216 1 0.914125 0.916251 0.754822
ITEM: TIMESTEP
1700
ITEM: NUMBER OF ATOMS
216
ITEM: BOX BOUNDS pp pp pp
-6.4624776366009939e-02 1.6357624776365959e+01
-6.4624776366009939e-02 1.6357624776365959e+01
-6.4624776366009939e-02 1.6357624776365959e+01
ITEM: ATOMS id type xs ys zs
1 1 -1.1289e-05 0.00409421 -0.00225525
2 1 -0.00160389 0.161774 0.173369
3 1 0.15697 9.34983e-05 0.159869
4 1 0.170053 0.166372 0.00510547
5 1 0.079904 0.0896392 0.0851499
9 1 0.330712 2.77013e-05 -0.00321506
10 1 0.332867 0.165781 0.160915
13 1 0.417837 0.0868132 0.074531
11 1 0.500742 0.00295932 0.158728
12 1 0.513007 0.167702 0.0100839
17 1 0.67266 0.00498783 0.00164717
18 1 0.675272 0.171834 0.16425
19 1 0.834701 -0.00252634 0.167058
20 1 0.829625 0.16777 -0.00717477
21 1 0.7569 0.0875445 0.091389
25 1 0.0059475 0.328807 0.00492596
27 1 0.163483 0.338374 0.165864
29 1 0.0801725 0.418784 0.0886569
8 1 0.253015 0.251338 0.0849401
33 1 0.337367 0.328215 -0.00121516
37 1 0.41601 0.413731 0.0784134
16 1 0.589194 0.25431 0.0886145
35 1 0.503115 0.340155 0.168532
41 1 0.668414 0.343302 0.00400739
24 1 0.914471 0.245304 0.0805024
43 1 0.835346 0.344267 0.167713
45 1 0.74936 0.424633 0.0881095
26 1 0.000246734 0.498219 0.169845
28 1 0.162005 0.496241 0.00643631
49 1 0.000437487 0.669828 0.00808901
51 1 0.164616 0.668046 0.166158
32 1 0.245707 0.586759 0.0792557
34 1 0.330759 0.499379 0.162702
57 1 0.337472 0.672026 -0.00410502
36 1 0.499466 0.494892 -0.000292394
40 1 0.579559 0.58332 0.0847592
42 1 0.659958 0.505387 0.171857
59 1 0.49677 0.663362 0.168771
65 1 0.662614 0.664718 -0.00282986
44 1 0.839024 0.502281 -0.00222972
48 1 0.914363 0.587432 0.08901
67 1 0.825561 0.667074 0.168697
50 1 0.00230005 0.835334 0.165061
52 1 0.164653 0.839558 -0.00795049
53 1 0.0889991 0.757124 0.0819295
56 1 0.248576 0.921694 0.0808715
58 1 0.331059 0.840805 0.16739
61 1 0.422739 0.752806 0.0794197
60 1 0.504595 0.832736 -0.00532482
64 1 0.581095 0.917247 0.0815921
66 1 0.657413 0.830456 0.166487
68 1 0.830219 0.836268 0.00422015
69 1 0.741062 0.751147 0.0843728
72 1 0.918927 0.919014 0.0804836
73 1 0.00476211 -0.000284798 0.337231
76 1 0.164216 0.168845 0.327695
77 1 0.0893928 0.0829395 0.42211
7 1 0.244374 0.0825041 0.245631
81 1 0.331739 0.00529752 0.329209
85 1 0.419424 0.0849701 0.40951
15 1 0.583968 0.0873705 0.2407
84 1 0.502411 0.170288 0.327548
89 1 0.662733 0.000613878 0.324682
23 1 0.918859 0.0802181 0.254784
92 1 0.82981 0.163499 0.331692
93 1 0.744849 0.0815327 0.417476
6 1 0.0796161 0.253168 0.254253
97 1 -0.00150038 0.329659 0.343836
101 1 0.0835094 0.415542 0.419945
14 1 0.414781 0.250018 0.241784
31 1 0.246653 0.417216 0.247576
80 1 0.249203 0.249109 0.416428
105 1 0.329093 0.335038 0.332911
109 1 0.411632 0.412828 0.421098
39 1 0.581256 0.420365 0.257007
88 1 0.586305 0.250787 0.419864
113 1 0.671832 0.337544 0.334817
22 1 0.759318 0.254296 0.249971
47 1 0.923549 0.418332 0.255513
96 1 0.910955 0.24426 0.417142
117 1 0.752265 0.419397 0.422863
30 1 0.0783346 0.583997 0.253428
100 1 0.162411 0.500707 0.335736
121 1 -0.0120614 0.663031 0.328619
38 1 0.404801 0.578416 0.252981
104 1 0.253427 0.5823 0.415809
129 1 0.32937 0.669664 0.332675
108 1 0.489191 0.497473 0.336063
112 1 0.5828 0.578414 0.412128
137 1 0.661774 0.666335 0.332621
46 1 0.743631 0.587674 0.252997
116 1 0.827597 0.501836 0.334154
120 1 0.908223 0.579677 0.418232
54 1 0.0802304 0.917669 0.250449
124 1 0.15534 0.833693 0.3341
125 1 0.0797022 0.742801 0.411593
55 1 0.246941 0.754846 0.251336
62 1 0.412491 0.927972 0.248616
128 1 0.24578 0.911848 0.413483
133 1 0.416597 0.754881 0.414891
63 1 0.574946 0.744045 0.249089
132 1 0.499275 0.836361 0.326078
136 1 0.578507 0.91788 0.413405
70 1 0.748719 0.906182 0.246387
71 1 0.909973 0.753655 0.245904
140 1 0.83091 0.836128 0.344609
141 1 0.74239 0.755301 0.426251
144 1 0.927159 0.921237 0.420345
74 1 0.00302795 0.169837 0.499248
75 1 0.172937 0.00295125 0.499335
145 1 0.00532783 -0.00398283 0.66135
148 1 0.167771 0.16548 0.663288
79 1 0.257937 0.0846486 0.580194
82 1 0.339901 0.162712 0.497041
153 1 0.333455 -0.00834782 0.665749
83 1 0.49072 0.00122963 0.498337
87 1 0.578679 0.0808211 0.577602
90 1 0.664741 0.160319 0.501549
156 1 0.495455 0.169114 0.663607
161 1 0.663734 0.00344695 0.671294
91 1 0.833228 0.00469666 0.496592
95 1 0.920281 0.0894093 0.58178
164 1 0.83437 0.1599 0.677839
78 1 0.0803562 0.25015 0.588954
99 1 0.16143 0.332403 0.50481
169 1 -0.00372415 0.332215 0.671641
86 1 0.414056 0.248592 0.580502
103 1 0.255915 0.419415 0.583672
177 1 0.339917 0.337689 0.670271
107 1 0.504388 0.333871 0.501995
111 1 0.588086 0.416679 0.586201
185 1 0.671672 0.33349 0.665472
94 1 0.749084 0.238347 0.583632
115 1 0.830295 0.331831 0.507868
119 1 0.918111 0.41553 0.590592
98 1 -0.00559312 0.4962 0.495353
102 1 0.0799844 0.577604 0.571412
123 1 0.165187 0.665288 0.494225
172 1 0.167046 0.495345 0.6553
193 1 0.00194627 0.658782 0.663639
106 1 0.338231 0.498628 0.502881
110 1 0.422893 0.588469 0.576868
201 1 0.331021 0.659195 0.665405
114 1 0.669026 0.503351 0.506955
131 1 0.505687 0.671323 0.496818
180 1 0.492655 0.502379 0.662548
209 1 0.667173 0.6634 0.662164
118 1 0.7527 0.583119 0.591753
139 1 0.833894 0.667936 0.500801
188 1 0.841662 0.499458 0.673782
122 1 0.00152124 0.831227 0.50046
126 1 0.0911419 0.911351 0.581923
196 1 0.163211 0.822576 0.668209
127 1 0.246958 0.739605 0.58249
130 1 0.325595 0.829127 0.502714
134 1 0.418825 0.905381 0.580906
135 1 0.586769 0.751061 0.58011
138 1 0.663542 0.846199 0.498312
204 1 0.507154 0.831941 0.668541
142 1 0.747029 0.919591 0.585632
143 1 0.917108 0.749336 0.584817
212 1 0.830103 0.83201 0.666371
146 1 0.0101225 0.162873 0.841721
147 1 0.17189 0.00334038 0.827882
149 1 0.0827359 0.0850651 0.743259
151 1 0.24847 0.0834509 0.911524
154 1 0.338553 0.162591 0.831525
157 1 0.415664 0.0775806 0.744735
155 1 0.507581 0.00734374 0.829223
159 1 0.59028 0.0898075 0.921589
162 1 0.669119 0.172867 0.829553
163 1 0.839149 -0.00482265 0.833205
165 1 0.752076 0.0771119 0.752371
167 1 0.917566 0.0810721 0.913189
150 1 0.0941875 0.247342 0.921594
171 1 0.172577 0.335215 0.833569
173 1 0.0871949 0.42027 0.752842
152 1 0.256753 0.246324 0.746547
158 1 0.425594 0.23877 0.924587
175 1 0.25166 0.415997 0.922513
181 1 0.422674 0.418458 0.751205
160 1 0.586589 0.248074 0.745525
179 1 0.503465 0.326745 0.836217
183 1 0.584232 0.417678 0.9152
166 1 0.745589 0.25609 0.920212
168 1 0.922375 0.245934 0.758772
187 1 0.8372 0.334601 0.843057
189 1 0.756747 0.409121 0.749548
191 1 0.923229 0.411791 0.92293
170 1 0.00394316 0.496058 0.838082
174 1 0.0794208 0.584385 0.919461
195 1 0.166781 0.664833 0.839028
176 1 0.24665 0.580153 0.74876
178 1 0.332965 0.49587 0.837075
182 1 0.418058 0.583868 0.914386
184 1 0.585091 0.579908 0.74722
186 1 0.665754 0.496225 0.830886
203 1 0.504229 0.668666 0.824083
190 1 0.746667 0.580435 0.914111
192 1 0.921362 0.589173 0.761629
211 1 0.831613 0.665287 0.840086
194 1 -0.00828281 0.831458 0.83042
197 1 0.078494 0.749295 0.75322
198 1 0.0818177 0.917449 0.909134
199 1 0.244758 0.753653 0.915115
200 1 0.241881 0.908277 0.745223
202 1 0.335024 0.831625 0.824973
205 1 0.415062 0.752236 0.743117
206 1 0.417595 0.91692 0.910559
207 1 0.587053 0.750133 0.910687
208 1 0.582654 0.912881 0.748224
210 1 0.671951 0.834874 0.830773
213 1 0.749828 0.74941 0.754101
214 1 0.750825 0.921148 0.915199
215 1 0.913989 0.75053 0.923756
216 1 0.918731 0.913616 0.74735
ITEM: TIMESTEP
1800
ITEM: NUMBER OF ATOMS
216
ITEM: BOX BOUNDS pp pp pp
-7.4247890935302152e-02 1.6367247890935268e+01
-7.4247890935302152e-02 1.6367247890935268e+01
-7.4247890935302152e-02 1.6367247890935268e+01
ITEM: ATOMS id type xs ys zs
1 1 0.000100838 -0.00143924 0.0046267
2 1 0.00592171 0.163163 0.164696
3 1 0.17439 -0.00104703 0.167535
4 1 0.165506 0.163708 -0.00430359
5 1 0.0888636 0.0796254 0.0834149
9 1 0.330018 0.00186973 0.00331182
10 1 0.330343 0.166956 0.169582
13 1 0.418642 0.0870243 0.0852495
11 1 0.494165 -0.00108163 0.169455
12 1 0.48715 0.169662 -0.00766018
17 1 0.661311 -0.0010035 0.00416324
18 1 0.650342 0.163044 0.167223
19 1 0.832021 0.0108134 0.167266
20 1 0.838955 0.164157 0.00616394
21 1 0.743986 0.0887374 0.0791726
25 1 0.00173979 0.343852 -0.00361937
27 1 0.171271 0.33214 0.166347
29 1 0.0850762 0.418222 0.0804707
8 1 0.245997 0.252865 0.0802482
33 1 0.329926 0.34375 -0.000252367
37 1 0.415828 0.416686 0.0868931
16 1 0.571983 0.245565 0.0774153
35 1 0.497949 0.331724 0.164304
41 1 0.661483 0.321915 -0.00449093
24 1 0.919511 0.252644 0.0888285
43 1 0.829318 0.325112 0.172444
45 1 0.74807 0.405919 0.0796371
26 1 0.00376092 0.501892 0.16216
28 1 0.166131 0.501257 -0.000996574
49 1 0.0036022 0.66604 -0.00766177
51 1 0.166819 0.664648 0.168564
32 1 0.254519 0.581005 0.0875137
34 1 0.338453 0.500864 0.172309
57 1 0.330513 0.659253 -0.000165947
36 1 0.501159 0.498421 0.00310411
40 1 0.585988 0.588593 0.0835412
42 1 0.66934 0.495295 0.16278
59 1 0.507663 0.671613 0.162969
65 1 0.6677 0.671407 0.00328729
44 1 0.828023 0.493395 0.00428836
48 1 0.91793 0.577975 0.080436
67 1 0.835477 0.660518 0.168561
50 1 0.00489778 0.833418 0.167575
52 1 0.169624 0.826376 0.00786272
53 1 0.0828622 0.746857 0.0806359
56 1 0.245459 0.912682 0.0817778
58 1 0.335549 0.826039 0.161509
61 1 0.418502 0.739997 0.0828024
60 1 0.499653 0.830402 0.00479804
64 1 0.582861 0.91765 0.0862506
66 1 0.665582 0.8349 0.164898
68 1 0.830949 0.837052 -4.04931e-06
69 1 0.755125 0.753135 0.0878171
72 1 0.916501 0.916561 0.086871
73 1 -0.00347796 -0.00344336 0.321765
76 1 0.164502 0.163884 0.338696
77 1 0.0795891 0.0758684 0.41075
7 1 0.25369 0.082931 0.253165
81 1 0.339501 -0.00461109 0.336542
85 1 0.408263 0.0784012 0.424075
15 1 0.57468 0.0819239 0.255367
84 1 0.49144 0.162287 0.340067
89 1 0.668411 0.00136936 0.340833
23 1 0.916473 0.0887596 0.246716
92 1 0.837987 0.170811 0.334235
93 1 0.755106 0.0901775 0.41604
6 1 0.0866795 0.252369 0.248166
97 1 0.00506755 0.338627 0.327167
101 1 0.0732325 0.424974 0.412773
14 1 0.416882 0.252838 0.257181
31 1 0.251193 0.418536 0.25546
80 1 0.24828 0.250754 0.418475
105 1 0.339195 0.338431 0.338704
109 1 0.425256 0.424109 0.419377
39 1 0.58321 0.418302 0.244046
88 1 0.577346 0.244068 0.418685
113 1 0.66076 0.327143 0.333081
22 1 0.739465 0.240439 0.248667
47 1 0.916581 0.42083 0.249476
96 1 0.929131 0.24987 0.412628
117 1 0.747371 0.413332 0.409956
30 1 0.0801292 0.58003 0.247794
100 1 0.163763 0.504416 0.330372
121 1 0.00754296 0.668089 0.334287
38 1 0.42955 0.584593 0.24893
104 1 0.241766 0.581714 0.423147
129 1 0.332005 0.655762 0.331384
108 1 0.510037 0.503414 0.33235
112 1 0.589663 0.589285 0.419053
137 1 0.667313 0.66881 0.329184
46 1 0.75126 0.576209 0.245811
116 1 0.837268 0.505022 0.331376
120 1 0.926081 0.583893 0.418195
54 1 0.0874705 0.91706 0.251455
124 1 0.16891 0.83235 0.331013
125 1 0.0869348 0.755776 0.418495
55 1 0.253391 0.742059 0.24423
62 1 0.419142 0.907394 0.249037
128 1 0.250684 0.917115 0.415099
133 1 0.419272 0.742949 0.422852
63 1 0.591887 0.754713 0.245101
132 1 0.503016 0.830281 0.332589
136 1 0.58476 0.914875 0.420767
70 1 0.741836 0.925937 0.24455
71 1 0.922757 0.748002 0.247868
140 1 0.832441 0.836366 0.324278
141 1 0.749158 0.747042 0.406655
144 1 0.913707 0.915825 0.406523
74 1 0.0116253 0.164703 0.497883
75 1 0.16143 -0.00311786 0.501145
145 1 0.00115852 0.00143814 0.674517
148 1 0.167159 0.163041 0.664575
79 1 0.247618 0.0820037 0.583262
82 1 0.333966 0.163103 0.50306
153 1 0.331812 0.00416377 0.665403
83 1 0.501993 0.00285855 0.496892
87 1 0.590782 0.0846218 0.579817
90 1 0.667244 0.169875 0.499958
156 1 0.505557 0.164875 0.665008
161 1 0.67049 -0.00140622 0.662709
91 1 0.835299 -0.0086081 0.497092
95 1 0.922652 0.0803209 0.581514
164 1 0.834955 0.16934 0.658444
78 1 0.0913664 0.250677 0.579939
99 1 0.164853 0.340837 0.497239
169 1 0.0072423 0.334772 0.655794
86 1 0.414211 0.248769 0.583878
103 1 0.245864 0.421553 0.58105
177 1 0.333207 0.33717 0.663196
107 1 0.49547 0.332496 0.500053
111 1 0.580877 0.410864 0.582631
185 1 0.665881 0.32949 0.667259
94 1 0.749147 0.256296 0.58249
115 1 0.838764 0.334308 0.493204
119 1 0.918573 0.418717 0.576188
98 1 0.000440241 0.50344 0.502544
102 1 0.0768391 0.584919 0.592208
123 1 0.162259 0.667961 0.51064
172 1 0.160268 0.501448 0.673478
193 1 -0.0122496 0.673507 0.674248
106 1 0.332521 0.504657 0.503951
110 1 0.411221 0.57436 0.59246
201 1 0.335369 0.666859 0.6652
114 1 0.669152 0.495794 0.498612
131 1 0.501697 0.661271 0.508139
180 1 0.507236 0.495126 0.663912
209 1 0.670069 0.673694 0.669312
118 1 0.748727 0.587821 0.578608
139 1 0.83226 0.665984 0.494553
188 1 0.821975 0.492963 0.661628
122 1 -0.00735189 0.835794 0.495946
126 1 0.075153 0.919131 0.583366
196 1 0.166184 0.835029 0.663973
127 1 0.245968 0.750948 0.586918
130 1 0.333885 0.831911 0.50158
134 1 0.418448 0.923801 0.586566
135 1 0.584752 0.753055 0.586792
138 1 0.672538 0.826567 0.498919
204 1 0.502898 0.834779 0.668315
142 1 0.750512 0.916054 0.579076
143 1 0.903496 0.751455 0.586161
212 1 0.840638 0.841919 0.673442
146 1 -0.00491016 0.166924 0.831276
147 1 0.169151 -0.00384365 0.833938
149 1 0.0872132 0.08333 0.75583
151 1 0.254228 0.0850253 0.920088
154 1 0.33055 0.17027 0.833265
157 1 0.413283 0.0876513 0.749665
155 1 0.494694 -0.00666491 0.828272
159 1 0.575941 0.0872047 0.91528
162 1 0.669242 0.161333 0.839622
163 1 0.834056 0.00975444 0.835269
165 1 0.753694 0.0896382 0.754313
167 1 0.916205 0.0850164 0.922942
150 1 0.0727492 0.254171 0.91789
171 1 0.165686 0.335669 0.834249
173 1 0.0787435 0.417126 0.752846
152 1 0.246456 0.250423 0.744242
158 1 0.41043 0.26021 0.91751
175 1 0.244981 0.419931 0.914725
181 1 0.417779 0.420302 0.739428
160 1 0.58567 0.2469 0.755201
179 1 0.499549 0.338763 0.828175
183 1 0.587516 0.417001 0.919036
166 1 0.754108 0.24669 0.917467
168 1 0.917365 0.250066 0.744094
187 1 0.832906 0.326243 0.832494
189 1 0.745296 0.415185 0.754891
191 1 0.909174 0.414454 0.916761
170 1 -0.0129306 0.498394 0.831696
174 1 0.0866743 0.57946 0.916339
195 1 0.164221 0.671035 0.829052
176 1 0.251383 0.586429 0.748271
178 1 0.335638 0.500627 0.824329
182 1 0.421294 0.578785 0.918736
184 1 0.591927 0.583716 0.752355
186 1 0.67012 0.500475 0.84009
203 1 0.499237 0.668899 0.838757
190 1 0.75128 0.585851 0.921278
192 1 0.906265 0.576874 0.746339
211 1 0.832083 0.667787 0.829216
194 1 0.005693 0.836942 0.836077
197 1 0.0823437 0.754859 0.748796
198 1 0.087194 0.909215 0.921027
199 1 0.24768 0.746696 0.919074
200 1 0.254513 0.913478 0.752913
202 1 0.328551 0.831511 0.838918
205 1 0.419867 0.754018 0.747106
206 1 0.418332 0.910555 0.917481
207 1 0.583384 0.751696 0.923933
208 1 0.586427 0.915665 0.749294
210 1 0.662771 0.838576 0.836571
213 1 0.754645 0.754042 0.747135
214 1 0.749076 0.921856 0.915578
215 1 0.916561 0.743815 0.911034
216 1 0.917841 0.92277 0.758994
ITEM: TIMESTEP
1900
ITEM: NUMBER OF ATOMS
216
ITEM: BOX BOUNDS pp pp pp
-6.3398094577381769e-02 1.6356398094577322e+01
-6.3398094577381769e-02 1.6356398094577322e+01
-6.3398094577381769e-02 1.6356398094577322e+01
ITEM: ATOMS id type xs ys zs
1 1 0.00183891 0.00877581 -0.00407658
2 1 -0.00529442 0.172903 0.169874
3 1 0.165881 -0.00681536 0.169532
4 1 0.17018 0.170596 0.00508641
5 1 0.0877523 0.0832821 0.0863108
9 1 0.333284 -0.00273447 0.00252449
10 1 0.337913 0.165503 0.167251
13 1 0.416523 0.0735946 0.0877315
11 1 0.501792 -0.00679673 0.170582
12 1 0.501259 0.163907 0.00932043
17 1 0.666062 -0.00242029 -0.00196163
18 1 0.675524 0.169073 0.167384
19 1 0.838603 -0.00546741 0.165522
20 1 0.821077 0.165013 -0.00915218
21 1 0.750896 0.0764475 0.0826609
25 1 -0.00699247 0.332013 -0.00423486
27 1 0.16098 0.336927 0.165173
29 1 0.0804047 0.415396 0.0770708
8 1 0.254415 0.252964 0.0832707
33 1 0.336149 0.328362 -0.000742669
37 1 0.417662 0.417788 0.0805059
16 1 0.585822 0.247291 0.0873152
35 1 0.496745 0.329334 0.163308
41 1 0.666191 0.332415 0.00162798
24 1 0.915977 0.243485 0.0721234
43 1 0.8326 0.332113 0.158501
45 1 0.748477 0.421312 0.0773319
26 1 0.00202385 0.498205 0.170806
28 1 0.164587 0.495026 -0.00678022
49 1 -0.00331139 0.665098 0.00468463
51 1 0.165463 0.662722 0.165432
32 1 0.248118 0.580811 0.0761106
34 1 0.333167 0.498564 0.160413
57 1 0.336711 0.676156 0.00277621
36 1 0.50251 0.502657 -0.000756645
40 1 0.581334 0.577354 0.0857885
42 1 0.671942 0.502007 0.168903
59 1 0.498816 0.662905 0.172578
65 1 0.667283 0.663621 -4.58181e-05
44 1 0.83732 0.497139 -0.0111437
48 1 0.917416 0.578464 0.0820932
67 1 0.833317 0.671529 0.157286
50 1 0.00329178 0.832691 0.161934
52 1 0.172239 0.830401 -0.000549464
53 1 0.0872352 0.749858 0.0836855
56 1 0.251297 0.908303 0.0890737
58 1 0.336994 0.829928 0.174341
61 1 0.418479 0.75184 0.0926601
60 1 0.500458 0.83469 0.000989362
64 1 0.583612 0.909358 0.0881703
66 1 0.667808 0.83025 0.170297
68 1 0.834281 0.83029 -0.00113801
69 1 0.741021 0.750215 0.0821251
72 1 0.922995 0.91912 0.0832977
73 1 0.00399306 0.00518332 0.337981
76 1 0.170897 0.167329 0.330772
77 1 0.0827354 0.0907713 0.415372
7 1 0.250479 0.0737377 0.253266
81 1 0.334496 0.0038256 0.341178
85 1 0.42328 0.0842207 0.420374
15 1 0.587984 0.0815135 0.249332
84 1 0.504061 0.165351 0.338649
89 1 0.664929 -0.0038438 0.32993
23 1 0.921193 0.0753113 0.254015
92 1 0.830849 0.157173 0.321734
93 1 0.745894 0.0790954 0.413013
6 1 0.0844836 0.247983 0.248833
97 1 0.000247784 0.331 0.335128
101 1 0.0891432 0.414521 0.419771
14 1 0.421886 0.24511 0.249851
31 1 0.25035 0.419647 0.24611
80 1 0.257196 0.244602 0.421644
105 1 0.330731 0.328805 0.327581
109 1 0.410419 0.409484 0.420521
39 1 0.580878 0.410054 0.252887
88 1 0.587704 0.255427 0.416359
113 1 0.66773 0.331642 0.329641
22 1 0.75365 0.252487 0.251688
47 1 0.920621 0.406681 0.245614
96 1 0.906514 0.252868 0.410624
117 1 0.755384 0.420705 0.41519
30 1 0.0901682 0.58324 0.250421
100 1 0.171696 0.499967 0.33839
121 1 0.000334194 0.659671 0.332939
38 1 0.417119 0.583137 0.247341
104 1 0.259016 0.584607 0.420079
129 1 0.339112 0.672493 0.337474
108 1 0.492116 0.491738 0.33589
112 1 0.581727 0.575473 0.407317
137 1 0.675249 0.665311 0.333291
46 1 0.755641 0.587977 0.250401
116 1 0.836174 0.492658 0.327295
120 1 0.912593 0.583467 0.416981
54 1 0.0821167 0.915884 0.248483
124 1 0.167703 0.832314 0.33408
125 1 0.0797766 0.743777 0.418023
55 1 0.245817 0.753303 0.255562
62 1 0.416916 0.919631 0.26009
128 1 0.248853 0.919647 0.418255
133 1 0.423828 0.75748 0.412435
63 1 0.586523 0.744226 0.250867
132 1 0.511764 0.835805 0.33161
136 1 0.586972 0.918663 0.421497
70 1 0.757045 0.910538 0.253713
71 1 0.916668 0.74827 0.251406
140 1 0.841163 0.830589 0.343464
141 1 0.755446 0.748603 0.424551
144 1 0.921229 0.923146 0.423105
74 1 -0.00922071 0.171885 0.491788
75 1 0.171438 0.00675912 0.502585
145 1 -0.00626643 -0.000357568 0.665538
148 1 0.157133 0.171736 0.663604
79 1 0.246365 0.0875298 0.589162
82 1 0.331434 0.16237 0.501999
153 1 0.326344 0.00282238 0.670149
83 1 0.502876 0.00369539 0.504384
87 1 0.575896 0.0851083 0.588989
90 1 0.660971 0.166117 0.500061
156 1 0.492884 0.169358 0.667148
161 1 0.662901 0.000531007 0.669034
91 1 0.82979 0.00311865 0.499064
95 1 0.91263 0.0817388 0.581599
164 1 0.827529 0.169157 0.67003
78 1 0.071587 0.244707 0.584003
99 1 0.16487 0.323866 0.505717
169 1 -0.00762714 0.331443 0.66983
86 1 0.415324 0.258557 0.581568
103 1 0.25465 0.412781 0.587171
177 1 0.32979 0.331689 0.670521
107 1 0.503141 0.334787 0.502648
111 1 0.57779 0.424396 0.584852
185 1 0.665114 0.339776 0.659639
94 1 0.746301 0.246778 0.580785
115 1 0.829168 0.332416 0.501896
119 1 0.917944 0.425599 0.578355
98 1 0.00161684 0.499058 0.492601
102 1 0.0904802 0.584253 0.56962
123 1 0.178903 0.673058 0.494374
172 1 0.171599 0.505005 0.663565
193 1 0.0139188 0.667955 0.661123
106 1 0.335975 0.500445 0.499804
110 1 0.417424 0.589281 0.58343
201 1 0.33533 0.672794 0.666142
114 1 0.661551 0.502392 0.49819
131 1 0.50692 0.665482 0.499869
180 1 0.490561 0.501171 0.668973
209 1 0.665284 0.664603 0.661745
118 1 0.753024 0.584403 0.582314
139 1 0.833081 0.66704 0.503267
188 1 0.841067 0.513117 0.666959
122 1 0.00650349 0.836955 0.502578
126 1 0.0885438 0.920661 0.588312
196 1 0.168369 0.837428 0.673867
127 1 0.253711 0.75312 0.591957
130 1 0.331951 0.837997 0.507672
134 1 0.420961 0.919898 0.592568
135 1 0.588464 0.752577 0.58381
138 1 0.66725 0.833124 0.505824
204 1 0.502003 0.829838 0.667796
142 1 0.754144 0.914616 0.585682
143 1 0.925479 0.75275 0.580539
212 1 0.826801 0.827617 0.65908
146 1 -0.0047145 0.163491 0.833054
147 1 0.158976 0.00719196 0.835944
149 1 0.0765077 0.085201 0.742002
151 1 0.2446 0.0849078 0.916681
154 1 0.326166 0.164763 0.837114
157 1 0.412008 0.0801084 0.750438
155 1 0.49978 0.00191632 0.837404
159 1 0.584671 0.0851204 0.916352
162 1 0.661663 0.171209 0.825259
163 1 0.834775 -0.00420221 0.83315
165 1 0.745896 0.0807962 0.752417
167 1 0.910987 0.085495 0.911956
150 1 0.0875921 0.249393 0.911787
171 1 0.15864 0.336176 0.82863
173 1 0.0807689 0.416209 0.735019
152 1 0.242738 0.252927 0.753618
158 1 0.413581 0.238781 0.916161
175 1 0.252222 0.412975 0.917719
181 1 0.411767 0.416796 0.755654
160 1 0.582189 0.256819 0.741759
179 1 0.491538 0.334639 0.837663
183 1 0.581589 0.413794 0.914909
166 1 0.742035 0.247041 0.907384
168 1 0.908132 0.253185 0.756489
187 1 0.825415 0.341022 0.829808
189 1 0.748856 0.421708 0.745364
191 1 0.920133 0.416233 0.907647
170 1 0.00304727 0.503589 0.828337
174 1 0.0808377 0.585533 0.914818
195 1 0.167046 0.665479 0.833933
176 1 0.251021 0.586576 0.750295
178 1 0.331189 0.500225 0.840186
182 1 0.410561 0.587835 0.920291
184 1 0.574589 0.578958 0.746788
186 1 0.665771 0.494877 0.825915
203 1 0.50283 0.668222 0.841116
190 1 0.749437 0.579178 0.909027
192 1 0.920942 0.593927 0.746968
211 1 0.834607 0.66654 0.832204
194 1 -0.00120131 0.834407 0.826562
197 1 0.0874935 0.74964 0.751184
198 1 0.0857068 0.920079 0.924533
199 1 0.256217 0.753537 0.919444
200 1 0.250897 0.925644 0.752564
202 1 0.332043 0.835349 0.835849
205 1 0.412055 0.747593 0.757863
206 1 0.411061 0.919483 0.919342
207 1 0.583993 0.752431 0.920888
208 1 0.577806 0.917689 0.74977
210 1 0.663856 0.829251 0.833571
213 1 0.748189 0.746385 0.746744
214 1 0.751499 0.917186 0.916767
215 1 0.919416 0.760766 0.914612
216 1 0.910284 0.915162 0.740381
ITEM: TIMESTEP
2000
ITEM: NUMBER OF ATOMS
216
ITEM: BOX BOUNDS pp pp pp
-7.2790802932537702e-02 1.6365790802932530e+01
-7.2790802932537702e-02 1.6365790802932530e+01
-7.2790802932537702e-02 1.6365790802932530e+01
ITEM: ATOMS id type xs ys zs
1 1 -0.0151336 -0.00990007 -0.00242473
2 1 -0.00611999 0.158977 0.166465
3 1 0.160603 0.0089684 0.169674
4 1 0.16253 0.162589 -0.00599819
5 1 0.0699534 0.0792033 0.0793336
9 1 0.335114 0.0030727 -0.00116644
10 1 0.33254 0.171061 0.165588
13 1 0.420797 0.0897092 0.0812178
11 1 0.505894 0.0031532 0.162132
12 1 0.505518 0.168714 -0.00544495
17 1 0.670307 -3.32579e-05 -0.000122146
18 1 0.673412 0.167765 0.160805
19 1 0.832851 0.00123328 0.170152
20 1 0.842349 0.169124 0.00031928
21 1 0.758105 0.0865695 0.081852
25 1 0.000742417 0.335319 0.00280944
27 1 0.16894 0.323945 0.167023
29 1 0.0859532 0.414501 0.089782
8 1 0.245554 0.241976 0.0809952
33 1 0.328795 0.329412 0.0039157
37 1 0.415638 0.407419 0.0870684
16 1 0.588273 0.256953 0.0836086
35 1 0.503597 0.332768 0.171025
41 1 0.67109 0.337381 -0.00189859
24 1 0.915255 0.25545 0.0839091
43 1 0.835068 0.336157 0.170119
45 1 0.758478 0.419909 0.0848219
26 1 -0.00125116 0.499431 0.162497
28 1 0.168954 0.502649 0.00655919
49 1 0.00562469 0.673035 0.000690113
51 1 0.166168 0.676032 0.170798
32 1 0.250186 0.583848 0.0932411
34 1 0.33514 0.493704 0.173265
57 1 0.331758 0.666249 -0.000233251
36 1 0.492201 0.496792 0.00214666
40 1 0.582953 0.589808 0.0793024
42 1 0.663288 0.501466 0.160732
59 1 0.499964 0.668218 0.164621
65 1 0.669927 0.671572 -0.00152337
44 1 0.834855 0.509922 0.00243399
48 1 0.915928 0.588271 0.0805996
67 1 0.832818 0.659542 0.173194
50 1 0.000563531 0.833656 0.172441
52 1 0.162023 0.840602 0.00195542
53 1 0.0835423 0.752798 0.0855144
56 1 0.247631 0.930787 0.083976
58 1 0.329343 0.843432 0.162943
61 1 0.418484 0.750903 0.0779216
60 1 0.501911 0.832768 0.00158748
64 1 0.590418 0.916594 0.0811222
66 1 0.671005 0.827136 0.164245
68 1 0.83293 0.826868 0.00387356
69 1 0.75785 0.744102 0.0846813
72 1 0.910669 0.909974 0.0830111
73 1 -0.00911656 -0.00228429 0.334928
76 1 0.158315 0.167011 0.333412
77 1 0.0792652 0.0799813 0.421675
7 1 0.245915 0.089812 0.254148
81 1 0.333145 0.00279631 0.326747
85 1 0.41369 0.0855495 0.407659
15 1 0.587038 0.0857793 0.247804
84 1 0.500496 0.168493 0.3272
89 1 0.670963 -0.00158887 0.335694
23 1 0.909201 0.086989 0.2517
92 1 0.834277 0.176044 0.337472
93 1 0.756086 0.0860537 0.420111
6 1 0.0753816 0.247868 0.249126
97 1 -0.004017 0.333142 0.328346
101 1 0.078937 0.416663 0.406326
14 1 0.418666 0.253416 0.246104
31 1 0.248112 0.406915 0.249806
80 1 0.242773 0.254686 0.406075
105 1 0.336273 0.333753 0.334398
109 1 0.420985 0.419412 0.410118
39 1 0.587679 0.415418 0.248309
88 1 0.580998 0.250184 0.411622
113 1 0.667824 0.33074 0.332529
22 1 0.750869 0.252955 0.2484
47 1 0.912508 0.424383 0.250284
96 1 0.919554 0.251586 0.421731
117 1 0.744164 0.410107 0.415196
30 1 0.0804521 0.584251 0.246399
100 1 0.164006 0.498719 0.324356
121 1 0.00671634 0.668028 0.331521
38 1 0.414191 0.581459 0.251002
104 1 0.241689 0.577966 0.406547
129 1 0.323763 0.658101 0.328802
108 1 0.505758 0.507475 0.331831
112 1 0.585323 0.58902 0.422604
137 1 0.66099 0.667435 0.334439
46 1 0.745492 0.581389 0.252361
116 1 0.83575 0.505404 0.33818
120 1 0.92059 0.58272 0.415877
54 1 0.0835877 0.920168 0.251711
124 1 0.170841 0.841425 0.33619
125 1 0.0939157 0.751802 0.413983
55 1 0.258546 0.753572 0.249622
62 1 0.414124 0.921563 0.244956
128 1 0.256636 0.921008 0.414446
133 1 0.407779 0.74508 0.415061
63 1 0.57803 0.749867 0.251341
132 1 0.493791 0.833666 0.333177
136 1 0.580611 0.915319 0.415846
70 1 0.749915 0.914654 0.245554
71 1 0.919431 0.74867 0.252004
140 1 0.827233 0.831578 0.330865
141 1 0.749297 0.748541 0.416258
144 1 0.913374 0.912735 0.41499
74 1 0.00451399 0.167866 0.513948
75 1 0.170531 -0.000194707 0.498031
145 1 0.00278298 0.00139751 0.669928
148 1 0.173747 0.163989 0.667968
79 1 0.253883 0.0854092 0.584735
82 1 0.332631 0.168609 0.497502
153 1 0.337486 0.00276368 0.666804
83 1 0.495493 0.000175818 0.494022
87 1 0.583172 0.0810238 0.57934
90 1 0.667743 0.168241 0.501301
156 1 0.502643 0.163594 0.667437
161 1 0.665738 -0.000816877 0.667355
91 1 0.836377 -0.00592955 0.503117
95 1 0.916106 0.0854889 0.58646
164 1 0.828236 0.167189 0.665103
78 1 0.0920352 0.25562 0.589374
99 1 0.163382 0.336502 0.492034
169 1 0.00467688 0.335492 0.665355
86 1 0.416173 0.247026 0.582379
103 1 0.25067 0.421436 0.57662
177 1 0.334064 0.334344 0.672035
107 1 0.503715 0.334795 0.492999
111 1 0.584749 0.41034 0.582072
185 1 0.665362 0.334826 0.67109
94 1 0.746047 0.258336 0.583998
115 1 0.831223 0.332369 0.49951
119 1 0.914099 0.409335 0.586978
98 1 0.00312609 0.500965 0.498959
102 1 0.0823181 0.581958 0.58772
123 1 0.166109 0.659265 0.498288
172 1 0.166418 0.492248 0.669078
193 1 -0.00509565 0.663572 0.670424
106 1 0.333216 0.498365 0.491004
110 1 0.414605 0.578633 0.586163
201 1 0.327515 0.663296 0.665191
114 1 0.668436 0.500478 0.506188
131 1 0.491056 0.669731 0.507712
180 1 0.50212 0.497998 0.663876
209 1 0.667129 0.669783 0.663196
118 1 0.751033 0.586226 0.583153
139 1 0.840029 0.665006 0.496023
188 1 0.827224 0.492371 0.666898
122 1 -0.00291701 0.829136 0.498281
126 1 0.0780047 0.915106 0.58374
196 1 0.169477 0.829688 0.65947
127 1 0.24728 0.741059 0.576219
130 1 0.328424 0.832869 0.49787
134 1 0.413335 0.919929 0.579054
135 1 0.579529 0.750369 0.582456
138 1 0.665534 0.83092 0.496642
204 1 0.499739 0.836795 0.663429
142 1 0.747745 0.912327 0.585183
143 1 0.912724 0.746232 0.582787
212 1 0.837088 0.837696 0.668242
146 1 -0.001434 0.16491 0.831419
147 1 0.171405 0.000146951 0.829786
149 1 0.0831648 0.0861661 0.748691
151 1 0.252698 0.0842082 0.918053
154 1 0.34009 0.168999 0.834931
157 1 0.418619 0.0811105 0.758629
155 1 0.500182 2.82958e-05 0.839626
159 1 0.58884 0.078668 0.91847
162 1 0.670684 0.164357 0.844199
163 1 0.831725 -0.000437042 0.831377
165 1 0.745187 0.086187 0.751278
167 1 0.913239 0.0771501 0.916503
150 1 0.0800469 0.248111 0.918615
171 1 0.175477 0.331299 0.835835
173 1 0.0872051 0.41305 0.765649
152 1 0.255969 0.242314 0.753044
158 1 0.415334 0.259319 0.921576
175 1 0.250234 0.415235 0.922572
181 1 0.419479 0.419297 0.746955
160 1 0.586198 0.244911 0.760569
179 1 0.500298 0.332485 0.833916
183 1 0.582914 0.425141 0.917525
166 1 0.758835 0.254745 0.921835
168 1 0.922148 0.254039 0.744232
187 1 0.837576 0.334376 0.834607
189 1 0.748964 0.411666 0.751291
191 1 0.910419 0.421316 0.923249
170 1 0.00145052 0.497315 0.838619
174 1 0.0886355 0.584962 0.916569
195 1 0.171454 0.672714 0.833935
176 1 0.253651 0.584357 0.749915
178 1 0.332038 0.49566 0.833797
182 1 0.414221 0.580918 0.914206
184 1 0.585008 0.58618 0.749455
186 1 0.666738 0.505989 0.835783
203 1 0.491811 0.665052 0.826348
190 1 0.753174 0.585765 0.918771
192 1 0.918342 0.575798 0.749485
211 1 0.8348 0.660559 0.831489
194 1 -0.00331992 0.828539 0.83107
197 1 0.0838598 0.749901 0.74679
198 1 0.0773483 0.913799 0.91247
199 1 0.245102 0.752617 0.919891
200 1 0.250328 0.912156 0.74792
202 1 0.335839 0.835529 0.836205
205 1 0.410128 0.75245 0.744796
206 1 0.424084 0.91457 0.920049
207 1 0.582805 0.7454 0.914387
208 1 0.582452 0.915614 0.753731
210 1 0.667511 0.829665 0.833242
213 1 0.753798 0.752115 0.752381
214 1 0.75077 0.910524 0.916168
215 1 0.913938 0.736442 0.916924
216 1 0.917255 0.916329 0.75243
ITEM: TIMESTEP
2100
ITEM: NUMBER OF ATOMS
216
ITEM: BOX BOUNDS pp pp pp
-6.4090884053261021e-02 1.6357090884053250e+01
-6.4090884053261021e-02 1.6357090884053250e+01
-6.4090884053261021e-02 1.6357090884053250e+01
ITEM: ATOMS id type xs ys zs
1 1 0.00909082 0.00323619 0.00548038
2 1 0.00338156 0.17106 0.170473
3 1 0.172682 -0.00828833 0.162621
4 1 0.176412 0.170147 0.00480275
5 1 0.0926558 0.0879835 0.084282
9 1 0.333966 -0.00234855 -0.00693806
10 1 0.327015 0.167839 0.168015
13 1 0.409734 0.0832724 0.0806493
11 1 0.49247 -0.000117708 0.167987
12 1 0.504073 0.164029 -0.00695158
17 1 0.661039 0.00542249 -0.00179683
18 1 0.661765 0.168912 0.177104
19 1 0.833014 -0.00216269 0.165946
20 1 0.832901 0.164244 0.00344426
21 1 0.745484 0.0829308 0.0872983
25 1 0.00375514 0.332401 0.000954441
27 1 0.168798 0.335524 0.165869
29 1 0.0833964 0.4198 0.0845441
8 1 0.255313 0.260905 0.0809971
33 1 0.336878 0.338529 -0.00237578
37 1 0.417313 0.419595 0.0774268
16 1 0.577402 0.250026 0.0909466
35 1 0.496638 0.341972 0.165408
41 1 0.666926 0.332222 0.000186256
24 1 0.911636 0.24675 0.0928584
43 1 0.830152 0.330901 0.17484
45 1 0.750658 0.415518 0.0862167
26 1 -0.0020155 0.503621 0.171856
28 1 0.167797 0.494551 -0.00449709
49 1 -0.00558571 0.664344 -0.00129262
51 1 0.165804 0.663338 0.160627
32 1 0.253877 0.589244 0.0765315
34 1 0.333008 0.506117 0.164195
57 1 0.335076 0.663412 -0.0109937
36 1 0.504898 0.504756 -0.00186938
40 1 0.582698 0.585998 0.0842087
42 1 0.66539 0.502 0.175925
59 1 0.497798 0.667991 0.166893
65 1 0.666881 0.662755 0.00193014
44 1 0.831477 0.495309 0.00251675
48 1 0.912407 0.581971 0.0855816
67 1 0.829833 0.676593 0.160031
50 1 -0.000713589 0.836085 0.158134
52 1 0.170843 0.822922 -0.000207115
53 1 0.0793064 0.750424 0.0794026
56 1 0.253145 0.911169 0.0747978
58 1 0.335618 0.830527 0.16764
61 1 0.416056 0.753233 0.0819581
60 1 0.492677 0.839532 -0.00856467
64 1 0.572077 0.920036 0.0760414
66 1 0.662774 0.840106 0.166409
68 1 0.830758 0.839284 0.000782792
69 1 0.74431 0.755252 0.0791862
72 1 0.915347 0.924233 0.0806323
73 1 0.00120459 -0.00274929 0.329227
76 1 0.176985 0.168451 0.332314
77 1 0.0900405 0.0871166 0.411002
7 1 0.25352 0.080048 0.245729
81 1 0.327931 -0.00704885 0.333657
85 1 0.417452 0.0736027 0.416136
15 1 0.574537 0.0883994 0.249649
84 1 0.496591 0.174176 0.334131
89 1 0.660508 -0.000713758 0.331
23 1 0.916167 0.0822749 0.248539
92 1 0.830334 0.164093 0.334002
93 1 0.745728 0.0840221 0.416067
6 1 0.0926903 0.254975 0.255889
97 1 -0.00153133 0.333626 0.341848
101 1 0.0889782 0.415262 0.422451
14 1 0.414719 0.253655 0.248014
31 1 0.248821 0.424454 0.253898
80 1 0.253411 0.250347 0.420669
105 1 0.333476 0.332428 0.329168
109 1 0.410549 0.4089 0.421545
39 1 0.580263 0.416273 0.25238
88 1 0.587672 0.251559 0.41853
113 1 0.665848 0.336242 0.338452
22 1 0.747121 0.250827 0.257172
47 1 0.920126 0.414375 0.254619
96 1 0.911569 0.246476 0.418563
117 1 0.753626 0.41628 0.423865
30 1 0.0854867 0.581904 0.259554
100 1 0.171591 0.503222 0.343587
121 1 -0.0142511 0.665319 0.338902
38 1 0.410725 0.590851 0.255031
104 1 0.252682 0.594859 0.421862
129 1 0.332313 0.669076 0.332576
108 1 0.488029 0.491537 0.330215
112 1 0.582104 0.581849 0.414013
137 1 0.666277 0.672038 0.332205
46 1 0.753608 0.589099 0.250151
116 1 0.83258 0.502654 0.333836
120 1 0.908571 0.588386 0.419992
54 1 0.078853 0.911357 0.251906
124 1 0.158651 0.828823 0.330848
125 1 0.0747124 0.749939 0.420286
55 1 0.246427 0.742407 0.247501
62 1 0.414557 0.917054 0.250825
128 1 0.243334 0.912921 0.410386
133 1 0.418982 0.752346 0.417752
63 1 0.584449 0.751613 0.248621
132 1 0.498634 0.839391 0.329736
136 1 0.579569 0.918112 0.415667
70 1 0.74846 0.921162 0.253848
71 1 0.910984 0.756068 0.247449
140 1 0.832382 0.842334 0.338698
141 1 0.742746 0.753123 0.416537
144 1 0.914461 0.919246 0.418725
74 1 -0.000905615 0.165734 0.494667
75 1 0.165489 -0.00369926 0.499526
145 1 -0.00110454 -0.000684914 0.665617
148 1 0.167944 0.16799 0.669339
79 1 0.247897 0.0818687 0.584084
82 1 0.335807 0.158484 0.499808
153 1 0.334884 -0.00363392 0.661133
83 1 0.499519 -0.00606529 0.500702
87 1 0.589105 0.0818756 0.583722
90 1 0.668595 0.172155 0.50204
156 1 0.503394 0.164437 0.669825
161 1 0.671795 0.000723211 0.662737
91 1 0.833372 0.00334529 0.501378
95 1 0.923978 0.0774106 0.581239
164 1 0.845213 0.159939 0.667642
78 1 0.0822873 0.244498 0.583609
99 1 0.166615 0.330132 0.50848
169 1 0.00610833 0.328218 0.667031
86 1 0.421564 0.249314 0.582567
103 1 0.248532 0.411318 0.585888
177 1 0.33701 0.332074 0.668013
107 1 0.500386 0.333115 0.501218
111 1 0.585085 0.415124 0.588779
185 1 0.675122 0.329545 0.662563
94 1 0.761004 0.243778 0.589807
115 1 0.834817 0.330294 0.504777
119 1 0.914655 0.408515 0.591885
98 1 -0.00897748 0.499841 0.501621
102 1 0.0840816 0.588154 0.585038
123 1 0.165558 0.671263 0.503368
172 1 0.162524 0.502967 0.67038
193 1 -0.00329236 0.666855 0.663925
106 1 0.330034 0.504923 0.502515
110 1 0.414373 0.586291 0.581676
201 1 0.335226 0.667794 0.667451
114 1 0.665259 0.492851 0.500781
131 1 0.50374 0.665873 0.490913
180 1 0.500813 0.499958 0.664764
209 1 0.657821 0.662045 0.672487
118 1 0.748697 0.579926 0.586412
139 1 0.824865 0.667791 0.502493
188 1 0.833198 0.498391 0.67331
122 1 -0.00659962 0.833489 0.502864
126 1 0.085475 0.915165 0.584561
196 1 0.163454 0.825121 0.666981
127 1 0.250557 0.75349 0.583193
130 1 0.330027 0.835262 0.494954
134 1 0.414758 0.910444 0.577338
135 1 0.583457 0.746694 0.577827
138 1 0.66117 0.839062 0.498218
204 1 0.498642 0.828903 0.665639
142 1 0.747173 0.921089 0.577022
143 1 0.911217 0.744659 0.587868
212 1 0.835129 0.831304 0.666972
146 1 0.0070547 0.163626 0.835336
147 1 0.168267 -0.00181096 0.831947
149 1 0.0928101 0.0802223 0.747281
151 1 0.256661 0.0869433 0.913309
154 1 0.332762 0.166306 0.826042
157 1 0.416624 0.0842146 0.7423
155 1 0.502224 0.00446894 0.827133
159 1 0.58064 0.0823401 0.907009
162 1 0.666284 0.163128 0.829449
163 1 0.841628 0.000388741 0.833515
165 1 0.756191 0.0792729 0.751139
167 1 0.923556 0.0862804 0.923928
150 1 0.0903152 0.250493 0.915052
171 1 0.1699 0.332953 0.831944
173 1 0.0783386 0.414746 0.743821
152 1 0.248716 0.25002 0.744874
158 1 0.416023 0.246056 0.913377
175 1 0.25486 0.415488 0.911183
181 1 0.419476 0.418634 0.75369
160 1 0.587864 0.254801 0.742116
179 1 0.501035 0.331256 0.830621
183 1 0.582866 0.411081 0.914334
166 1 0.747916 0.243323 0.91419
168 1 0.920586 0.246283 0.753412
187 1 0.834968 0.33281 0.836768
189 1 0.75213 0.412625 0.749545
191 1 0.922475 0.418751 0.916835
170 1 -8.49116e-06 0.499761 0.829954
174 1 0.0790617 0.581871 0.922444
195 1 0.162516 0.657808 0.833989
176 1 0.249222 0.582366 0.752771
178 1 0.33788 0.503393 0.829447
182 1 0.425015 0.581249 0.912339
184 1 0.579964 0.579715 0.753279
186 1 0.673953 0.499399 0.832405
203 1 0.506481 0.668112 0.834387
190 1 0.750679 0.582456 0.925551
192 1 0.916044 0.586114 0.757917
211 1 0.830487 0.672153 0.842247
194 1 0.00369957 0.835028 0.835385
197 1 0.0829308 0.745605 0.753208
198 1 0.0860969 0.918974 0.916702
199 1 0.249921 0.744079 0.904514
200 1 0.253121 0.91149 0.744646
202 1 0.335572 0.830062 0.827907
205 1 0.421645 0.74414 0.747514
206 1 0.4158 0.921452 0.903815
207 1 0.58283 0.755982 0.91947
208 1 0.588452 0.921238 0.748078
210 1 0.669527 0.83811 0.830869
213 1 0.748968 0.748179 0.746526
214 1 0.74929 0.919438 0.917212
215 1 0.916829 0.756129 0.92258
216 1 0.923961 0.916445 0.748677
ITEM: TIMESTEP
2200
ITEM: NUMBER OF ATOMS
216
ITEM: BOX BOUNDS pp pp pp
-6.4978976623212503e-02 1.6357978976623215e+01
-6.4978976623212503e-02 1.6357978976623215e+01
-6.4978976623212503e-02 1.6357978976623215e+01
ITEM: ATOMS id type xs ys zs
1 1 0.00232906 0.00185799 0.000611777
2 1 0.00576918 0.168981 0.164075
3 1 0.166596 0.00714083 0.169505
4 1 0.166517 0.174495 0.00413183
5 1 0.0854606 0.0817807 0.0791747
9 1 0.33254 -0.00721955 -0.00137729
10 1 0.335058 0.172163 0.170286
13 1 0.415297 0.0775754 0.0852289
11 1 0.499244 -0.00536901 0.170554
12 1 0.49803 0.16659 -0.00469697
17 1 0.664583 0.00728987 -0.00444359
18 1 0.667854 0.166423 0.16317
19 1 0.835018 0.00252444 0.163321
20 1 0.83583 0.169037 0.00176702
21 1 0.751451 0.0859519 0.080586
25 1 -0.00133525 0.334938 0.00352038
27 1 0.170439 0.336235 0.165086
29 1 0.083519 0.417698 0.0855846
8 1 0.252373 0.250261 0.0869785
33 1 0.330861 0.333272 0.00246326
37 1 0.421332 0.414214 0.0857267
16 1 0.5814 0.249468 0.0830396
35 1 0.496286 0.328233 0.172828
41 1 0.670219 0.329391 0.00548659
24 1 0.921728 0.248503 0.0803045
43 1 0.836004 0.330115 0.160233
45 1 0.75241 0.418016 0.0862548
26 1 -0.00485653 0.495754 0.164657
28 1 0.160169 0.505731 -0.0028319
49 1 -0.000529801 0.663873 0.00293767
51 1 0.162243 0.667036 0.166339
32 1 0.242283 0.574275 0.0854297
34 1 0.336539 0.497448 0.166489
57 1 0.332608 0.664839 0.00701629
36 1 0.497888 0.499393 0.00366061
40 1 0.589143 0.579107 0.0775218
42 1 0.664629 0.495986 0.161861
59 1 0.503611 0.660643 0.165411
65 1 0.671251 0.668937 7.44013e-06
44 1 0.830714 0.502002 -0.00167171
48 1 0.914784 0.582046 0.0823322
67 1 0.831445 0.65974 0.166622
50 1 0.000160649 0.833606 0.16542
52 1 0.163712 0.835498 -0.000268978
53 1 0.0834649 0.746486 0.0834742
56 1 0.24983 0.914162 0.0851113
58 1 0.330116 0.83246 0.167156
61 1 0.41954 0.746683 0.085663
60 1 0.50459 0.831125 0.00269246
64 1 0.584914 0.917214 0.0860539
66 1 0.668152 0.834387 0.169458
68 1 0.838543 0.834973 0.00173657
69 1 0.751164 0.749704 0.0858249
72 1 0.923831 0.919971 0.0883228
73 1 -0.00126634 -0.000348924 0.332248
76 1 0.166592 0.163149 0.329286
77 1 0.0793272 0.0781081 0.416459
7 1 0.253575 0.0840076 0.254202
81 1 0.335736 0.00105379 0.331371
85 1 0.415121 0.0847916 0.41757
15 1 0.586591 0.0784093 0.248109
84 1 0.501491 0.161996 0.33547
89 1 0.663786 -0.000137511 0.331773
23 1 0.919252 0.0839566 0.249116
92 1 0.838397 0.1744 0.327772
93 1 0.755765 0.079824 0.413454
6 1 0.0833719 0.249933 0.244541
97 1 0.00489514 0.33397 0.329745
101 1 0.087359 0.416723 0.41526
14 1 0.416184 0.250039 0.25481
31 1 0.246651 0.41991 0.252922
80 1 0.244596 0.253701 0.415079
105 1 0.332947 0.336827 0.337349
109 1 0.422044 0.423752 0.414696
39 1 0.581381 0.411261 0.248064
88 1 0.577335 0.248961 0.418042
113 1 0.662666 0.326731 0.32636
22 1 0.749324 0.249217 0.242534
47 1 0.91124 0.411422 0.247146
96 1 0.92124 0.256499 0.415142
117 1 0.74954 0.414514 0.412379
30 1 0.0786359 0.583108 0.243969
100 1 0.161205 0.501465 0.332726
121 1 0.00205722 0.663869 0.33477
38 1 0.419644 0.582849 0.243849
104 1 0.246039 0.575815 0.413138
129 1 0.331526 0.661889 0.339075
108 1 0.508173 0.506461 0.330953
112 1 0.585678 0.589723 0.417832
137 1 0.669789 0.665307 0.330331
46 1 0.744641 0.578014 0.254408
116 1 0.832876 0.494299 0.336533
120 1 0.91439 0.58243 0.413991
54 1 0.0862307 0.917723 0.242246
124 1 0.173474 0.83642 0.333678
125 1 0.0844908 0.74634 0.414051
55 1 0.248063 0.749876 0.255416
62 1 0.413787 0.915262 0.25123
128 1 0.259743 0.91249 0.420189
133 1 0.414067 0.745473 0.413277
63 1 0.580201 0.747237 0.250215
132 1 0.501514 0.833701 0.335871
136 1 0.588331 0.914429 0.418697
70 1 0.755029 0.922407 0.248374
71 1 0.915474 0.74686 0.251527
140 1 0.827721 0.829243 0.327254
141 1 0.758334 0.746304 0.414786
144 1 0.914738 0.915287 0.407807
74 1 -0.00244829 0.16741 0.502021
75 1 0.171805 -0.00701172 0.496331
145 1 -0.00444102 0.000870574 0.666982
148 1 0.161629 0.167279 0.661783
79 1 0.241902 0.0795531 0.583587
82 1 0.322211 0.172983 0.499009
153 1 0.334357 0.00270647 0.665782
83 1 0.505885 0.000859162 0.498809
87 1 0.578141 0.0810908 0.585852
90 1 0.667026 0.166287 0.497612
156 1 0.49759 0.169764 0.665484
161 1 0.666739 0.00110885 0.670877
91 1 0.839096 -0.00144819 0.498874
95 1 0.910868 0.0813965 0.585101
164 1 0.827198 0.171234 0.660496
78 1 0.0832896 0.253203 0.585135
99 1 0.162483 0.327956 0.496246
169 1 -0.00222884 0.334932 0.665356
86 1 0.41406 0.255523 0.581962
103 1 0.248017 0.415853 0.58033
177 1 0.327088 0.32968 0.668375
107 1 0.503548 0.337191 0.501056
111 1 0.584407 0.415826 0.582973
185 1 0.662998 0.337178 0.667821
94 1 0.743492 0.256633 0.575964
115 1 0.833896 0.334138 0.494724
119 1 0.916259 0.420487 0.57833
98 1 0.00339996 0.502731 0.497262
102 1 0.0811168 0.586575 0.586127
123 1 0.167705 0.662938 0.496597
172 1 0.168354 0.499907 0.668438
193 1 0.00352441 0.674094 0.670557
106 1 0.334536 0.501789 0.497003
110 1 0.428605 0.581937 0.585438
201 1 0.335031 0.667684 0.663761
114 1 0.665865 0.502905 0.498002
131 1 0.4978 0.668485 0.507674
180 1 0.506874 0.499759 0.673709
209 1 0.674142 0.670724 0.666588
118 1 0.754953 0.587128 0.579676
139 1 0.845319 0.669207 0.497278
188 1 0.834911 0.49998 0.664425
122 1 -0.000622771 0.834775 0.496421
126 1 0.0784672 0.918392 0.583609
196 1 0.166381 0.838594 0.668542
127 1 0.249381 0.748004 0.58517
130 1 0.336396 0.830175 0.507955
134 1 0.419422 0.921153 0.582527
135 1 0.590997 0.751261 0.582753
138 1 0.673053 0.831277 0.498265
204 1 0.499367 0.834674 0.662642
142 1 0.753982 0.915692 0.585768
143 1 0.921756 0.75557 0.580794
212 1 0.83252 0.834103 0.668613
146 1 0.0015186 0.167573 0.836005
147 1 0.16073 0.00475817 0.838873
149 1 0.0760889 0.0841812 0.745951
151 1 0.247231 0.0835478 0.919933
154 1 0.333406 0.164966 0.830798
157 1 0.419529 0.0781156 0.755085
155 1 0.499633 -0.000540537 0.839076
159 1 0.58143 0.0829697 0.915548
162 1 0.66255 0.166261 0.837435
163 1 0.830481 0.00062909 0.836201
165 1 0.745934 0.0888178 0.745002
167 1 0.917505 0.0843467 0.920113
150 1 0.0873639 0.251955 0.919643
171 1 0.161986 0.332217 0.828764
173 1 0.0792645 0.418734 0.748375
152 1 0.243758 0.245466 0.753261
158 1 0.412976 0.256839 0.911616
175 1 0.251437 0.420194 0.919008
181 1 0.41831 0.414025 0.751865
160 1 0.588177 0.247542 0.749672
179 1 0.503783 0.334708 0.831612
183 1 0.581868 0.419767 0.920275
166 1 0.752573 0.246212 0.920369
168 1 0.915024 0.252011 0.748601
187 1 0.831316 0.333745 0.832354
189 1 0.747204 0.415233 0.750099
191 1 0.911696 0.416604 0.921218
170 1 -0.00296331 0.496444 0.838241
174 1 0.079149 0.587869 0.904845
195 1 0.167951 0.668972 0.828438
176 1 0.251581 0.583665 0.749998
178 1 0.332649 0.497889 0.835805
182 1 0.410929 0.582268 0.916169
184 1 0.588045 0.583412 0.749385
186 1 0.667467 0.49902 0.833838
203 1 0.498255 0.663511 0.830591
190 1 0.747798 0.581901 0.91665
192 1 0.917431 0.580059 0.745098
211 1 0.831393 0.661436 0.834049
194 1 -0.00462181 0.832043 0.834308
197 1 0.0820287 0.753789 0.750744
198 1 0.0793965 0.914439 0.92325
199 1 0.252604 0.750755 0.924931
200 1 0.246596 0.922147 0.753447
202 1 0.337672 0.831071 0.83797
205 1 0.414682 0.747243 0.754439
206 1 0.41597 0.913105 0.925418
207 1 0.583636 0.744858 0.915597
208 1 0.578122 0.922186 0.749058
210 1 0.663559 0.834594 0.837501
213 1 0.748986 0.752032 0.756612
214 1 0.749847 0.921425 0.921543
215 1 0.918187 0.753767 0.917498
216 1 0.915039 0.917432 0.752446
ITEM: TIMESTEP
2300
ITEM: NUMBER OF ATOMS
216
ITEM: BOX BOUNDS pp pp pp
-6.8691999727022335e-02 1.6361691999727014e+01
-6.8691999727022335e-02 1.6361691999727014e+01
-6.8691999727022335e-02 1.6361691999727014e+01
ITEM: ATOMS id type xs ys zs
1 1 -0.00916855 -0.00544865 -0.00383827
2 1 -0.00948839 0.161258 0.159887
3 1 0.163364 -0.00109767 0.169813
4 1 0.155128 0.154763 -0.00669567
5 1 0.0735643 0.0783633 0.0845181
9 1 0.334195 0.00232717 0.00587392
10 1 0.324556 0.165737 0.166875
13 1 0.420559 0.0841916 0.0930758
11 1 0.510998 0.000724726 0.172362
12 1 0.50834 0.16275 0.00655882
17 1 0.667876 -0.00860208 0.00152816
18 1 0.671043 0.162636 0.164609
19 1 0.833689 -0.00570082 0.167421
20 1 0.827208 0.169678 -0.0020803
21 1 0.750689 0.0808498 0.0802366
25 1 -0.00545023 0.332581 -0.00968421
27 1 0.161732 0.321438 0.163068
29 1 0.0838764 0.40893 0.0788747
8 1 0.237019 0.236875 0.0776541
33 1 0.329745 0.327347 0.00893274
37 1 0.414128 0.415171 0.0852747
16 1 0.589567 0.252042 0.0883505
35 1 0.5027 0.336085 0.160228
41 1 0.66162 0.334282 -0.00932581
24 1 0.909272 0.256094 0.0729837
43 1 0.828782 0.332428 0.163304
45 1 0.75002 0.414271 0.0775147
26 1 0.00926274 0.503959 0.162097
28 1 0.173687 0.497769 0.00741042
49 1 0.00598293 0.673085 -0.000672245
51 1 0.17345 0.668988 0.170578
32 1 0.258966 0.589774 0.0852279
34 1 0.336034 0.498425 0.166521
57 1 0.337193 0.668094 -0.00115119
36 1 0.498342 0.499087 0.00190106
40 1 0.577165 0.58611 0.0914119
42 1 0.668305 0.502781 0.162294
59 1 0.500088 0.667557 0.169276
65 1 0.657463 0.657783 -0.00125089
44 1 0.837222 0.499527 -0.00532976
48 1 0.921402 0.578809 0.0764168
67 1 0.841923 0.666117 0.16667
50 1 0.00264713 0.834411 0.167016
52 1 0.166814 0.841006 0.0033465
53 1 0.0884965 0.757307 0.0855026
56 1 0.249707 0.921176 0.0893763
58 1 0.339778 0.838556 0.169897
61 1 0.417585 0.748069 0.0862692
60 1 0.49312 0.834276 0.000119746
64 1 0.587611 0.914295 0.0869075
66 1 0.671516 0.825461 0.168246
68 1 0.828723 0.829315 0.000432138
69 1 0.747252 0.73954 0.0771465
72 1 0.914408 0.909593 0.0755913
73 1 0.00213943 -0.000713135 0.339644
76 1 0.17009 0.173532 0.340061
77 1 0.0860625 0.0887525 0.419612
7 1 0.245345 0.080529 0.254306
81 1 0.332883 -0.0014452 0.334534
85 1 0.419666 0.0799021 0.415087
15 1 0.589247 0.0833493 0.252506
84 1 0.502961 0.163689 0.325935
89 1 0.666899 -0.00749822 0.333557
23 1 0.917356 0.0787573 0.250148
92 1 0.828676 0.160204 0.333573
93 1 0.743782 0.0779777 0.416861
6 1 0.0767351 0.247557 0.249613
97 1 -0.00677767 0.334969 0.330864
101 1 0.0812764 0.413223 0.412701
14 1 0.422537 0.246018 0.241278
31 1 0.251066 0.408691 0.245202
80 1 0.252203 0.25195 0.423039
105 1 0.331295 0.319572 0.331679
109 1 0.415137 0.406638 0.420732
39 1 0.585943 0.421147 0.245513
88 1 0.581113 0.255109 0.41318
113 1 0.671847 0.337313 0.334892
22 1 0.749954 0.249605 0.248511
47 1 0.916652 0.423121 0.244907
96 1 0.910143 0.248127 0.413731
117 1 0.757268 0.419705 0.413525
30 1 0.0953159 0.58131 0.252169
100 1 0.174525 0.498325 0.334
121 1 0.0136687 0.664424 0.328485
38 1 0.421937 0.576022 0.257928
104 1 0.250522 0.582051 0.413625
129 1 0.337049 0.665377 0.333234
108 1 0.501698 0.493406 0.339988
112 1 0.583619 0.578672 0.416274
137 1 0.670985 0.664171 0.33991
46 1 0.755875 0.581496 0.243292
116 1 0.842046 0.510952 0.327953
120 1 0.919482 0.583638 0.416249
54 1 0.0803332 0.917154 0.257154
124 1 0.169104 0.832634 0.3373
125 1 0.0889113 0.750629 0.4187
55 1 0.262258 0.752199 0.247668
62 1 0.422059 0.919508 0.250918
128 1 0.2468 0.926857 0.421612
133 1 0.42255 0.755334 0.423899
63 1 0.587397 0.744517 0.253885
132 1 0.507184 0.834318 0.335993
136 1 0.580867 0.923281 0.420567
70 1 0.750844 0.906618 0.254772
71 1 0.930264 0.7529 0.254345
140 1 0.841956 0.832498 0.340635
141 1 0.750006 0.752846 0.419202
144 1 0.920504 0.918639 0.429205
74 1 -0.00108666 0.17165 0.505495
75 1 0.162622 0.0123928 0.506963
145 1 0.00401008 0.00381462 0.665729
148 1 0.171031 0.170771 0.668861
79 1 0.257045 0.0911858 0.589353
82 1 0.341216 0.166838 0.506037
153 1 0.332754 0.00170376 0.670053
83 1 0.495822 -0.00555747 0.50587
87 1 0.581055 0.081804 0.582453
90 1 0.660737 0.167391 0.503577
156 1 0.499906 0.164023 0.667394
161 1 0.662004 0.00112418 0.66348
91 1 0.832703 -0.00202025 0.503638
95 1 0.919108 0.0849799 0.583813
164 1 0.830261 0.160943 0.665999
78 1 0.0884892 0.254449 0.578853
99 1 0.168159 0.337838 0.496261
169 1 2.31876e-05 0.33528 0.661639
86 1 0.422693 0.248054 0.583127
103 1 0.247303 0.419617 0.580325
177 1 0.338909 0.33629 0.665636
107 1 0.500774 0.328177 0.501439
111 1 0.575102 0.414381 0.580429
185 1 0.660103 0.337076 0.666464
94 1 0.748973 0.253227 0.591058
115 1 0.83117 0.331528 0.500901
119 1 0.915113 0.416575 0.580073
98 1 -0.000810842 0.498637 0.492288
102 1 0.0851385 0.579385 0.577947
123 1 0.175047 0.66574 0.497778
172 1 0.166282 0.499331 0.667473
193 1 0.00135829 0.667285 0.662136
106 1 0.331016 0.502072 0.497143
110 1 0.406373 0.586405 0.586368
201 1 0.329947 0.667883 0.673662
114 1 0.665327 0.496257 0.503224
131 1 0.502745 0.663154 0.501196
180 1 0.493473 0.49933 0.658057
209 1 0.660877 0.665567 0.667551
118 1 0.745319 0.588933 0.586826
139 1 0.829164 0.666005 0.497523
188 1 0.828457 0.499794 0.665156
122 1 0.004457 0.833683 0.506846
126 1 0.0869324 0.922478 0.588286
196 1 0.162559 0.828548 0.665161
127 1 0.252928 0.754421 0.581164
130 1 0.334316 0.84028 0.49712
134 1 0.415836 0.918712 0.589787
135 1 0.576737 0.748316 0.588656
138 1 0.662969 0.833135 0.500152
204 1 0.500973 0.835187 0.675793
142 1 0.746647 0.919027 0.583541
143 1 0.914573 0.744832 0.579798
212 1 0.836276 0.836365 0.657673
146 1 -0.00823872 0.167324 0.824665
147 1 0.165973 -0.00356903 0.830307
149 1 0.0826232 0.0870011 0.746867
151 1 0.249355 0.0822082 0.921154
154 1 0.331738 0.169808 0.838325
157 1 0.415654 0.0846076 0.754534
155 1 0.498413 0.00272923 0.841022
159 1 0.590233 0.0782015 0.919033
162 1 0.658418 0.166588 0.834604
163 1 0.829275 -0.00296464 0.828232
165 1 0.740163 0.086016 0.755777
167 1 0.906706 0.0816222 0.914833
150 1 0.0716699 0.243652 0.914167
171 1 0.16499 0.335838 0.831561
173 1 0.0864489 0.418089 0.754373
152 1 0.254964 0.254338 0.748025
158 1 0.415553 0.247447 0.925948
175 1 0.246139 0.414298 0.917371
181 1 0.408891 0.424541 0.744321
160 1 0.575724 0.251344 0.754398
179 1 0.488468 0.330605 0.831232
183 1 0.57954 0.422592 0.90914
166 1 0.748586 0.254192 0.907495
168 1 0.911678 0.253773 0.74451
187 1 0.829923 0.341948 0.829047
189 1 0.74456 0.42256 0.744377
191 1 0.919124 0.421342 0.906252
170 1 0.00862533 0.506453 0.829543
174 1 0.091163 0.578408 0.927534
195 1 0.159077 0.671075 0.836919
176 1 0.247038 0.584931 0.751515
178 1 0.330612 0.504222 0.832023
182 1 0.420819 0.583663 0.917132
184 1 0.576497 0.587941 0.749021
186 1 0.660222 0.507049 0.827926
203 1 0.499066 0.668676 0.837537
190 1 0.74857 0.582352 0.912655
192 1 0.923389 0.589062 0.74506
211 1 0.834281 0.671206 0.82543
194 1 0.0090023 0.837759 0.827163
197 1 0.0805153 0.748114 0.748639
198 1 0.0835093 0.915373 0.914766
199 1 0.244379 0.755842 0.917789
200 1 0.252975 0.912652 0.747651
202 1 0.3312 0.839931 0.839199
205 1 0.414356 0.754687 0.755565
206 1 0.418667 0.922 0.914665
207 1 0.584989 0.748302 0.92069
208 1 0.584816 0.917121 0.757653
210 1 0.669984 0.826471 0.831245
213 1 0.751399 0.752103 0.737367
214 1 0.748808 0.90871 0.914067
215 1 0.920475 0.748458 0.909671
216 1 0.919116 0.916607 0.744058
ITEM: TIMESTEP
2400
ITEM: NUMBER OF ATOMS
216
ITEM: BOX BOUNDS pp pp pp
-6.8382860933661860e-02 1.6361382860933652e+01
-6.8382860933661860e-02 1.6361382860933652e+01
-6.8382860933661860e-02 1.6361382860933652e+01
ITEM: ATOMS id type xs ys zs
1 1 0.00635164 -0.000582645 0.00290485
2 1 -0.0052973 0.167537 0.170626
3 1 0.166507 -0.00164568 0.157375
4 1 0.175648 0.178033 0.0117937
5 1 0.0923991 0.0912958 0.0831951
9 1 0.331154 -0.00491882 -0.00584368
10 1 0.340189 0.165172 0.167769
13 1 0.414303 0.0825213 0.0763851
11 1 0.497329 0.00231653 0.164622
12 1 0.499386 0.172103 -0.00622693
17 1 0.666849 0.0059974 0.000606839
18 1 0.660098 0.166077 0.173289
19 1 0.832446 -0.000274455 0.16545
20 1 0.835902 0.16317 -0.000358293
21 1 0.746188 0.0854736 0.084324
25 1 -0.00237081 0.329769 0.00606063
27 1 0.16766 0.337662 0.162302
29 1 0.0806143 0.419629 0.0776079
8 1 0.261501 0.257878 0.0856519
33 1 0.337025 0.339268 -0.00200452
37 1 0.41816 0.410641 0.084827
16 1 0.580872 0.247316 0.0858204
35 1 0.500566 0.332228 0.164885
41 1 0.67277 0.336252 0.00843911
24 1 0.916644 0.241023 0.0875822
43 1 0.840416 0.334509 0.163164
45 1 0.754162 0.426541 0.085989
26 1 -0.00167867 0.501979 0.174046
28 1 0.162416 0.501023 -0.00663871
49 1 0.00426172 0.657652 0.000616568
51 1 0.163863 0.660845 0.166817
32 1 0.246121 0.58107 0.0829896
34 1 0.332729 0.498038 0.160831
57 1 0.333989 0.664769 0.00886173
36 1 0.49643 0.503686 0.00499314
40 1 0.589223 0.587668 0.0762218
42 1 0.66481 0.50317 0.172401
59 1 0.505847 0.665042 0.155674
65 1 0.67012 0.672168 0.00136919
44 1 0.834157 0.500113 -0.000506994
48 1 0.916611 0.586929 0.0849215
67 1 0.829035 0.667471 0.168324
50 1 0.00309987 0.831427 0.167581
52 1 0.164475 0.832231 -0.000917605
53 1 0.0850743 0.751579 0.0838183
56 1 0.245459 0.90899 0.081039
58 1 0.332161 0.832306 0.166065
61 1 0.415107 0.751111 0.0949047
60 1 0.503071 0.829724 0.00155146
64 1 0.585644 0.919703 0.0830036
66 1 0.666264 0.836722 0.168616
68 1 0.834896 0.840357 -0.00183081
69 1 0.751457 0.761336 0.0864348
72 1 0.920531 0.913232 0.0891097
73 1 -0.00505211 0.000244813 0.328472
76 1 0.163079 0.160709 0.330072
77 1 0.0806834 0.0785649 0.415197
7 1 0.251316 0.0824741 0.242068
81 1 0.334953 0.004244 0.333921
85 1 0.419476 0.0858612 0.425048
15 1 0.582345 0.0831751 0.249627
84 1 0.50522 0.169563 0.333078
89 1 0.66761 0.00744376 0.331339
23 1 0.913208 0.0863649 0.257123
92 1 0.83478 0.175128 0.333401
93 1 0.756532 0.083792 0.415574
6 1 0.0862833 0.247938 0.25034
97 1 0.00560492 0.334096 0.340811
101 1 0.0886395 0.418315 0.419446
14 1 0.418671 0.248765 0.253388
31 1 0.246313 0.423047 0.248136
80 1 0.241768 0.245547 0.413132
105 1 0.334926 0.335722 0.33297
109 1 0.426727 0.419377 0.415973
39 1 0.581566 0.41463 0.25121
88 1 0.58194 0.247904 0.422208
113 1 0.666782 0.326673 0.332155
22 1 0.754608 0.249624 0.245555
47 1 0.921078 0.412797 0.254694
96 1 0.918556 0.25155 0.423836
117 1 0.74723 0.415994 0.418602
30 1 0.0771588 0.587789 0.253049
100 1 0.159355 0.507166 0.333582
121 1 -0.0108015 0.665368 0.331934
38 1 0.413234 0.589526 0.239157
104 1 0.249483 0.583013 0.420255
129 1 0.323118 0.664403 0.331591
108 1 0.498953 0.504791 0.323419
112 1 0.578664 0.586417 0.411769
137 1 0.661651 0.66764 0.331797
46 1 0.747704 0.578957 0.257669
116 1 0.829694 0.491085 0.332968
120 1 0.917941 0.579681 0.413392
54 1 0.0800662 0.917634 0.2492
124 1 0.165105 0.838973 0.331408
125 1 0.0778221 0.748417 0.413664
55 1 0.239688 0.747068 0.244111
62 1 0.413252 0.919142 0.250392
128 1 0.254401 0.913804 0.413537
133 1 0.414061 0.749158 0.417836
63 1 0.581086 0.750498 0.241023
132 1 0.494676 0.837734 0.330305
136 1 0.588197 0.919469 0.412962
70 1 0.741788 0.919136 0.256199
71 1 0.912803 0.750758 0.247015
140 1 0.828262 0.832979 0.333218
141 1 0.747448 0.744837 0.416977
144 1 0.909775 0.915667 0.408237
74 1 -0.000578289 0.16162 0.494411
75 1 0.170085 -0.00609261 0.499817
145 1 -0.00565868 -0.00123108 0.660609
148 1 0.162512 0.161066 0.666943
79 1 0.246123 0.0803071 0.580164
82 1 0.325808 0.169486 0.493458
153 1 0.333168 0.00121355 0.663476
83 1 0.506496 0.00509359 0.500683
87 1 0.582337 0.0858216 0.586296
90 1 0.66785 0.16378 0.499538
156 1 0.498515 0.17289 0.664074
161 1 0.670409 0.000811055 0.665017
91 1 0.835319 0.000897002 0.501135
95 1 0.917804 0.0831949 0.583018
164 1 0.836859 0.172702 0.668742
78 1 0.0807542 0.24632 0.583861
99 1 0.166014 0.330226 0.49847
169 1 0.00187533 0.337261 0.673264
86 1 0.410993 0.256739 0.579438
103 1 0.251397 0.409743 0.585579
177 1 0.33381 0.331271 0.669623
107 1 0.499037 0.335277 0.504211
111 1 0.579555 0.418009 0.583186
185 1 0.671223 0.334205 0.661317
94 1 0.754644 0.249728 0.577419
115 1 0.834234 0.338562 0.50046
119 1 0.916431 0.417442 0.579686
98 1 0.00103492 0.493421 0.501653
102 1 0.0836605 0.588239 0.584278
123 1 0.166301 0.668016 0.497361
172 1 0.166757 0.499809 0.667795
193 1 0.00128959 0.669877 0.672748
106 1 0.334656 0.499226 0.503794
110 1 0.419331 0.579572 0.580243
201 1 0.336372 0.659475 0.661122
114 1 0.661507 0.50419 0.499083
131 1 0.504111 0.667168 0.492028
180 1 0.500421 0.496789 0.670211
209 1 0.66898 0.662963 0.667762
118 1 0.753987 0.583645 0.580925
139 1 0.836842 0.66613 0.50091
188 1 0.833137 0.498092 0.666531
122 1 -0.00306842 0.839379 0.494387
126 1 0.0828221 0.916952 0.579719
196 1 0.164564 0.837439 0.672053
127 1 0.248159 0.74598 0.587654
130 1 0.333931 0.835413 0.504947
134 1 0.414362 0.918741 0.57728
135 1 0.58718 0.746578 0.582572
138 1 0.671007 0.83497 0.499767
204 1 0.493272 0.833342 0.656505
142 1 0.756589 0.913591 0.582481
143 1 0.914507 0.75097 0.593506
212 1 0.827973 0.823575 0.676032
146 1 0.00601151 0.170133 0.837765
147 1 0.161991 0.00490479 0.839481
149 1 0.0813105 0.0807674 0.74872
151 1 0.247094 0.0932138 0.92076
154 1 0.330312 0.163992 0.8326
157 1 0.417857 0.0818664 0.748677
155 1 0.501257 -0.00426957 0.833673
159 1 0.582745 0.0843152 0.912116
162 1 0.674664 0.165697 0.830744
163 1 0.833746 0.00038841 0.833704
165 1 0.75602 0.0843208 0.74722
167 1 0.925017 0.0851425 0.915565
150 1 0.0893825 0.257592 0.922949
171 1 0.16555 0.334009 0.83619
173 1 0.0838804 0.420351 0.746159
152 1 0.244763 0.247391 0.751779
158 1 0.4153 0.246859 0.911289
175 1 0.246816 0.417516 0.91732
181 1 0.420802 0.413475 0.757607
160 1 0.592796 0.24805 0.746234
179 1 0.506151 0.336334 0.837734
183 1 0.586824 0.416268 0.921125
166 1 0.749931 0.243866 0.918609
168 1 0.914151 0.247103 0.756877
187 1 0.834826 0.329494 0.839137
189 1 0.753102 0.408993 0.754737
191 1 0.917579 0.409357 0.925121
170 1 -0.00853143 0.491073 0.831487
174 1 0.0789656 0.581283 0.907122
195 1 0.172485 0.665264 0.826869
176 1 0.254823 0.580184 0.74695
178 1 0.334207 0.498315 0.833673
182 1 0.412166 0.583854 0.92
184 1 0.587487 0.58047 0.751996
186 1 0.675456 0.494628 0.831121
203 1 0.500563 0.667537 0.834292
190 1 0.747212 0.584154 0.920352
192 1 0.912281 0.579178 0.753061
211 1 0.830115 0.663095 0.833229
194 1 0.00342727 0.828278 0.832164
197 1 0.0856213 0.754409 0.750229
198 1 0.0783226 0.912962 0.916104
199 1 0.254086 0.748666 0.918526
200 1 0.253545 0.918338 0.754635
202 1 0.336892 0.835811 0.832984
205 1 0.413199 0.749312 0.742299
206 1 0.416858 0.911696 0.913752
207 1 0.582986 0.750189 0.913708
208 1 0.578605 0.914876 0.749447
210 1 0.665577 0.835383 0.831492
213 1 0.742818 0.744286 0.752278
214 1 0.746406 0.921955 0.920217
215 1 0.915312 0.74891 0.921694
216 1 0.92046 0.912891 0.74861
ITEM: TIMESTEP
2500
ITEM: NUMBER OF ATOMS
216
ITEM: BOX BOUNDS pp pp pp
-6.4245052181258089e-02 1.6357245052181259e+01
-6.4245052181258089e-02 1.6357245052181259e+01
-6.4245052181258089e-02 1.6357245052181259e+01
ITEM: ATOMS id type xs ys zs
1 1 0.00557682 0.0019871 0.000793472
2 1 0.0147375 0.172681 0.167103
3 1 0.170812 -0.00106026 0.177431
4 1 0.170889 0.162094 -0.0112947
5 1 0.090308 0.0816873 0.0841163
9 1 0.33531 0.000871529 -0.00285929
10 1 0.3292 0.177585 0.162727
13 1 0.416764 0.09272 0.0860034
11 1 0.497728 0.00468545 0.172664
12 1 0.497619 0.164669 -0.000332071
17 1 0.668605 -0.00174926 -0.00910874
18 1 0.664035 0.168722 0.168491
19 1 0.836003 0.00937727 0.16886
20 1 0.839536 0.177389 0.00880626
21 1 0.746605 0.0888955 0.0793657
25 1 0.0067734 0.337464 0.00101798
27 1 0.174932 0.334912 0.167286
29 1 0.0842884 0.418881 0.0914787
8 1 0.247294 0.249047 0.0776265
33 1 0.333979 0.33412 -0.00215062
37 1 0.417296 0.426496 0.0805361
16 1 0.577264 0.249978 0.0837654
35 1 0.492857 0.338901 0.166653
41 1 0.66879 0.316521 -0.00180494
24 1 0.925998 0.262772 0.090153
43 1 0.832389 0.325912 0.178411
45 1 0.748189 0.401908 0.0911578
26 1 -0.0042304 0.498364 0.170899
28 1 0.171619 0.498912 0.00351405
49 1 -0.0135989 0.672629 0.00207914
51 1 0.156399 0.669401 0.163583
32 1 0.245054 0.586151 0.0833128
34 1 0.336452 0.508471 0.16228
57 1 0.332513 0.662003 -0.00904465
36 1 0.508009 0.498385 0.00223646
40 1 0.579908 0.584156 0.0905026
42 1 0.664875 0.497786 0.16319
59 1 0.492239 0.673874 0.172046
65 1 0.663616 0.666761 0.00256223
44 1 0.828827 0.49345 0.00385939
48 1 0.907899 0.577568 0.0879731
67 1 0.827918 0.67254 0.164407
50 1 -0.00946708 0.834896 0.165649
52 1 0.166814 0.831216 0.0016092
53 1 0.073377 0.747564 0.084259
56 1 0.256328 0.918653 0.0806974
58 1 0.328977 0.828878 0.159184
61 1 0.41375 0.745524 0.0704903
60 1 0.492285 0.83757 -0.00970156
64 1 0.581363 0.919285 0.0781079
66 1 0.662449 0.83647 0.161335
68 1 0.825952 0.834093 0.0054987
69 1 0.743712 0.749919 0.0825946
72 1 0.913692 0.919464 0.0812947
73 1 0.00511206 -0.00300331 0.334315
76 1 0.174008 0.169984 0.339033
77 1 0.082898 0.0868815 0.408281
7 1 0.253337 0.0921476 0.254617
81 1 0.327386 -0.0105048 0.327744
85 1 0.410472 0.0806723 0.409987
15 1 0.584922 0.0857723 0.25034
84 1 0.495272 0.164382 0.333647
89 1 0.658385 0.00428474 0.330914
23 1 0.927804 0.0898732 0.249327
92 1 0.836122 0.159555 0.336103
93 1 0.745216 0.0831324 0.413374
6 1 0.0878611 0.254416 0.255382
97 1 -0.00124692 0.336204 0.332242
101 1 0.0790065 0.419374 0.418517
14 1 0.414836 0.256271 0.242333
31 1 0.251342 0.428841 0.253996
80 1 0.254211 0.248566 0.425224
105 1 0.331673 0.333408 0.338101
109 1 0.41219 0.420593 0.422905
39 1 0.576635 0.419528 0.247295
88 1 0.576243 0.253596 0.418489
113 1 0.661352 0.340945 0.335915
22 1 0.742409 0.241681 0.260121
47 1 0.903832 0.420643 0.254184
96 1 0.916772 0.246739 0.412946
117 1 0.758771 0.416389 0.42017
30 1 0.0819057 0.583264 0.25182
100 1 0.160712 0.500253 0.340523
121 1 0.000798546 0.664567 0.334383
38 1 0.41957 0.582135 0.252223
104 1 0.242922 0.586401 0.415269
129 1 0.334125 0.668832 0.336689
108 1 0.502819 0.500871 0.343815
112 1 0.587203 0.584036 0.421991
137 1 0.663967 0.6647 0.330045
46 1 0.747635 0.587717 0.249179
116 1 0.829053 0.507447 0.337048
120 1 0.910497 0.589826 0.420102
54 1 0.0820369 0.912421 0.238915
124 1 0.163478 0.825102 0.328455
125 1 0.0826367 0.742155 0.41706
55 1 0.250895 0.751744 0.247331
62 1 0.411702 0.909135 0.240757
128 1 0.242644 0.912593 0.417005
133 1 0.41586 0.749158 0.412181
63 1 0.582897 0.753615 0.249461
132 1 0.499919 0.831839 0.330876
136 1 0.58035 0.917563 0.418549
70 1 0.748734 0.92185 0.24239
71 1 0.917565 0.750039 0.250804
140 1 0.831894 0.835945 0.326309
141 1 0.749593 0.756508 0.412413
144 1 0.917557 0.922173 0.414773
74 1 -0.00350534 0.161218 0.496561
75 1 0.161658 -0.00301063 0.495435
145 1 0.00721669 -0.000868712 0.672361
148 1 0.173186 0.162111 0.667143
79 1 0.247195 0.0769416 0.579574
82 1 0.33601 0.164924 0.507191
153 1 0.334383 -0.00955149 0.658433
83 1 0.491259 -0.0055196 0.50383
87 1 0.583312 0.0807632 0.573215
90 1 0.668672 0.172834 0.49769
156 1 0.505035 0.158895 0.662172
161 1 0.669309 0.00413355 0.67054
91 1 0.835208 0.000446863 0.496515
95 1 0.917367 0.0778838 0.585026
164 1 0.837639 0.155628 0.668284
78 1 0.0873743 0.245961 0.580076
99 1 0.168626 0.337503 0.497691
169 1 -0.00480042 0.327791 0.666142
86 1 0.42558 0.248669 0.582135
103 1 0.250389 0.422658 0.582799
177 1 0.335546 0.331901 0.658708
107 1 0.498997 0.335 0.498424
111 1 0.589413 0.409044 0.580004
185 1 0.669806 0.333958 0.675525
94 1 0.75668 0.250153 0.590589
115 1 0.84094 0.326572 0.498141
119 1 0.911419 0.413865 0.588133
98 1 -0.00110366 0.501717 0.503703
102 1 0.0846188 0.578853 0.588847
123 1 0.166156 0.663244 0.502317
172 1 0.170977 0.497847 0.671706
193 1 -0.001856 0.665697 0.670856
106 1 0.328273 0.506537 0.49697
110 1 0.418161 0.586614 0.585187
201 1 0.330951 0.672481 0.665433
114 1 0.670155 0.499564 0.497271
131 1 0.491918 0.663576 0.505118
180 1 0.503657 0.500532 0.664707
209 1 0.674373 0.676714 0.66976
118 1 0.740999 0.578443 0.592802
139 1 0.82201 0.666533 0.503683
188 1 0.835541 0.499574 0.671541
122 1 -0.00292614 0.828723 0.504181
126 1 0.0819516 0.915334 0.589604
196 1 0.165963 0.82346 0.662747
127 1 0.255209 0.748956 0.576231
130 1 0.33331 0.834579 0.494928
134 1 0.416877 0.911416 0.58342
135 1 0.583355 0.745334 0.581163
138 1 0.662205 0.829095 0.499545
204 1 0.502099 0.83291 0.666701
142 1 0.749871 0.914055 0.580997
143 1 0.911973 0.746727 0.581609
212 1 0.831793 0.837676 0.663982
146 1 0.00290938 0.163494 0.836649
147 1 0.178022 -0.00791112 0.830495
149 1 0.084147 0.0805285 0.754151
151 1 0.257403 0.0804599 0.908009
154 1 0.34127 0.170079 0.830986
157 1 0.415138 0.0827217 0.747238
155 1 0.497365 0.00439807 0.826159
159 1 0.58171 0.0834636 0.917174
162 1 0.669493 0.163804 0.837284
163 1 0.830757 0.000716905 0.841866
165 1 0.751331 0.0899174 0.751074
167 1 0.915391 0.0877993 0.925916
150 1 0.0877628 0.245932 0.91877
171 1 0.168111 0.329767 0.831463
173 1 0.0844384 0.413418 0.757764
152 1 0.256135 0.249574 0.750932
158 1 0.41663 0.25748 0.91932
175 1 0.260227 0.418172 0.91583
181 1 0.418081 0.416189 0.741271
160 1 0.58483 0.246202 0.75334
179 1 0.496398 0.329682 0.827272
183 1 0.585757 0.415037 0.913691
166 1 0.76148 0.250566 0.915682
168 1 0.917946 0.243163 0.753113
187 1 0.840194 0.332301 0.83368
189 1 0.754366 0.41824 0.757093
191 1 0.917257 0.421737 0.917497
170 1 0.00255116 0.500428 0.838545
174 1 0.0798035 0.581207 0.922501
195 1 0.15647 0.661279 0.825761
176 1 0.251882 0.583655 0.74786
178 1 0.335086 0.496441 0.827818
182 1 0.421572 0.576862 0.90937
184 1 0.592375 0.58206 0.746335
186 1 0.669794 0.502795 0.84015
203 1 0.505313 0.667553 0.829368
190 1 0.754065 0.580955 0.921117
192 1 0.919489 0.581243 0.752023
211 1 0.827617 0.670334 0.832776
194 1 0.000122643 0.834404 0.837567
197 1 0.0772152 0.748754 0.749391
198 1 0.0900941 0.916516 0.919222
199 1 0.251383 0.750968 0.907893
200 1 0.247262 0.909598 0.739912
202 1 0.335769 0.828859 0.823383
205 1 0.417737 0.748562 0.753365
206 1 0.412123 0.921791 0.905742
207 1 0.591393 0.75329 0.916443
208 1 0.588241 0.918861 0.750091
210 1 0.675479 0.831523 0.835848
213 1 0.754921 0.755963 0.750006
214 1 0.752029 0.913768 0.918947
215 1 0.912983 0.76064 0.916462
216 1 0.915961 0.914959 0.753856
ITEM: TIMESTEP
2600
ITEM: NUMBER OF ATOMS
216
ITEM: BOX BOUNDS pp pp pp
-7.4387799165034352e-02 1.6367387799165044e+01
-7.4387799165034352e-02 1.6367387799165044e+01
-7.4387799165034352e-02 1.6367387799165044e+01
ITEM: ATOMS id type xs ys zs
1 1 -0.00743537 -0.00161041 -0.00256375
2 1 -0.0142474 0.161069 0.167403
3 1 0.163428 -0.00133306 0.158909
4 1 0.166146 0.169404 0.00512931
5 1 0.0709861 0.0875152 0.081933
9 1 0.331881 -0.000164384 -0.00368584
10 1 0.331499 0.160576 0.169642
13 1 0.410622 0.0808232 0.0801314
11 1 0.50099 -0.001258 0.164965
12 1 0.501338 0.173304 -0.000946273
17 1 0.666796 0.00227383 0.00194323
18 1 0.66641 0.168036 0.166577
19 1 0.832786 -0.0116282 0.167609
20 1 0.825695 0.161963 -0.00879768
21 1 0.751076 0.0828717 0.090526
25 1 -0.00411334 0.324375 -0.00182899
27 1 0.154671 0.326122 0.166298
29 1 0.0830093 0.416557 0.0778182
8 1 0.254282 0.246572 0.0858025
33 1 0.333238 0.32761 0.00119042
37 1 0.417047 0.405767 0.0867326
16 1 0.585233 0.252806 0.0894353
35 1 0.503493 0.331506 0.170744
41 1 0.665215 0.35036 -0.000247563
24 1 0.905647 0.241991 0.0777368
43 1 0.836572 0.343563 0.152972
45 1 0.753952 0.432478 0.0796833
26 1 0.00294523 0.501678 0.164473
28 1 0.171333 0.501046 -0.00043259
49 1 0.0124084 0.669767 0.00103478
51 1 0.177212 0.663746 0.165754
32 1 0.259276 0.581234 0.0838172
34 1 0.332325 0.494551 0.166326
57 1 0.335172 0.671585 0.0121563
36 1 0.4868 0.499252 -0.00324908
40 1 0.581796 0.576269 0.0756863
42 1 0.663569 0.503282 0.173197
59 1 0.50623 0.660998 0.161957
65 1 0.675209 0.664801 -0.0027828
44 1 0.839647 0.511612 -0.00725748
48 1 0.92108 0.586575 0.0817809
67 1 0.833737 0.666883 0.169038
50 1 0.00895573 0.828362 0.171324
52 1 0.162676 0.836383 -0.000937563
53 1 0.0892648 0.754252 0.088477
56 1 0.251021 0.915097 0.0848145
58 1 0.334968 0.837432 0.171847
61 1 0.420496 0.757799 0.0945944
60 1 0.506604 0.829053 0.00529534
64 1 0.589263 0.915174 0.0872353
66 1 0.674358 0.823548 0.172419
68 1 0.833186 0.831741 -0.00397631
69 1 0.754177 0.750128 0.0802173
72 1 0.919824 0.910225 0.0808667
73 1 0.000700436 0.00801961 0.336947
76 1 0.161783 0.165472 0.3294
77 1 0.0917971 0.0826539 0.421223
7 1 0.242502 0.079519 0.249573
81 1 0.33279 0.00782425 0.333669
85 1 0.420766 0.0844548 0.419925
15 1 0.581976 0.0822122 0.249678
84 1 0.508067 0.16716 0.323805
89 1 0.671703 0.00201636 0.329705
23 1 0.908294 0.0789553 0.254796
92 1 0.831093 0.172325 0.336479
93 1 0.754334 0.0802278 0.41259
6 1 0.0768484 0.24192 0.25037
97 1 -0.00332638 0.329726 0.3389
101 1 0.0909019 0.41359 0.413623
14 1 0.41634 0.244318 0.250706
31 1 0.246965 0.411209 0.25104
80 1 0.244144 0.249727 0.409562
105 1 0.335687 0.331944 0.334296
109 1 0.423609 0.410125 0.418331
39 1 0.585276 0.413678 0.252668
88 1 0.588453 0.243995 0.417233
113 1 0.671826 0.328576 0.336608
22 1 0.762774 0.258724 0.238583
47 1 0.925416 0.413687 0.245718
96 1 0.91231 0.253506 0.420422
117 1 0.745613 0.417942 0.420701
30 1 0.0882224 0.583402 0.249854
100 1 0.16964 0.500924 0.331245
121 1 -0.000833385 0.669079 0.327308
38 1 0.413961 0.58288 0.24933
104 1 0.251225 0.574304 0.415653
129 1 0.33391 0.665675 0.330861
108 1 0.500297 0.498127 0.330792
112 1 0.581979 0.583673 0.417705
137 1 0.663939 0.671298 0.337833
46 1 0.753455 0.579807 0.252153
116 1 0.835201 0.491817 0.333316
120 1 0.917446 0.576081 0.410443
54 1 0.0813728 0.921885 0.260447
124 1 0.169758 0.841208 0.336247
125 1 0.085604 0.751358 0.412159
55 1 0.255784 0.752795 0.251593
62 1 0.414161 0.919442 0.253217
128 1 0.261103 0.916296 0.421192
133 1 0.41666 0.752376 0.42359
63 1 0.581392 0.744334 0.251087
132 1 0.497702 0.82962 0.331258
136 1 0.585161 0.915492 0.412816
70 1 0.748515 0.910013 0.256128
71 1 0.917595 0.752695 0.250638
140 1 0.833436 0.831226 0.33603
141 1 0.745996 0.747458 0.420145
144 1 0.914431 0.916078 0.417031
74 1 -0.00318912 0.170942 0.505624
75 1 0.170859 0.0046719 0.501489
145 1 -0.00206613 0.00683646 0.657285
148 1 0.170607 0.167063 0.669644
79 1 0.261489 0.0858862 0.584197
82 1 0.331321 0.172716 0.497295
153 1 0.339142 0.00403598 0.67286
83 1 0.503544 -0.00462786 0.497443
87 1 0.582423 0.0808191 0.589245
90 1 0.666977 0.155104 0.496339
156 1 0.493912 0.173098 0.672256
161 1 0.668915 0.000443505 0.664805
91 1 0.836289 0.00525356 0.502855
95 1 0.914441 0.0910909 0.586186
164 1 0.830063 0.170607 0.663552
78 1 0.0829038 0.256487 0.582741
99 1 0.169666 0.335839 0.498757
169 1 -0.0017696 0.337794 0.670995
86 1 0.415492 0.24908 0.579645
103 1 0.247105 0.416147 0.586438
177 1 0.335794 0.33562 0.672779
107 1 0.503048 0.327557 0.499198
111 1 0.579511 0.421058 0.582883
185 1 0.665716 0.331323 0.662101
94 1 0.747721 0.243814 0.579858
115 1 0.827774 0.335154 0.504084
119 1 0.914759 0.415248 0.582351
98 1 -0.00176111 0.497271 0.494471
102 1 0.078008 0.587666 0.579924
123 1 0.165148 0.664467 0.497992
172 1 0.16447 0.508275 0.659903
193 1 -0.00157604 0.667062 0.663994
106 1 0.336464 0.492604 0.501196
110 1 0.414788 0.584831 0.58172
201 1 0.332367 0.663365 0.672049
114 1 0.666818 0.501455 0.501474
131 1 0.506478 0.672484 0.496163
180 1 0.492403 0.499258 0.668179
209 1 0.666646 0.663057 0.66457
118 1 0.757343 0.584992 0.579771
139 1 0.842719 0.671334 0.49629
188 1 0.83233 0.497384 0.662336
122 1 0.00101327 0.836978 0.493573
126 1 0.089574 0.916412 0.580409
196 1 0.16522 0.834635 0.67133
127 1 0.241657 0.750361 0.586974
130 1 0.333493 0.82768 0.506311
134 1 0.414168 0.920466 0.575859
135 1 0.584842 0.751139 0.584048
138 1 0.670576 0.837932 0.500382
204 1 0.490721 0.833254 0.662042
142 1 0.753399 0.919296 0.586161
143 1 0.919972 0.756525 0.587783
212 1 0.831232 0.827085 0.671329
146 1 0.00313495 0.170602 0.824627
147 1 0.156242 0.0062404 0.831369
149 1 0.0852136 0.0851418 0.743816
151 1 0.243735 0.0823741 0.918527
154 1 0.330359 0.162307 0.834942
157 1 0.420596 0.0828917 0.753629
155 1 0.503661 0.00191428 0.847477
159 1 0.584928 0.0847694 0.919662
162 1 0.664986 0.168804 0.832599
163 1 0.829893 -0.00030471 0.828328
165 1 0.750602 0.083146 0.74733
167 1 0.920671 0.0819317 0.907779
150 1 0.0797361 0.247555 0.912187
171 1 0.169585 0.335265 0.834864
173 1 0.0847617 0.426419 0.75034
152 1 0.253362 0.250503 0.747707
158 1 0.413747 0.246022 0.911428
175 1 0.247155 0.415278 0.915248
181 1 0.408323 0.417668 0.761352
160 1 0.580571 0.251024 0.75009
179 1 0.499449 0.331723 0.836265
183 1 0.575083 0.422752 0.916708
166 1 0.742033 0.251223 0.917843
168 1 0.912133 0.251373 0.74871
187 1 0.827002 0.333283 0.835974
189 1 0.752462 0.414174 0.741921
191 1 0.914275 0.415307 0.913644
170 1 -0.000882486 0.498039 0.832732
174 1 0.0870665 0.582328 0.912516
195 1 0.17015 0.672249 0.836654
176 1 0.245389 0.579995 0.75203
178 1 0.327887 0.50167 0.834411
182 1 0.408828 0.586507 0.919992
184 1 0.580122 0.585697 0.750155
186 1 0.665349 0.497068 0.826307
203 1 0.493123 0.666933 0.83163
190 1 0.744856 0.581255 0.912393
192 1 0.917899 0.581954 0.750983
211 1 0.834591 0.666355 0.835076
194 1 0.000743959 0.827869 0.830714
197 1 0.0832625 0.749566 0.750499
198 1 0.075428 0.920165 0.906278
199 1 0.251947 0.754192 0.922124
200 1 0.252476 0.917485 0.758901
202 1 0.335197 0.837342 0.840904
205 1 0.40825 0.75188 0.74877
206 1 0.421506 0.91128 0.921669
207 1 0.583733 0.750785 0.915078
208 1 0.581506 0.911847 0.753414
210 1 0.671046 0.836304 0.83403
213 1 0.745247 0.749739 0.752752
214 1 0.747274 0.915758 0.917399
215 1 0.918779 0.746418 0.91922
216 1 0.919057 0.916741 0.744462
ITEM: TIMESTEP
2700
ITEM: NUMBER OF ATOMS
216
ITEM: BOX BOUNDS pp pp pp
-6.1858901859483950e-02 1.6354858901859501e+01
-6.1858901859483950e-02 1.6354858901859501e+01
-6.1858901859483950e-02 1.6354858901859501e+01
ITEM: ATOMS id type xs ys zs
1 1 -0.00180064 -0.00312885 -0.00158636
2 1 0.00270291 0.172204 0.162243
3 1 0.167722 0.00687674 0.173499
4 1 0.157529 0.162588 -0.00240484
5 1 0.0833015 0.0767494 0.079897
9 1 0.333705 -0.0015703 0.00918507
10 1 0.335137 0.163414 0.171667
13 1 0.423284 0.0792832 0.0924698
11 1 0.507164 -0.000478455 0.173656
12 1 0.504855 0.15707 -0.00190705
17 1 0.670384 -0.00534196 -0.00409
18 1 0.666827 0.157136 0.164845
19 1 0.830226 0.00373922 0.166701
20 1 0.836835 0.170449 0.000320918
21 1 0.752404 0.0819748 0.0720486
25 1 -0.00628602 0.341266 -0.00456934
27 1 0.171477 0.33052 0.164255
29 1 0.0815502 0.415061 0.0820753
8 1 0.244486 0.244883 0.0829885
33 1 0.328386 0.338537 0.00401792
37 1 0.419544 0.419927 0.0813724
16 1 0.587455 0.246287 0.0797456
35 1 0.503393 0.331855 0.160429
41 1 0.666109 0.32587 -0.00444526
24 1 0.915551 0.253511 0.0860079
43 1 0.834629 0.328287 0.170662
45 1 0.750047 0.406409 0.0804812
26 1 -0.000563727 0.497697 0.16697
28 1 0.162138 0.504478 0.00219525
49 1 -0.00254441 0.662168 -0.00477185
51 1 0.165731 0.667829 0.167877
32 1 0.244071 0.584071 0.0838377
34 1 0.330618 0.500796 0.167275
57 1 0.328846 0.658122 -0.0037528
36 1 0.507447 0.500433 0.00392819
40 1 0.588283 0.58907 0.0881574
42 1 0.672975 0.491986 0.159043
59 1 0.496787 0.672648 0.176122
65 1 0.664067 0.666636 0.0035644
44 1 0.82596 0.491442 -0.000447467
48 1 0.918751 0.581081 0.0763908
67 1 0.844033 0.666188 0.161346
50 1 -0.00409836 0.836221 0.163981
52 1 0.17094 0.834622 0.00482205
53 1 0.082219 0.748762 0.080603
56 1 0.254634 0.914936 0.0945285
58 1 0.339293 0.834343 0.169674
61 1 0.407057 0.747777 0.089174
60 1 0.486721 0.835014 0.00183808
64 1 0.581994 0.913007 0.0812842
66 1 0.668333 0.832281 0.168062
68 1 0.834755 0.831283 -0.000521254
69 1 0.755603 0.747386 0.0843348
72 1 0.912225 0.915322 0.0843881
73 1 -0.0041475 -0.00585086 0.329792
76 1 0.168002 0.165494 0.334473
77 1 0.077101 0.0842952 0.408461
7 1 0.254742 0.090706 0.253314
81 1 0.335768 -0.0030794 0.331701
85 1 0.417049 0.0806134 0.423038
15 1 0.595624 0.0832305 0.252336
84 1 0.505299 0.171049 0.334227
89 1 0.671746 -0.00476881 0.338907
23 1 0.920578 0.0854084 0.244383
92 1 0.833208 0.16023 0.33231
93 1 0.747365 0.0848023 0.423359
6 1 0.0848913 0.245376 0.248427
97 1 0.00255938 0.335704 0.319135
101 1 0.0814515 0.417755 0.411022
14 1 0.423351 0.251521 0.24881
31 1 0.249917 0.412074 0.248545
80 1 0.247374 0.246326 0.419469
105 1 0.333973 0.325133 0.334428
109 1 0.412621 0.415869 0.409334
39 1 0.58542 0.417663 0.24178
88 1 0.577017 0.258925 0.414387
113 1 0.665421 0.338017 0.327278
22 1 0.744879 0.241912 0.251136
47 1 0.910809 0.418408 0.245119
96 1 0.91728 0.250228 0.410482
117 1 0.75234 0.421133 0.407717
30 1 0.0841558 0.577098 0.252087
100 1 0.17038 0.495116 0.331398
121 1 0.00570659 0.664613 0.337371
38 1 0.416939 0.578121 0.253205
104 1 0.251638 0.587019 0.412446
129 1 0.335615 0.666953 0.336911
108 1 0.501908 0.494157 0.330124
112 1 0.586068 0.582121 0.415262
137 1 0.671743 0.663137 0.334757
46 1 0.751349 0.583507 0.246458
116 1 0.83841 0.503331 0.328129
120 1 0.922911 0.58893 0.418076
54 1 0.0814555 0.909843 0.249324
124 1 0.169964 0.830529 0.335422
125 1 0.0845 0.753902 0.423385
55 1 0.252759 0.749452 0.245551
62 1 0.427209 0.91251 0.253317
128 1 0.244958 0.922638 0.415841
133 1 0.420641 0.750881 0.418286
63 1 0.591725 0.751272 0.255951
132 1 0.504382 0.834987 0.342676
136 1 0.585937 0.918223 0.420332
70 1 0.756357 0.91434 0.254104
71 1 0.922846 0.747483 0.2476
140 1 0.839542 0.827722 0.33417
141 1 0.757054 0.748578 0.413431
144 1 0.919801 0.911635 0.418844
74 1 -0.00331114 0.159661 0.493048
75 1 0.163759 0.0021373 0.502628
145 1 -0.00258594 0.00637087 0.670073
148 1 0.153357 0.163013 0.671687
79 1 0.239561 0.0882806 0.586677
82 1 0.332299 0.167582 0.502304
153 1 0.328321 0.00316773 0.665937
83 1 0.502371 -0.000429964 0.507338
87 1 0.580929 0.0920277 0.583265
90 1 0.668013 0.178916 0.502516
156 1 0.498057 0.165656 0.667288
161 1 0.665866 -0.000931681 0.664425
91 1 0.827067 -0.000618925 0.502927
95 1 0.909096 0.0826734 0.583002
164 1 0.833594 0.166785 0.665652
78 1 0.0822203 0.251364 0.580149
99 1 0.166737 0.331778 0.493673
169 1 -0.00216943 0.337985 0.66054
86 1 0.416705 0.252523 0.589913
103 1 0.248933 0.411684 0.578676
177 1 0.330398 0.332424 0.661937
107 1 0.489352 0.337797 0.501344
111 1 0.580805 0.416308 0.57481
185 1 0.660982 0.335838 0.669757
94 1 0.755183 0.258269 0.583012
115 1 0.834086 0.338966 0.490791
119 1 0.913179 0.423723 0.576917
98 1 0.0075771 0.502073 0.505162
102 1 0.0949662 0.58305 0.587514
123 1 0.171895 0.669523 0.503067
172 1 0.16913 0.494288 0.669213
193 1 0.0133144 0.67052 0.661958
106 1 0.328833 0.498025 0.497095
110 1 0.415697 0.58272 0.581331
201 1 0.335749 0.670023 0.670642
114 1 0.669503 0.495985 0.497384
131 1 0.501447 0.665275 0.497561
180 1 0.504468 0.499566 0.669598
209 1 0.661005 0.666272 0.667144
118 1 0.744861 0.578808 0.579485
139 1 0.832133 0.659934 0.501397
188 1 0.828989 0.502198 0.66533
122 1 0.00419314 0.829877 0.506969
126 1 0.0774488 0.918795 0.584616
196 1 0.170894 0.835072 0.667239
127 1 0.262136 0.759301 0.577566
130 1 0.3431 0.844627 0.496078
134 1 0.413593 0.91502 0.591101
135 1 0.580285 0.747431 0.581878
138 1 0.666207 0.826898 0.499903
204 1 0.501795 0.827943 0.670396
142 1 0.746192 0.916481 0.57825
143 1 0.920941 0.742137 0.581277
212 1 0.836198 0.832401 0.656267
146 1 -0.0108512 0.165411 0.832109
147 1 0.164891 0.00405567 0.837282
149 1 0.0778046 0.0851126 0.76651
151 1 0.249488 0.0837669 0.921989
154 1 0.32942 0.170298 0.835146
157 1 0.411032 0.0915165 0.751842
155 1 0.48999 -0.00128557 0.833435
159 1 0.586435 0.0780121 0.913767
162 1 0.658829 0.16437 0.834034
163 1 0.827297 -0.00320374 0.835956
165 1 0.744178 0.0889007 0.747533
167 1 0.914074 0.0833969 0.919247
150 1 0.0750701 0.252214 0.91549
171 1 0.158391 0.331156 0.83539
173 1 0.0813054 0.414949 0.742839
152 1 0.245513 0.252772 0.755458
158 1 0.419036 0.251716 0.923645
175 1 0.244973 0.423615 0.918241
181 1 0.418108 0.415529 0.751213
160 1 0.577345 0.249289 0.753998
179 1 0.496822 0.339019 0.838052
183 1 0.582698 0.414914 0.91552
166 1 0.751718 0.250886 0.907603
168 1 0.91041 0.25048 0.745785
187 1 0.832452 0.342832 0.823901
189 1 0.740999 0.425649 0.752716
191 1 0.917402 0.425362 0.912593
170 1 -0.000716084 0.50508 0.826543
174 1 0.082851 0.582319 0.915872
195 1 0.167922 0.66766 0.833882
176 1 0.254297 0.584067 0.754203
178 1 0.337958 0.503403 0.83673
182 1 0.42053 0.577806 0.920962
184 1 0.581423 0.587331 0.75383
186 1 0.663679 0.504621 0.838256
203 1 0.496927 0.665752 0.839742
190 1 0.75306 0.586841 0.918482
192 1 0.918739 0.584693 0.737758
211 1 0.833038 0.667575 0.828143
194 1 0.00372004 0.83883 0.833775
197 1 0.0878314 0.752949 0.745452
198 1 0.0856435 0.920217 0.923911
199 1 0.251465 0.746583 0.916708
200 1 0.248674 0.919024 0.754047
202 1 0.334739 0.834662 0.834043
205 1 0.421242 0.752265 0.756743
206 1 0.407791 0.918683 0.922831
207 1 0.580473 0.749439 0.916705
208 1 0.58914 0.921993 0.760709
210 1 0.666831 0.827521 0.834303
213 1 0.74938 0.753913 0.741269
214 1 0.750787 0.906274 0.916193
215 1 0.917276 0.75055 0.915814
216 1 0.914635 0.916778 0.748804
ITEM: TIMESTEP
2800
ITEM: NUMBER OF ATOMS
216
ITEM: BOX BOUNDS pp pp pp
-7.2189862633537771e-02 1.6365189862633549e+01
-7.2189862633537771e-02 1.6365189862633549e+01
-7.2189862633537771e-02 1.6365189862633549e+01
ITEM: ATOMS id type xs ys zs
1 1 0.00978719 0.0059516 0.0020685
2 1 0.00250436 0.166342 0.170847
3 1 0.172935 -0.00298303 0.165779
4 1 0.173684 0.171077 0.00345639
5 1 0.0873462 0.0881436 0.0871794
9 1 0.337193 -0.00640374 -0.0085607
10 1 0.332157 0.169973 0.166202
13 1 0.411881 0.0828058 0.0793418
11 1 0.48967 -0.000606542 0.168741
12 1 0.498384 0.169039 0.00351891
17 1 0.66406 0.00695167 -0.00178829
18 1 0.663102 0.169563 0.166643
19 1 0.838214 -0.00119684 0.161998
20 1 0.832003 0.155334 0.00917408
21 1 0.741452 0.0806213 0.0920461
25 1 0.00365705 0.327688 0.00591017
27 1 0.166891 0.343264 0.173889
29 1 0.0871137 0.420597 0.0820375
8 1 0.252779 0.25591 0.0894574
33 1 0.339721 0.333046 -0.0053276
37 1 0.419484 0.419918 0.0881592
16 1 0.57922 0.249683 0.0848581
35 1 0.497888 0.333864 0.174782
41 1 0.66591 0.336694 0.00756399
24 1 0.920897 0.246689 0.0833275
43 1 0.837787 0.339072 0.161266
45 1 0.751591 0.418887 0.0852718
26 1 -0.0053916 0.499413 0.167872
28 1 0.169675 0.499914 -0.00399411
49 1 -0.00236541 0.666663 -0.0020136
51 1 0.167346 0.662989 0.164307
32 1 0.25092 0.583085 0.0777577
34 1 0.334385 0.503245 0.164234
57 1 0.341424 0.670194 -3.36645e-05
36 1 0.497849 0.498706 -0.00823686
40 1 0.583946 0.571611 0.0784187
42 1 0.663768 0.495937 0.16803
59 1 0.50347 0.664724 0.158369
65 1 0.666997 0.668043 -0.002931
44 1 0.835723 0.502962 0.00196049
48 1 0.914975 0.585432 0.0856012
67 1 0.829914 0.669718 0.16927
50 1 -0.00572621 0.829823 0.169582
52 1 0.164244 0.832031 -0.00566373
53 1 0.0792172 0.741322 0.0841117
56 1 0.254495 0.911755 0.0718031
58 1 0.328522 0.829172 0.163683
61 1 0.421102 0.755284 0.076874
60 1 0.509888 0.83736 -0.0050174
64 1 0.58123 0.927768 0.0881808
66 1 0.66766 0.839115 0.164545
68 1 0.831086 0.843299 -0.000964985
69 1 0.748258 0.754223 0.0797165
72 1 0.925363 0.916989 0.0784473
73 1 0.00427113 0.00317111 0.335564
76 1 0.17107 0.169192 0.332181
77 1 0.0896296 0.0857785 0.415814
7 1 0.249843 0.0814153 0.251995
81 1 0.32797 -0.00429157 0.333812
85 1 0.41447 0.0884912 0.414081
15 1 0.572903 0.0799881 0.248617
84 1 0.492802 0.16284 0.332547
89 1 0.658628 0.00469716 0.331388
23 1 0.919603 0.0809014 0.249476
92 1 0.833084 0.166329 0.328752
93 1 0.751032 0.0783786 0.413099
6 1 0.0873228 0.253798 0.251808
97 1 0.00341656 0.335542 0.337138
101 1 0.0888541 0.415348 0.425227
14 1 0.407797 0.251654 0.25201
31 1 0.252148 0.427009 0.252705
80 1 0.250816 0.252651 0.414926
105 1 0.328768 0.34137 0.337062
109 1 0.42148 0.418702 0.423028
39 1 0.578239 0.415442 0.256063
88 1 0.586354 0.24582 0.419447
113 1 0.66432 0.335006 0.335841
22 1 0.746397 0.255304 0.246667
47 1 0.918078 0.411169 0.251877
96 1 0.916126 0.250169 0.421361
117 1 0.747567 0.412401 0.424736
30 1 0.0828052 0.585336 0.24723
100 1 0.162682 0.504024 0.337287
121 1 -5.30094e-05 0.670688 0.331688
38 1 0.417791 0.586512 0.249295
104 1 0.250608 0.580907 0.420347
129 1 0.336747 0.670491 0.334542
108 1 0.499387 0.50374 0.336353
112 1 0.581244 0.583995 0.41646
137 1 0.662737 0.664316 0.331897
46 1 0.747057 0.579879 0.252013
116 1 0.829925 0.491292 0.337704
120 1 0.90953 0.58203 0.419095
54 1 0.0844245 0.918331 0.245484
124 1 0.164815 0.831956 0.335288
125 1 0.0804478 0.748821 0.417124
55 1 0.248448 0.751843 0.25156
62 1 0.405731 0.910368 0.245155
128 1 0.252912 0.908432 0.426234
133 1 0.415234 0.750883 0.41687
63 1 0.579518 0.751405 0.249917
132 1 0.497019 0.832943 0.330137
136 1 0.584091 0.915585 0.416899
70 1 0.744748 0.923642 0.249593
71 1 0.909168 0.75336 0.25557
140 1 0.825665 0.836526 0.327761
141 1 0.747217 0.752893 0.41613
144 1 0.916037 0.917347 0.416829
74 1 -0.000250769 0.165984 0.505901
75 1 0.166828 -0.0043054 0.498606
145 1 0.00714201 -0.00285767 0.668589
148 1 0.170878 0.164888 0.663588
79 1 0.251714 0.0754294 0.5828
82 1 0.328013 0.172292 0.504008
153 1 0.335457 -0.00167677 0.667197
83 1 0.50144 0.00411505 0.499189
87 1 0.581662 0.0821518 0.587175
90 1 0.664575 0.156452 0.500092
156 1 0.500857 0.168172 0.664438
161 1 0.666601 0.00145048 0.666349
91 1 0.836173 -0.00251929 0.499612
95 1 0.917272 0.0792347 0.583569
164 1 0.833892 0.16668 0.662667
78 1 0.0859521 0.248958 0.58342
99 1 0.175285 0.332357 0.505814
169 1 -0.00176296 0.330881 0.67303
86 1 0.418422 0.24898 0.582965
103 1 0.248218 0.41996 0.586916
177 1 0.333397 0.332169 0.664095
107 1 0.504038 0.329921 0.502209
111 1 0.584216 0.418775 0.584366
185 1 0.670365 0.338068 0.66422
94 1 0.74821 0.246517 0.585776
115 1 0.830253 0.331271 0.507734
119 1 0.921378 0.413295 0.585729
98 1 -0.000707108 0.502656 0.498373
102 1 0.0693807 0.585757 0.582732
123 1 0.161445 0.6644 0.496028
172 1 0.161078 0.504501 0.662582
193 1 -0.011715 0.666394 0.666215
106 1 0.333614 0.495923 0.49859
110 1 0.422782 0.586208 0.583181
201 1 0.334819 0.669802 0.667218
114 1 0.664247 0.504875 0.497584
131 1 0.50044 0.672513 0.499374
180 1 0.500322 0.497889 0.669538
209 1 0.670411 0.667265 0.664137
118 1 0.751417 0.584451 0.585117
139 1 0.831011 0.675666 0.499709
188 1 0.83977 0.499769 0.661845
122 1 -0.00409013 0.831624 0.495653
126 1 0.0814915 0.912458 0.578646
196 1 0.159978 0.83374 0.665504
127 1 0.245685 0.743612 0.588036
130 1 0.331541 0.826707 0.501687
134 1 0.416221 0.919647 0.577454
135 1 0.582969 0.748057 0.584968
138 1 0.667828 0.836734 0.506132
204 1 0.495706 0.835079 0.65842
142 1 0.756473 0.916332 0.588224
143 1 0.917566 0.756604 0.580335
212 1 0.830191 0.836252 0.673267
146 1 0.00978727 0.165548 0.83547
147 1 0.163688 -0.00180399 0.83053
149 1 0.0858363 0.082834 0.741757
151 1 0.24681 0.0788626 0.911107
154 1 0.33277 0.162934 0.83001
157 1 0.423408 0.082221 0.745857
155 1 0.502993 0.00254893 0.832384
159 1 0.582114 0.0893855 0.916266
162 1 0.6662 0.161708 0.829484
163 1 0.839114 0.0023647 0.838751
165 1 0.752153 0.085676 0.747656
167 1 0.924831 0.0866653 0.920425
150 1 0.0895435 0.246037 0.920767
171 1 0.165051 0.335885 0.826384
173 1 0.0841902 0.417315 0.751966
152 1 0.248679 0.246633 0.742817
158 1 0.418944 0.252124 0.901882
175 1 0.252335 0.415725 0.91237
181 1 0.415955 0.411427 0.74708
160 1 0.586705 0.246358 0.748293
179 1 0.508922 0.332077 0.825191
183 1 0.586636 0.415181 0.915806
166 1 0.746128 0.243834 0.924487
168 1 0.923043 0.241804 0.75191
187 1 0.836504 0.326376 0.836143
189 1 0.759343 0.419072 0.748956
191 1 0.913962 0.409953 0.922434
170 1 0.00393097 0.493287 0.84015
174 1 0.0839508 0.583928 0.918876
195 1 0.162142 0.663527 0.82928
176 1 0.246517 0.583303 0.746539
178 1 0.334817 0.49996 0.83389
182 1 0.416461 0.590534 0.911176
184 1 0.586039 0.579717 0.75018
186 1 0.66614 0.495598 0.830598
203 1 0.505066 0.665615 0.828166
190 1 0.744209 0.574525 0.916411
192 1 0.915012 0.584473 0.751607
211 1 0.830749 0.666643 0.837732
194 1 0.00114652 0.828162 0.836873
197 1 0.0778984 0.741439 0.751092
198 1 0.0862244 0.920611 0.916296
199 1 0.251269 0.748738 0.915442
200 1 0.247586 0.919088 0.748565
202 1 0.33723 0.831271 0.83622
205 1 0.420263 0.748402 0.751305
206 1 0.422646 0.916999 0.91153
207 1 0.589661 0.747694 0.911258
208 1 0.57681 0.913514 0.73826
210 1 0.663408 0.841733 0.83425
213 1 0.742295 0.74913 0.761227
214 1 0.744375 0.926427 0.919097
215 1 0.914627 0.753889 0.921241
216 1 0.919572 0.91497 0.752511
ITEM: TIMESTEP
2900
ITEM: NUMBER OF ATOMS
216
ITEM: BOX BOUNDS pp pp pp
-6.1787970356647293e-02 1.6354787970356654e+01
-6.1787970356647293e-02 1.6354787970356654e+01
-6.1787970356647293e-02 1.6354787970356654e+01
ITEM: ATOMS id type xs ys zs
1 1 -0.00884753 -0.00721065 0.00179189
2 1 0.00124173 0.164956 0.166344
3 1 0.162415 0.0011735 0.159544
4 1 0.168064 0.160401 -0.00312277
5 1 0.0762775 0.081563 0.0789256
9 1 0.329849 0.00771916 0.00116955
10 1 0.334075 0.166918 0.163183
13 1 0.414657 0.0853868 0.0833211
11 1 0.504669 0.00661523 0.159449
12 1 0.500756 0.17091 0.000528506
17 1 0.672534 0.00175901 0.00380415
18 1 0.66698 0.172422 0.165881
19 1 0.825744 0.00622792 0.172845
20 1 0.842669 0.173622 0.00171613
21 1 0.752587 0.0912787 0.0845511
25 1 0.00730755 0.332244 -3.74422e-05
27 1 0.165351 0.326095 0.16606
29 1 0.0844733 0.415752 0.0876915
8 1 0.248446 0.246967 0.0805073
33 1 0.328081 0.33417 0.00386639
37 1 0.415637 0.420816 0.0812782
16 1 0.586647 0.253693 0.0862771
35 1 0.503795 0.335418 0.161121
41 1 0.664354 0.339317 0.00232109
24 1 0.92079 0.257457 0.0913959
43 1 0.827873 0.333516 0.175118
45 1 0.747322 0.418085 0.0905366
26 1 0.00266854 0.499583 0.169611
28 1 0.166131 0.501876 0.000786398
49 1 0.00172555 0.663624 0.00619193
51 1 0.167869 0.667188 0.164391
32 1 0.251944 0.582722 0.0849418
34 1 0.329471 0.499794 0.167619
57 1 0.329608 0.660461 -0.00201502
36 1 0.501882 0.503977 -0.00088002
40 1 0.581797 0.589066 0.0843726
42 1 0.664359 0.504322 0.17081
59 1 0.494408 0.665094 0.166195
65 1 0.666673 0.666578 -0.00225486
44 1 0.832195 0.49679 0.00883363
48 1 0.917638 0.581644 0.0878325
67 1 0.83043 0.666574 0.166236
50 1 -0.000991867 0.833713 0.164673
52 1 0.170817 0.836719 -0.000767276
53 1 0.0833232 0.756429 0.0815767
56 1 0.249854 0.921178 0.0874556
58 1 0.334064 0.838018 0.164917
61 1 0.408708 0.745317 0.0827625
60 1 0.494262 0.827734 -0.00488342
64 1 0.583682 0.918292 0.0753351
66 1 0.662818 0.832668 0.164672
68 1 0.835959 0.826932 0.00768751
69 1 0.747988 0.748908 0.0828521
72 1 0.907006 0.920774 0.0882451
73 1 -0.00279782 0.00172036 0.335275
76 1 0.163179 0.166742 0.337798
77 1 0.0871665 0.0787797 0.41871
7 1 0.241912 0.0893744 0.245895
81 1 0.332325 0.000391612 0.324441
85 1 0.416283 0.0764598 0.414431
15 1 0.582749 0.0841225 0.24635
84 1 0.504782 0.167487 0.327266
89 1 0.667018 0.0041819 0.326898
23 1 0.916932 0.0869137 0.251519
92 1 0.83702 0.165355 0.343654
93 1 0.745311 0.0809051 0.414527
6 1 0.0834694 0.246325 0.252142
97 1 -0.00464607 0.334016 0.332937
101 1 0.0747951 0.421072 0.416825
14 1 0.417922 0.252098 0.248267
31 1 0.250752 0.410652 0.245605
80 1 0.245899 0.25199 0.415758
105 1 0.332662 0.332787 0.332486
109 1 0.415758 0.420823 0.413149
39 1 0.586224 0.421211 0.249745
88 1 0.583707 0.252468 0.417199
113 1 0.667923 0.336976 0.336822
22 1 0.753883 0.25069 0.258018
47 1 0.913399 0.421531 0.252471
96 1 0.920477 0.254269 0.419851
117 1 0.750853 0.415673 0.415626
30 1 0.0826203 0.58867 0.249686
100 1 0.168155 0.498337 0.329597
121 1 -0.00713639 0.671483 0.327231
38 1 0.415459 0.579661 0.251584
104 1 0.245477 0.585503 0.41475
129 1 0.328777 0.665672 0.328617
108 1 0.507162 0.501946 0.335316
112 1 0.583362 0.583642 0.420163
137 1 0.659412 0.671937 0.338983
46 1 0.746744 0.589761 0.247603
116 1 0.826532 0.501776 0.329984
120 1 0.913335 0.580259 0.417357
54 1 0.0803981 0.918131 0.254426
124 1 0.16175 0.827489 0.330802
125 1 0.0749886 0.750588 0.412494
55 1 0.25254 0.747328 0.243804
62 1 0.423145 0.926216 0.240403
128 1 0.244253 0.91639 0.405258
133 1 0.413212 0.747096 0.413801
63 1 0.579194 0.750421 0.247472
132 1 0.486936 0.830106 0.327983
136 1 0.578734 0.918595 0.404898
70 1 0.745858 0.915114 0.250092
71 1 0.916846 0.750148 0.240846
140 1 0.839484 0.833651 0.332499
141 1 0.747605 0.750795 0.414999
144 1 0.913275 0.915435 0.420547
74 1 0.00400724 0.167291 0.501051
75 1 0.164279 -0.00408387 0.500162
145 1 0.000795942 0.000333107 0.660173
148 1 0.172083 0.16605 0.669895
79 1 0.252518 0.0866679 0.580739
82 1 0.338458 0.16821 0.497213
153 1 0.337323 -0.000232259 0.65995
83 1 0.500595 -0.00708416 0.499819
87 1 0.584045 0.0779807 0.578258
90 1 0.668324 0.165463 0.503047
156 1 0.505242 0.164848 0.662212
161 1 0.668643 0.00572503 0.66283
91 1 0.833876 0.0044578 0.497243
95 1 0.919726 0.0856021 0.585899
164 1 0.838821 0.16963 0.673989
78 1 0.0841039 0.252442 0.587195
99 1 0.160833 0.337229 0.496531
169 1 0.00142338 0.332733 0.669731
86 1 0.422907 0.248522 0.58068
103 1 0.250521 0.416828 0.583243
177 1 0.338277 0.335102 0.66366
107 1 0.499479 0.338819 0.500737
111 1 0.589597 0.41298 0.584306
185 1 0.67174 0.315069 0.668277
94 1 0.759077 0.24034 0.579256
115 1 0.835195 0.333791 0.502053
119 1 0.910262 0.414657 0.58828
98 1 -0.00964618 0.495316 0.506796
102 1 0.0834731 0.579833 0.586939
123 1 0.156048 0.665935 0.500539
172 1 0.165636 0.49261 0.66998
193 1 0.000484342 0.662572 0.669206
106 1 0.329043 0.503273 0.50387
110 1 0.41379 0.580115 0.583083
201 1 0.327806 0.661588 0.665212
114 1 0.670537 0.49692 0.499872
131 1 0.500292 0.667363 0.496092
180 1 0.508008 0.502182 0.665103
209 1 0.666805 0.667969 0.667475
118 1 0.752646 0.577558 0.590807
139 1 0.830407 0.663187 0.508625
188 1 0.82734 0.492447 0.674855
122 1 -0.000687662 0.834526 0.500373
126 1 0.0841783 0.916318 0.581768
196 1 0.165778 0.829368 0.66651
127 1 0.243516 0.752059 0.572548
130 1 0.327985 0.826007 0.491421
134 1 0.416796 0.905873 0.582204
135 1 0.583743 0.75664 0.582955
138 1 0.664018 0.836102 0.493832
204 1 0.506395 0.831782 0.673088
142 1 0.746461 0.925074 0.573245
143 1 0.921549 0.745539 0.585601
212 1 0.832982 0.829865 0.656295
146 1 0.00399049 0.164683 0.831599
147 1 0.168085 -0.0042655 0.833137
149 1 0.0904445 0.0798348 0.753001
151 1 0.253173 0.0807123 0.915207
154 1 0.33979 0.165858 0.828303
157 1 0.419927 0.0791374 0.741905
155 1 0.504058 -0.000495469 0.837984
159 1 0.588403 0.0828837 0.923546
162 1 0.669559 0.172165 0.834328
163 1 0.828368 0.00020691 0.837166
165 1 0.752095 0.0819498 0.753194
167 1 0.920795 0.0791936 0.915335
150 1 0.082528 0.2532 0.913188
171 1 0.175262 0.333206 0.83886
173 1 0.0854866 0.413085 0.753497
152 1 0.257655 0.257807 0.748297
158 1 0.419544 0.251127 0.923946
175 1 0.244469 0.421497 0.920155
181 1 0.421288 0.417885 0.748672
160 1 0.577598 0.245239 0.750703
179 1 0.499362 0.334569 0.835726
183 1 0.585586 0.420127 0.917891
166 1 0.753017 0.256198 0.918397
168 1 0.922183 0.251816 0.753073
187 1 0.840749 0.334365 0.834628
189 1 0.744206 0.408255 0.754213
191 1 0.922385 0.418199 0.925078
170 1 0.00488549 0.501587 0.834641
174 1 0.0827447 0.585433 0.923358
195 1 0.160377 0.666025 0.840646
176 1 0.243896 0.582 0.752312
178 1 0.334018 0.497754 0.830346
182 1 0.423294 0.583943 0.917274
184 1 0.589365 0.587418 0.751862
186 1 0.666493 0.500002 0.835167
203 1 0.50069 0.663878 0.832284
190 1 0.752592 0.583091 0.919148
192 1 0.915102 0.580355 0.749336
211 1 0.838148 0.666608 0.837556
194 1 -0.00206395 0.832246 0.835028
197 1 0.0786091 0.749134 0.75361
198 1 0.0794761 0.915866 0.912197
199 1 0.25112 0.747935 0.91325
200 1 0.253265 0.915786 0.747615
202 1 0.334406 0.832594 0.824772
205 1 0.419534 0.744535 0.740683
206 1 0.410019 0.918619 0.914468
207 1 0.579904 0.749879 0.912433
208 1 0.591816 0.914517 0.757022
210 1 0.67485 0.829882 0.841019
213 1 0.756773 0.751188 0.744277
214 1 0.756767 0.911905 0.92715
215 1 0.919625 0.747147 0.922892
216 1 0.913639 0.920432 0.745784
ITEM: TIMESTEP
3000
ITEM: NUMBER OF ATOMS
216
ITEM: BOX BOUNDS pp pp pp
-7.1104485042370769e-02 1.6364104485042347e+01
-7.1104485042370769e-02 1.6364104485042347e+01
-7.1104485042370769e-02 1.6364104485042347e+01
ITEM: ATOMS id type xs ys zs
1 1 0.00792799 0.0058635 -0.00393012
2 1 -0.00330957 0.171459 0.166801
3 1 0.171346 0.0015265 0.1665
4 1 0.164672 0.170208 0.00350882
5 1 0.0869418 0.0846764 0.0885883
9 1 0.33577 -0.0019101 0.00547184
10 1 0.336967 0.161522 0.161945
13 1 0.423635 0.0800226 0.0798455
11 1 0.498493 0.00104981 0.175243
12 1 0.50485 0.163167 0.00219183
17 1 0.667716 -0.00931614 -0.00376046
18 1 0.663812 0.157711 0.168878
19 1 0.839693 -0.00936591 0.163336
20 1 0.826682 0.160659 -0.00539384
21 1 0.74994 0.0681117 0.0779069
25 1 -0.00836211 0.336098 9.67431e-06
27 1 0.17083 0.335078 0.163753
29 1 0.0795292 0.4139 0.0780097
8 1 0.254015 0.252239 0.0860518
33 1 0.333926 0.328103 -0.00343557
37 1 0.411086 0.410514 0.0830838
16 1 0.585396 0.248813 0.0767696
35 1 0.502941 0.32964 0.169924
41 1 0.668699 0.331869 -0.00107741
24 1 0.910526 0.245912 0.0805862
43 1 0.842218 0.338784 0.161647
45 1 0.750905 0.417096 0.0775032
26 1 -0.00386531 0.502742 0.162299
28 1 0.168624 0.500572 0.00133438
49 1 -0.000705964 0.66998 -0.0116719
51 1 0.164262 0.665723 0.169781
32 1 0.247797 0.58679 0.0849472
34 1 0.328033 0.501 0.168396
57 1 0.330109 0.670056 0.00339873
36 1 0.499076 0.494232 0.00324612
40 1 0.579738 0.581725 0.0872465
42 1 0.669769 0.495545 0.162312
59 1 0.499676 0.671632 0.172837
65 1 0.663245 0.668327 0.00634117
44 1 0.831374 0.507122 -0.0059975
48 1 0.916138 0.594802 0.079858
67 1 0.839275 0.669488 0.169832
50 1 -0.00315148 0.831122 0.171059
52 1 0.156984 0.836085 0.00293462
53 1 0.0804675 0.744362 0.0867303
56 1 0.249927 0.920541 0.0773494
58 1 0.329394 0.834495 0.166709
61 1 0.417396 0.753594 0.0863789
60 1 0.506792 0.835039 0.00570647
64 1 0.586014 0.917698 0.0914037
66 1 0.670788 0.83002 0.166169
68 1 0.827542 0.836243 -0.0120853
69 1 0.758667 0.749392 0.0856543
72 1 0.918928 0.909084 0.073936
73 1 -0.00345025 0.000653852 0.335997
76 1 0.163427 0.167069 0.328768
77 1 0.0810279 0.0877015 0.411334
7 1 0.257304 0.0848343 0.250277
81 1 0.338763 -0.00326722 0.337563
85 1 0.418698 0.0866579 0.418183
15 1 0.590462 0.0788611 0.253084
84 1 0.502025 0.167025 0.329901
89 1 0.672573 0.000446498 0.338965
23 1 0.913591 0.0835759 0.245698
92 1 0.829731 0.168649 0.32878
93 1 0.752231 0.0879433 0.425616
6 1 0.0780366 0.248198 0.24872
97 1 0.00179615 0.327067 0.336123
101 1 0.0857529 0.407636 0.416127
14 1 0.416263 0.247377 0.247241
31 1 0.248957 0.414406 0.250873
80 1 0.25241 0.241385 0.414188
105 1 0.332632 0.328701 0.333026
109 1 0.416074 0.410273 0.416305
39 1 0.583139 0.418917 0.252252
88 1 0.585848 0.248813 0.41405
113 1 0.66867 0.339559 0.329711
22 1 0.749006 0.253014 0.243182
47 1 0.919542 0.416114 0.25361
96 1 0.907681 0.248772 0.417495
117 1 0.749474 0.41824 0.421548
30 1 0.0776596 0.578096 0.253524
100 1 0.164199 0.494039 0.333306
121 1 0.0086433 0.667787 0.338058
38 1 0.411475 0.585979 0.248768
104 1 0.257222 0.584309 0.417841
129 1 0.335923 0.672069 0.336717
108 1 0.492087 0.501293 0.330015
112 1 0.580035 0.582803 0.411496
137 1 0.666655 0.654592 0.329556
46 1 0.75359 0.577188 0.253807
116 1 0.83588 0.498232 0.337896
120 1 0.92783 0.585763 0.415404
54 1 0.0876195 0.914647 0.248823
124 1 0.174764 0.838916 0.33844
125 1 0.0971067 0.751751 0.422565
55 1 0.243651 0.752458 0.255292
62 1 0.417758 0.909019 0.255726
128 1 0.250484 0.922415 0.426384
133 1 0.41673 0.750075 0.419428
63 1 0.589321 0.745343 0.253015
132 1 0.503768 0.835587 0.340319
136 1 0.589421 0.918109 0.427395
70 1 0.753583 0.916986 0.249469
71 1 0.917559 0.744444 0.258205
140 1 0.832308 0.834844 0.334673
141 1 0.746094 0.750813 0.414712
144 1 0.92055 0.915291 0.414719
74 1 -0.00217634 0.163589 0.493836
75 1 0.164671 0.0068474 0.502519
145 1 0.00477856 -2.94531e-05 0.666079
148 1 0.161561 0.161768 0.664267
79 1 0.251084 0.0781484 0.582823
82 1 0.332571 0.162903 0.501753
153 1 0.329117 -0.00328182 0.674261
83 1 0.50093 0.0109553 0.501633
87 1 0.581924 0.0937362 0.587941
90 1 0.667737 0.170269 0.505056
156 1 0.500234 0.164985 0.67222
161 1 0.661221 -0.00406353 0.665882
91 1 0.829103 -0.00587587 0.501396
95 1 0.907812 0.0817932 0.583626
164 1 0.823678 0.167234 0.665744
78 1 0.0836447 0.250949 0.582044
99 1 0.173645 0.331249 0.501019
169 1 -0.00211819 0.337586 0.662442
86 1 0.411867 0.247151 0.594654
103 1 0.254023 0.415152 0.585216
177 1 0.329691 0.331329 0.66735
107 1 0.493154 0.322524 0.500151
111 1 0.574231 0.419068 0.581846
185 1 0.661032 0.349156 0.672843
94 1 0.741968 0.263477 0.587468
115 1 0.831501 0.335617 0.499164
119 1 0.92069 0.416949 0.579982
98 1 0.0131364 0.495187 0.502725
102 1 0.0915622 0.586607 0.581519
123 1 0.181566 0.669871 0.501742
172 1 0.171813 0.50401 0.661245
193 1 0.00357245 0.672001 0.661695
106 1 0.336623 0.495677 0.500081
110 1 0.413431 0.583305 0.57743
201 1 0.343434 0.671207 0.665063
114 1 0.662312 0.506951 0.497247
131 1 0.497383 0.661693 0.497148
180 1 0.487049 0.504861 0.668678
209 1 0.662782 0.66211 0.670227
118 1 0.746897 0.584432 0.580468
139 1 0.835769 0.668228 0.496556
188 1 0.843279 0.508023 0.657228
122 1 0.00323825 0.832533 0.501838
126 1 0.0812423 0.918854 0.579049
196 1 0.172739 0.835274 0.660361
127 1 0.263008 0.749317 0.584545
130 1 0.340931 0.840529 0.504568
134 1 0.416824 0.924912 0.585869
135 1 0.580446 0.742798 0.587608
138 1 0.66816 0.829125 0.510305
204 1 0.491711 0.831517 0.658628
142 1 0.751437 0.908634 0.593495
143 1 0.915255 0.749863 0.587354
212 1 0.839334 0.829675 0.677305
146 1 -0.0124098 0.173761 0.8315
147 1 0.170862 0.0044657 0.831498
149 1 0.0759053 0.0880101 0.75502
151 1 0.247934 0.0796482 0.921914
154 1 0.32592 0.167728 0.84045
157 1 0.411646 0.088516 0.754335
155 1 0.496072 -0.00190099 0.821748
159 1 0.582706 0.0804794 0.913815
162 1 0.665342 0.162127 0.828332
163 1 0.834244 0.000307341 0.829635
165 1 0.748201 0.0792533 0.744355
167 1 0.913238 0.0819997 0.913532
150 1 0.0813394 0.254621 0.915826
171 1 0.162945 0.327752 0.832385
173 1 0.0877452 0.414956 0.745303
152 1 0.24433 0.246788 0.752574
158 1 0.421181 0.248582 0.918346
175 1 0.252153 0.406623 0.915521
181 1 0.413591 0.411573 0.749415
160 1 0.585484 0.255405 0.748862
179 1 0.502973 0.333678 0.834948
183 1 0.579342 0.415773 0.916099
166 1 0.745218 0.251499 0.912946
168 1 0.908444 0.250054 0.742401
187 1 0.825003 0.330489 0.825502
189 1 0.755458 0.430336 0.751485
191 1 0.912561 0.41565 0.911314
170 1 -0.00239673 0.50614 0.832871
174 1 0.0905585 0.583391 0.911188
195 1 0.173998 0.665998 0.827697
176 1 0.256175 0.583436 0.745957
178 1 0.332081 0.500454 0.836847
182 1 0.412587 0.58363 0.922103
184 1 0.575683 0.581794 0.752252
186 1 0.66404 0.504501 0.833634
203 1 0.499114 0.671478 0.833478
190 1 0.746004 0.589207 0.914591
192 1 0.918546 0.586125 0.747974
211 1 0.829447 0.6687 0.82802
194 1 0.00716743 0.83108 0.834569
197 1 0.0899341 0.749842 0.743725
198 1 0.0839433 0.923463 0.913084
199 1 0.245726 0.749751 0.918682
200 1 0.24702 0.916835 0.750525
202 1 0.330269 0.834646 0.835651
205 1 0.420606 0.760601 0.756235
206 1 0.420567 0.918086 0.921706
207 1 0.583912 0.745137 0.917869
208 1 0.57897 0.914156 0.741395
210 1 0.656978 0.831496 0.825581
213 1 0.743474 0.746125 0.750026
214 1 0.746185 0.919216 0.901711
215 1 0.911894 0.753869 0.911608
216 1 0.924859 0.913983 0.758536
ITEM: TIMESTEP
3100
ITEM: NUMBER OF ATOMS
216
ITEM: BOX BOUNDS pp pp pp
-6.8986975481738710e-02 1.6361986975481727e+01
-6.8986975481738710e-02 1.6361986975481727e+01
-6.8986975481738710e-02 1.6361986975481727e+01
ITEM: ATOMS id type xs ys zs
1 1 -0.00718576 -0.00245447 -0.00227957
2 1 -0.00079547 0.165192 0.162924
3 1 0.167058 -0.00459564 0.166734
4 1 0.165126 0.168402 -0.000489757
5 1 0.0773231 0.0817284 0.081309
9 1 0.327053 0.000957226 0.00578413
10 1 0.331532 0.169198 0.168481
13 1 0.409842 0.0792861 0.087617
11 1 0.503065 -0.00201371 0.16279
12 1 0.48595 0.164661 0.00599947
17 1 0.666224 -0.00235997 7.46321e-05
18 1 0.662533 0.170752 0.165252
19 1 0.825538 0.00388259 0.169698
20 1 0.836051 0.17272 -0.00590207
21 1 0.749853 0.0924334 0.085778
25 1 -0.000830295 0.330385 -0.00213673
27 1 0.160016 0.333904 0.169527
29 1 0.0844015 0.417377 0.0816287
8 1 0.250814 0.252071 0.0834818
33 1 0.331478 0.336774 0.00186925
37 1 0.419471 0.418736 0.0809526
16 1 0.580269 0.244243 0.0773731
35 1 0.496866 0.328991 0.163579
41 1 0.664382 0.332027 -0.00525553
24 1 0.921449 0.250941 0.079605
43 1 0.82776 0.328022 0.160324
45 1 0.744692 0.408599 0.0819416
26 1 0.00490462 0.496147 0.171809
28 1 0.161839 0.502078 -0.00127081
49 1 -9.89027e-05 0.664029 0.00613157
51 1 0.175385 0.66509 0.16417
32 1 0.249023 0.579228 0.0826457
34 1 0.338272 0.501201 0.164462
57 1 0.335247 0.664004 0.00775599
36 1 0.50491 0.503218 -0.0011458
40 1 0.591897 0.584568 0.0809201
42 1 0.669605 0.502912 0.169864
59 1 0.50723 0.659215 0.166541
65 1 0.674025 0.669498 -0.00613185
44 1 0.833578 0.492406 0.00205636
48 1 0.917804 0.574694 0.0875397
67 1 0.83688 0.666897 0.162827
50 1 0.00256907 0.830696 0.16308
52 1 0.179797 0.833444 -0.000427995
53 1 0.0884409 0.746168 0.0804356
56 1 0.257136 0.911907 0.09295
58 1 0.340812 0.830054 0.177562
61 1 0.42045 0.742222 0.0878991
60 1 0.497347 0.82841 0.0052702
64 1 0.583216 0.913322 0.0836424
66 1 0.670993 0.835373 0.168685
68 1 0.839763 0.829341 0.00691418
69 1 0.751072 0.750492 0.0813389
72 1 0.914327 0.920962 0.0909081
73 1 0.00409427 0.00274961 0.333048
76 1 0.163495 0.163901 0.335711
77 1 0.0864315 0.0778007 0.42022
7 1 0.24294 0.0800109 0.25325
81 1 0.33417 0.00487551 0.33728
85 1 0.417174 0.0869767 0.423049
15 1 0.577509 0.0818044 0.251966
84 1 0.499736 0.159918 0.34143
89 1 0.665486 -0.002198 0.331422
23 1 0.918849 0.0819402 0.247762
92 1 0.838298 0.16252 0.336545
93 1 0.7498 0.0828915 0.408429
6 1 0.085405 0.248801 0.250665
97 1 0.00224516 0.336504 0.325676
101 1 0.0839579 0.420613 0.411206
14 1 0.414201 0.245277 0.256045
31 1 0.253307 0.416585 0.246475
80 1 0.249447 0.253783 0.414659
105 1 0.33391 0.336874 0.331048
109 1 0.412218 0.425799 0.41472
39 1 0.585123 0.410046 0.244491
88 1 0.584837 0.248902 0.420713
113 1 0.664937 0.325672 0.335202
22 1 0.750923 0.242975 0.257368
47 1 0.918202 0.409846 0.241294
96 1 0.92313 0.257067 0.405685
117 1 0.752193 0.415068 0.405312
30 1 0.0918424 0.590052 0.24591
100 1 0.169558 0.503494 0.331118
121 1 -0.00115345 0.664649 0.326123
38 1 0.427293 0.580381 0.250867
104 1 0.253477 0.58424 0.42219
129 1 0.341308 0.66035 0.330189
108 1 0.509219 0.495028 0.334939
112 1 0.587629 0.584295 0.415129
137 1 0.670392 0.668848 0.333855
46 1 0.752128 0.593494 0.244775
116 1 0.830876 0.498564 0.324629
120 1 0.910198 0.581316 0.408775
54 1 0.0822521 0.917914 0.25236
124 1 0.164419 0.827594 0.327852
125 1 0.0763746 0.746665 0.410764
55 1 0.257953 0.746141 0.254123
62 1 0.419626 0.921369 0.252956
128 1 0.251034 0.913832 0.413969
133 1 0.418433 0.749475 0.416296
63 1 0.58524 0.748957 0.250327
132 1 0.506615 0.828727 0.329577
136 1 0.585537 0.912695 0.413417
70 1 0.752139 0.914327 0.255374
71 1 0.918096 0.748559 0.243129
140 1 0.841182 0.827775 0.32903
141 1 0.75896 0.744863 0.417586
144 1 0.917605 0.918773 0.418905
74 1 -0.00260064 0.171075 0.492019
75 1 0.167878 -0.000208158 0.497126
145 1 -0.00774132 -0.00576121 0.670923
148 1 0.165851 0.173531 0.672389
79 1 0.248637 0.0859099 0.581317
82 1 0.332245 0.17374 0.502317
153 1 0.332621 0.00531113 0.664752
83 1 0.503564 -0.00537152 0.504986
87 1 0.585737 0.0818516 0.586325
90 1 0.663525 0.158919 0.492386
156 1 0.49603 0.17333 0.661015
161 1 0.670565 0.00319193 0.673171
91 1 0.834696 0.00410443 0.493388
95 1 0.917713 0.0907086 0.58053
164 1 0.839002 0.174552 0.670184
78 1 0.0739465 0.251524 0.58018
99 1 0.164295 0.33531 0.496691
169 1 -0.0121014 0.333712 0.665902
86 1 0.414241 0.253428 0.578145
103 1 0.247488 0.414638 0.581326
177 1 0.330407 0.334213 0.664661
107 1 0.49929 0.340105 0.497157
111 1 0.591075 0.422846 0.583898
185 1 0.669827 0.322337 0.660912
94 1 0.757902 0.243198 0.571985
115 1 0.838743 0.339855 0.494509
119 1 0.912447 0.421621 0.580452
98 1 -0.00286625 0.507097 0.496061
102 1 0.0838331 0.584372 0.581354
123 1 0.161251 0.668367 0.499477
172 1 0.169975 0.498177 0.665725
193 1 0.00109588 0.660568 0.66792
106 1 0.333124 0.495586 0.504976
110 1 0.417419 0.581387 0.588376
201 1 0.326233 0.662041 0.669096
114 1 0.674966 0.497669 0.489504
131 1 0.501505 0.664886 0.506237
180 1 0.500968 0.49953 0.672535
209 1 0.667921 0.670693 0.664378
118 1 0.744644 0.583464 0.584696
139 1 0.838145 0.664264 0.50576
188 1 0.827475 0.495041 0.667062
122 1 0.00141353 0.835545 0.4993
126 1 0.0916027 0.916952 0.588325
196 1 0.168155 0.845486 0.67979
127 1 0.240421 0.75319 0.58936
130 1 0.329038 0.831811 0.501906
134 1 0.417103 0.916588 0.589646
135 1 0.581806 0.756376 0.581642
138 1 0.672897 0.833925 0.493782
204 1 0.502133 0.837956 0.680575
142 1 0.750128 0.923575 0.578745
143 1 0.923491 0.754691 0.579331
212 1 0.823817 0.832415 0.656569
146 1 -2.50635e-05 0.162351 0.83486
147 1 0.161186 -0.00561022 0.839977
149 1 0.0832362 0.0784373 0.748123
151 1 0.248108 0.0806392 0.916646
154 1 0.333497 0.168698 0.832374
157 1 0.421358 0.0854346 0.744782
155 1 0.500891 0.00127786 0.84105
159 1 0.578263 0.0904092 0.922268
162 1 0.669646 0.176062 0.832038
163 1 0.828142 -0.00266205 0.835243
165 1 0.755662 0.0874444 0.753432
167 1 0.91211 0.0814093 0.911686
150 1 0.0799194 0.247684 0.915872
171 1 0.165635 0.340561 0.834296
173 1 0.0794053 0.418471 0.748625
152 1 0.248261 0.25793 0.75149
158 1 0.407194 0.254164 0.920264
175 1 0.247833 0.418238 0.919978
181 1 0.41262 0.414943 0.75246
160 1 0.573474 0.248132 0.751015
179 1 0.495214 0.333262 0.83758
183 1 0.587748 0.414141 0.920344
166 1 0.751938 0.255394 0.916652
168 1 0.919705 0.254758 0.755755
187 1 0.831106 0.335584 0.832867
189 1 0.745607 0.409098 0.744427
191 1 0.912366 0.415101 0.908314
170 1 -0.00249381 0.499545 0.827595
174 1 0.0743566 0.587568 0.914398
195 1 0.162467 0.668496 0.838486
176 1 0.239141 0.58541 0.75473
178 1 0.329554 0.498519 0.83539
182 1 0.416234 0.586874 0.918521
184 1 0.585189 0.589493 0.748856
186 1 0.661301 0.496006 0.834052
203 1 0.498238 0.663913 0.834733
190 1 0.751808 0.581981 0.91072
192 1 0.911001 0.589623 0.743298
211 1 0.837386 0.667513 0.830831
194 1 -0.0100305 0.838044 0.830908
197 1 0.0846392 0.752895 0.757194
198 1 0.0859478 0.909632 0.922728
199 1 0.257223 0.747481 0.91843
200 1 0.250205 0.930215 0.757
202 1 0.331383 0.833602 0.831875
205 1 0.411649 0.742002 0.751054
206 1 0.405163 0.915485 0.924538
207 1 0.581313 0.754074 0.917664
208 1 0.586509 0.917402 0.755736
210 1 0.674707 0.836256 0.842102
213 1 0.750242 0.750978 0.75224
214 1 0.756669 0.914538 0.927062
215 1 0.922284 0.749023 0.914984
216 1 0.898228 0.915944 0.743756
ITEM: TIMESTEP
3200
ITEM: NUMBER OF ATOMS
216
ITEM: BOX BOUNDS pp pp pp
-6.4274297699951077e-02 1.6357274297699973e+01
-6.4274297699951077e-02 1.6357274297699973e+01
-6.4274297699951077e-02 1.6357274297699973e+01
ITEM: ATOMS id type xs ys zs
1 1 0.00387088 0.00206455 0.00152003
2 1 0.00337156 0.170576 0.170355
3 1 0.171628 -0.00281434 0.170166
4 1 0.168928 0.161605 -0.00383051
5 1 0.0898089 0.0832497 0.0890579
9 1 0.340559 0.00181378 -0.00295294
10 1 0.335941 0.16198 0.165397
13 1 0.421251 0.0855081 0.080218
11 1 0.491481 0.00192005 0.165183
12 1 0.498949 0.174686 -0.00281196
17 1 0.663473 -4.62337e-05 0.00648223
18 1 0.67012 0.169569 0.166976
19 1 0.842307 -0.00290882 0.170406
20 1 0.83399 0.167407 0.00845136
21 1 0.754884 0.0799062 0.0869061
25 1 0.00360596 0.331215 0.0031917
27 1 0.171554 0.333698 0.167876
29 1 0.0864076 0.417474 0.0875379
8 1 0.249041 0.251281 0.078278
33 1 0.334812 0.330311 -0.00680573
37 1 0.410091 0.414511 0.0810509
16 1 0.587938 0.262698 0.0880072
35 1 0.496477 0.338068 0.169011
41 1 0.666198 0.331203 -0.00116824
24 1 0.917508 0.245138 0.0860472
43 1 0.840294 0.334074 0.169756
45 1 0.749293 0.417224 0.0780885
26 1 -9.37247e-05 0.502916 0.158568
28 1 0.180374 0.501187 -0.0020224
49 1 -0.000721569 0.669979 -0.0053857
51 1 0.16781 0.663919 0.172098
32 1 0.256372 0.587458 0.0845049
34 1 0.33524 0.503991 0.168734
57 1 0.333965 0.671348 -0.0080146
36 1 0.495145 0.492751 -0.00833301
40 1 0.572607 0.57891 0.085625
42 1 0.666763 0.496044 0.163322
59 1 0.491874 0.673508 0.163716
65 1 0.659974 0.6593 0.00473108
44 1 0.834103 0.501015 -0.0017889
48 1 0.917122 0.590023 0.0815577
67 1 0.826548 0.666056 0.171231
50 1 -0.00117605 0.834809 0.175867
52 1 0.159131 0.831944 -0.00105841
53 1 0.0819342 0.74974 0.0873682
56 1 0.245129 0.918933 0.0736949
58 1 0.324033 0.83072 0.149616
61 1 0.41924 0.754973 0.0722148
60 1 0.506805 0.838121 -0.00577638
64 1 0.576853 0.918321 0.0862649
66 1 0.65743 0.833779 0.166362
68 1 0.82251 0.84008 -0.00246462
69 1 0.743715 0.745105 0.0845721
72 1 0.918354 0.915398 0.0792072
73 1 0.00715068 0.00209724 0.336043
76 1 0.166728 0.169452 0.337106
77 1 0.0847925 0.0842406 0.418776
7 1 0.254595 0.0829925 0.253654
81 1 0.325893 -0.00790431 0.335336
85 1 0.408077 0.0833512 0.40708
15 1 0.578266 0.0837477 0.252068
84 1 0.49709 0.1725 0.331164
89 1 0.668524 0.00126555 0.336273
23 1 0.920047 0.0831822 0.253369
92 1 0.83171 0.165136 0.335478
93 1 0.747089 0.0820056 0.417216
6 1 0.0809201 0.255055 0.249735
97 1 -0.00273766 0.327846 0.336901
101 1 0.0749165 0.414315 0.419988
14 1 0.416742 0.25611 0.256033
31 1 0.251303 0.415853 0.254375
80 1 0.253194 0.252647 0.423156
105 1 0.334609 0.337785 0.344046
109 1 0.417481 0.418032 0.418223
39 1 0.582766 0.42547 0.260425
88 1 0.585238 0.243917 0.404478
113 1 0.668294 0.337667 0.338443
22 1 0.750634 0.257893 0.247246
47 1 0.918912 0.422412 0.258989
96 1 0.916306 0.242448 0.421532
117 1 0.74397 0.414853 0.427595
30 1 0.0769602 0.581308 0.24421
100 1 0.162483 0.501192 0.329399
121 1 0.00395537 0.672222 0.331623
38 1 0.41701 0.586569 0.251644
104 1 0.246503 0.578391 0.411334
129 1 0.328607 0.670844 0.330317
108 1 0.496694 0.507224 0.340946
112 1 0.585346 0.582159 0.423359
137 1 0.664871 0.670551 0.332724
46 1 0.749367 0.575929 0.250228
116 1 0.83094 0.499536 0.339537
120 1 0.917477 0.588911 0.421584
54 1 0.088462 0.91679 0.255051
124 1 0.171776 0.833222 0.340323
125 1 0.0832073 0.751978 0.420284
55 1 0.2505 0.747143 0.240128
62 1 0.413247 0.909877 0.244337
128 1 0.24367 0.919636 0.423552
133 1 0.421395 0.748535 0.418374
63 1 0.57972 0.751399 0.250837
132 1 0.497778 0.832436 0.33579
136 1 0.57805 0.920718 0.414061
70 1 0.746175 0.921503 0.241425
71 1 0.912795 0.749728 0.254733
140 1 0.826267 0.838325 0.330019
141 1 0.741002 0.759621 0.409811
144 1 0.914346 0.912722 0.411688
74 1 0.00706663 0.162944 0.501778
75 1 0.164253 -0.00109969 0.500488
145 1 0.00477255 0.0010724 0.6675
148 1 0.17516 0.163834 0.662063
79 1 0.255735 0.0780624 0.584917
82 1 0.339041 0.163063 0.499875
153 1 0.330412 -0.00932529 0.670613
83 1 0.490646 0.00291709 0.490567
87 1 0.578074 0.0825358 0.578708
90 1 0.666203 0.170193 0.497707
156 1 0.498975 0.162213 0.668397
161 1 0.664124 -0.00341619 0.658084
91 1 0.827756 -0.00401565 0.50238
95 1 0.918483 0.0776599 0.58421
164 1 0.829382 0.160132 0.666837
78 1 0.0917181 0.252826 0.583171
99 1 0.173572 0.3436 0.503295
169 1 0.0062759 0.329487 0.669567
86 1 0.416446 0.241679 0.588225
103 1 0.2524 0.430693 0.585321
177 1 0.330403 0.33618 0.661887
107 1 0.50125 0.321763 0.498324
111 1 0.579864 0.414451 0.581149
185 1 0.668527 0.335111 0.676262
94 1 0.743516 0.243812 0.588966
115 1 0.828622 0.324864 0.502439
119 1 0.916872 0.409225 0.58434
98 1 -0.00945436 0.497323 0.502501
102 1 0.0714348 0.5823 0.587109
123 1 0.158005 0.660577 0.501014
172 1 0.157634 0.507477 0.669905
193 1 -0.0137956 0.666281 0.665511
106 1 0.333996 0.506469 0.499522
110 1 0.415221 0.585124 0.583454
201 1 0.340209 0.668579 0.671879
114 1 0.665388 0.499406 0.507244
131 1 0.506437 0.668503 0.500282
180 1 0.503137 0.506528 0.659626
209 1 0.674507 0.666235 0.66867
118 1 0.75863 0.582124 0.579626
139 1 0.823759 0.672356 0.489788
188 1 0.839577 0.502485 0.665098
122 1 -0.00312252 0.828891 0.496301
126 1 0.0793619 0.912399 0.577203
196 1 0.163296 0.822338 0.65895
127 1 0.248013 0.745057 0.581833
130 1 0.333123 0.830806 0.501483
134 1 0.41539 0.916183 0.584892
135 1 0.592162 0.749621 0.589251
138 1 0.661072 0.839664 0.502605
204 1 0.503917 0.830273 0.660722
142 1 0.752377 0.916032 0.58892
143 1 0.902891 0.750578 0.583542
212 1 0.844357 0.841956 0.676501
146 1 6.72076e-05 0.170622 0.829953
147 1 0.170692 -0.00231794 0.820536
149 1 0.0905488 0.0884324 0.759039
151 1 0.251161 0.075728 0.914924
154 1 0.332927 0.170217 0.831572
157 1 0.410197 0.081183 0.748139
155 1 0.500683 -0.00342812 0.829487
159 1 0.584109 0.0841188 0.919558
162 1 0.667569 0.163921 0.836959
163 1 0.84082 0.0052779 0.833707
165 1 0.747097 0.0734342 0.7529
167 1 0.919694 0.0883109 0.920991
150 1 0.0829578 0.249511 0.914671
171 1 0.170844 0.330905 0.831459
173 1 0.0823892 0.416556 0.752155
152 1 0.257108 0.252568 0.744117
158 1 0.424324 0.252225 0.910074
175 1 0.252939 0.415106 0.914476
181 1 0.419457 0.421335 0.742672
160 1 0.584838 0.246554 0.748639
179 1 0.501795 0.335633 0.825336
183 1 0.586489 0.410688 0.913928
166 1 0.748244 0.249035 0.922995
168 1 0.91398 0.249039 0.747573
187 1 0.835726 0.322149 0.834788
189 1 0.763409 0.417388 0.75775
191 1 0.918747 0.407243 0.922703
170 1 0.00143316 0.501474 0.842955
174 1 0.0937557 0.582357 0.924043
195 1 0.169557 0.66615 0.833844
176 1 0.255076 0.587001 0.745115
178 1 0.333353 0.502635 0.825414
182 1 0.420536 0.584881 0.909912
184 1 0.586982 0.579727 0.74453
186 1 0.666512 0.495722 0.829395
203 1 0.505806 0.664657 0.828964
190 1 0.749 0.582036 0.917648
192 1 0.915813 0.575224 0.760196
211 1 0.830652 0.667639 0.834682
194 1 0.00441073 0.834754 0.837061
197 1 0.0771736 0.743052 0.745386
198 1 0.0874358 0.923425 0.909919
199 1 0.244454 0.750309 0.914203
200 1 0.245673 0.899731 0.744843
202 1 0.330809 0.834692 0.834704
205 1 0.425376 0.753777 0.749988
206 1 0.42357 0.914869 0.913473
207 1 0.587532 0.74773 0.914548
208 1 0.583371 0.917771 0.746167
210 1 0.662234 0.837246 0.827956
213 1 0.757412 0.754668 0.751038
214 1 0.748347 0.922866 0.905548
215 1 0.907154 0.74707 0.919791
216 1 0.924752 0.926501 0.758226
ITEM: TIMESTEP
3300
ITEM: NUMBER OF ATOMS
216
ITEM: BOX BOUNDS pp pp pp
-7.9849179526387815e-02 1.6372849179526412e+01
-7.9849179526387815e-02 1.6372849179526412e+01
-7.9849179526387815e-02 1.6372849179526412e+01
ITEM: ATOMS id type xs ys zs
1 1 5.42439e-05 -0.0040971 0.00150019
2 1 -0.00166617 0.169477 0.170185
3 1 0.160126 0.0054139 0.161193
4 1 0.168235 0.172398 0.00404057
5 1 0.0801641 0.0881324 0.0782106
9 1 0.335889 -0.00273106 -0.000105258
10 1 0.336912 0.166924 0.161649
13 1 0.416986 0.0782256 0.0774736
11 1 0.508734 0.00156663 0.151827
12 1 0.507378 0.156525 0.00139723
17 1 0.672039 0.00159634 -0.00031189
18 1 0.667389 0.166852 0.16612
19 1 0.822382 0.0035521 0.162793
20 1 0.837685 0.167882 -0.00314267
21 1 0.753034 0.0865441 0.0755073
25 1 -0.00254871 0.33602 0.00587467
27 1 0.162293 0.332963 0.169282
29 1 0.0800083 0.41764 0.0855194
8 1 0.250917 0.259679 0.0848611
33 1 0.339883 0.337816 0.00182194
37 1 0.417696 0.421219 0.0845235
16 1 0.586903 0.246723 0.0730457
35 1 0.506472 0.330548 0.162849
41 1 0.669521 0.339597 0.00404717
24 1 0.918946 0.251456 0.0883311
43 1 0.833218 0.332619 0.171654
45 1 0.742625 0.416404 0.0903808
26 1 -0.00117298 0.500835 0.174464
28 1 0.151892 0.496808 -0.000304199
49 1 -0.000671133 0.656009 0.00252034
51 1 0.156327 0.667089 0.165326
32 1 0.235781 0.584259 0.0801492
34 1 0.324606 0.495216 0.164197
57 1 0.329236 0.664064 -0.000790732
36 1 0.506718 0.503105 0.00676094
40 1 0.591962 0.591562 0.0819431
42 1 0.665425 0.507255 0.168813
59 1 0.497692 0.66424 0.169637
65 1 0.670011 0.679101 -0.00497359
44 1 0.834388 0.501668 0.00928721
48 1 0.918414 0.582335 0.091062
67 1 0.837237 0.664861 0.166746
50 1 -0.00317861 0.83827 0.156716
52 1 0.17432 0.834772 -0.0033337
53 1 0.0848883 0.751937 0.0785256
56 1 0.250575 0.921232 0.0861087
58 1 0.335114 0.83389 0.174265
61 1 0.409859 0.751369 0.087404
60 1 0.49302 0.833389 0.00242134
64 1 0.582549 0.912593 0.0752336
66 1 0.666298 0.834357 0.16215
68 1 0.846456 0.830735 0.00269366
69 1 0.755846 0.756596 0.0862178
72 1 0.909563 0.922138 0.0914117
73 1 -0.00647285 0.00197751 0.32958
76 1 0.161802 0.162664 0.333725
77 1 0.0797571 0.0785674 0.418459
7 1 0.248268 0.0805758 0.241713
81 1 0.334206 0.00981851 0.333701
85 1 0.424218 0.0863 0.418467
15 1 0.584079 0.0857736 0.249739
84 1 0.499801 0.173478 0.338291
89 1 0.665886 -0.00181697 0.335152
23 1 0.91333 0.0857223 0.246726
92 1 0.833561 0.170931 0.334001
93 1 0.748334 0.0876685 0.422967
6 1 0.084132 0.248438 0.252292
97 1 0.00385819 0.332956 0.336067
101 1 0.0862705 0.418625 0.419581
14 1 0.419448 0.248664 0.248931
31 1 0.248004 0.416255 0.248629
80 1 0.253012 0.247448 0.410206
105 1 0.331895 0.332905 0.324877
109 1 0.411407 0.418029 0.410948
39 1 0.585693 0.413043 0.251302
88 1 0.582808 0.254147 0.421893
113 1 0.664527 0.331377 0.336363
22 1 0.746432 0.248141 0.257971
47 1 0.920385 0.415576 0.252988
96 1 0.919089 0.254698 0.422063
117 1 0.748012 0.418836 0.412983
30 1 0.0802182 0.585004 0.254494
100 1 0.166256 0.500224 0.3341
121 1 -0.00921245 0.661813 0.338357
38 1 0.407935 0.579033 0.248583
104 1 0.254316 0.588838 0.424337
129 1 0.328585 0.665003 0.331814
108 1 0.490677 0.496376 0.325027
112 1 0.578356 0.575867 0.410854
137 1 0.660403 0.665867 0.333951
46 1 0.744553 0.588605 0.252605
116 1 0.829219 0.502624 0.332388
120 1 0.916302 0.576276 0.422427
54 1 0.0770182 0.92082 0.241373
124 1 0.15452 0.83552 0.328969
125 1 0.0769616 0.750732 0.414961
55 1 0.238046 0.754627 0.251306
62 1 0.42272 0.928405 0.251218
128 1 0.24725 0.918713 0.403188
133 1 0.408877 0.752081 0.406022
63 1 0.577156 0.754038 0.243811
132 1 0.498985 0.837467 0.329716
136 1 0.585048 0.910255 0.411544
70 1 0.750209 0.9128 0.256184
71 1 0.912248 0.751273 0.25023
140 1 0.831701 0.827336 0.338455
141 1 0.757181 0.740458 0.427601
144 1 0.922086 0.917188 0.419177
74 1 -0.000248286 0.165693 0.498721
75 1 0.168345 -0.00259776 0.495345
145 1 -0.00417917 -0.00492888 0.66839
148 1 0.159833 0.16346 0.672402
79 1 0.247258 0.0819164 0.574578
82 1 0.332363 0.164641 0.494684
153 1 0.333316 0.0025216 0.662889
83 1 0.506567 -0.00401193 0.500518
87 1 0.589757 0.0859876 0.58819
90 1 0.666603 0.167879 0.50136
156 1 0.502177 0.17063 0.663292
161 1 0.670874 -0.00296927 0.676004
91 1 0.830254 0.00677908 0.502013
95 1 0.915977 0.0890603 0.581661
164 1 0.842099 0.172265 0.674238
78 1 0.0762841 0.244246 0.589262
99 1 0.160247 0.319768 0.501185
169 1 -0.000124739 0.335401 0.672641
86 1 0.414203 0.253354 0.584375
103 1 0.250696 0.401915 0.580881
177 1 0.338304 0.328586 0.668677
107 1 0.49489 0.341988 0.498315
111 1 0.591059 0.425098 0.585531
185 1 0.664489 0.330124 0.660451
94 1 0.755455 0.253538 0.58073
115 1 0.831644 0.341268 0.500125
119 1 0.922898 0.424636 0.592742
98 1 0.0105945 0.500624 0.508472
102 1 0.0932387 0.57945 0.581802
123 1 0.167564 0.674316 0.493415
172 1 0.175461 0.49065 0.659791
193 1 0.0117707 0.663455 0.666066
106 1 0.333747 0.493993 0.49752
110 1 0.419017 0.577916 0.578735
201 1 0.330239 0.659627 0.655177
114 1 0.669134 0.505395 0.49822
131 1 0.493697 0.666414 0.494265
180 1 0.502697 0.501031 0.67047
209 1 0.654381 0.664128 0.664742
118 1 0.745775 0.579863 0.586169
139 1 0.836538 0.657597 0.512405
188 1 0.830571 0.499806 0.673948
122 1 0.00450672 0.831462 0.503881
126 1 0.0876674 0.916084 0.581044
196 1 0.172363 0.84158 0.669242
127 1 0.252978 0.751024 0.583563
130 1 0.328131 0.839469 0.487451
134 1 0.417392 0.909942 0.577121
135 1 0.575804 0.752557 0.57447
138 1 0.667632 0.83016 0.495579
204 1 0.501148 0.8333 0.663703
142 1 0.744258 0.914088 0.579797
143 1 0.923765 0.747149 0.587389
212 1 0.825715 0.829221 0.66177
146 1 0.00581865 0.163309 0.838458
147 1 0.169027 0.00227785 0.838405
149 1 0.0803096 0.0778989 0.750235
151 1 0.248387 0.0911344 0.911388
154 1 0.339499 0.165167 0.832136
157 1 0.424279 0.0842077 0.744799
155 1 0.50005 -0.00253494 0.827082
159 1 0.585995 0.0782859 0.908156
162 1 0.671295 0.170217 0.832212
163 1 0.832548 -0.00846213 0.833041
165 1 0.75542 0.0816242 0.750546
167 1 0.916846 0.076267 0.913202
150 1 0.0889973 0.249921 0.918798
171 1 0.173501 0.329709 0.835817
173 1 0.091163 0.413679 0.748583
152 1 0.250287 0.243605 0.750722
158 1 0.418227 0.245323 0.921512
175 1 0.252727 0.419593 0.920757
181 1 0.422889 0.412007 0.752228
160 1 0.580404 0.249073 0.75252
179 1 0.508807 0.327528 0.846417
183 1 0.582277 0.416625 0.922539
166 1 0.754136 0.257717 0.921106
168 1 0.926048 0.248425 0.75915
187 1 0.836085 0.335925 0.836026
189 1 0.744128 0.413818 0.754259
191 1 0.916373 0.423822 0.9163
170 1 0.00040729 0.500145 0.829442
174 1 0.0765421 0.582896 0.912042
195 1 0.167073 0.660384 0.833904
176 1 0.2486 0.5764 0.7503
178 1 0.33485 0.498399 0.838645
182 1 0.417666 0.581276 0.9178
184 1 0.577264 0.583246 0.756572
186 1 0.669158 0.507433 0.837519
203 1 0.499495 0.669483 0.829203
190 1 0.754755 0.588069 0.921217
192 1 0.915456 0.58726 0.747806
211 1 0.836731 0.661678 0.835961
194 1 -0.0061888 0.833974 0.829988
197 1 0.0925146 0.755223 0.747433
198 1 0.0850889 0.919682 0.918136
199 1 0.250291 0.750503 0.914282
200 1 0.252583 0.927253 0.749622
202 1 0.334668 0.830164 0.827258
205 1 0.414403 0.74724 0.740789
206 1 0.41674 0.915807 0.914541
207 1 0.575746 0.75326 0.915588
208 1 0.588485 0.912679 0.750511
210 1 0.668158 0.829506 0.83494
213 1 0.744061 0.746657 0.751025
214 1 0.753084 0.915159 0.919201
215 1 0.920566 0.746609 0.921008
216 1 0.90568 0.908231 0.745983
ITEM: TIMESTEP
3400
ITEM: NUMBER OF ATOMS
216
ITEM: BOX BOUNDS pp pp pp
-5.4817317667261278e-02 1.6347817317667257e+01
-5.4817317667261278e-02 1.6347817317667257e+01
-5.4817317667261278e-02 1.6347817317667257e+01
ITEM: ATOMS id type xs ys zs
1 1 -0.00199638 0.0021701 0.00400619
2 1 -0.00135089 0.16051 0.161285
3 1 0.165366 -0.00320825 0.167027
4 1 0.159952 0.161534 -0.00194401
5 1 0.0807078 0.0813661 0.0884551
9 1 0.332549 0.000147322 0.00282576
10 1 0.334816 0.167971 0.166109
13 1 0.421159 0.0873076 0.0870485
11 1 0.496669 -0.00412699 0.174625
12 1 0.493054 0.17248 0.00145309
17 1 0.660862 -0.00501916 0.00211463
18 1 0.669035 0.166198 0.162882
19 1 0.842688 -0.00236192 0.162601
20 1 0.82149 0.160829 0.00278792
21 1 0.746433 0.0732775 0.0914729
25 1 0.0033057 0.333221 -0.00376179
27 1 0.165256 0.336298 0.164502
29 1 0.0858945 0.419367 0.0833869
8 1 0.247367 0.241612 0.0835116
33 1 0.327944 0.328477 -0.000100629
37 1 0.413719 0.417526 0.0799096
16 1 0.580718 0.248105 0.0860827
35 1 0.492125 0.336061 0.166969
41 1 0.664206 0.330703 -0.000841703
24 1 0.911124 0.246781 0.0804686
43 1 0.8273 0.336097 0.161348
45 1 0.753864 0.421083 0.077074
26 1 -0.0013832 0.503643 0.159444
28 1 0.170719 0.499626 -0.000104094
49 1 -0.00111903 0.672068 -0.00156427
51 1 0.170447 0.665194 0.166203
32 1 0.257604 0.576865 0.0896775
34 1 0.342694 0.499469 0.173395
57 1 0.333407 0.674804 0.00546275
36 1 0.495013 0.499273 0.000189453
40 1 0.579123 0.575073 0.0894358
42 1 0.67058 0.496485 0.168502
59 1 0.504984 0.670548 0.166617
65 1 0.665765 0.656379 0.00072509
44 1 0.833669 0.507376 -0.00514685
48 1 0.918791 0.585951 0.078759
67 1 0.834155 0.664468 0.164514
50 1 0.000183903 0.834045 0.170968
52 1 0.159197 0.82875 0.00126182
53 1 0.0774729 0.74285 0.0852307
56 1 0.242238 0.914739 0.079834
58 1 0.329806 0.836128 0.161154
61 1 0.428838 0.751273 0.0762462
60 1 0.508576 0.835863 0.00237675
64 1 0.586058 0.915589 0.0891888
66 1 0.667697 0.839409 0.171525
68 1 0.829265 0.834023 6.56562e-05
69 1 0.746779 0.745989 0.0815854
72 1 0.919618 0.91196 0.0769783
73 1 0.0019889 -0.00152594 0.335864
76 1 0.164526 0.169494 0.325953
77 1 0.0798736 0.0869114 0.418574
7 1 0.247684 0.081171 0.251053
81 1 0.333956 -0.00645897 0.334722
85 1 0.412224 0.0845356 0.40994
15 1 0.582412 0.0805942 0.24952
84 1 0.502605 0.159009 0.332816
89 1 0.669059 -0.0017973 0.338464
23 1 0.914617 0.0833925 0.247351
92 1 0.831244 0.165442 0.33546
93 1 0.751387 0.084681 0.418374
6 1 0.0773971 0.251335 0.241142
97 1 -0.00130328 0.332655 0.332249
101 1 0.079658 0.414444 0.419517
14 1 0.412498 0.246407 0.254776
31 1 0.252444 0.408998 0.245658
80 1 0.249435 0.250079 0.415376
105 1 0.335237 0.334112 0.331391
109 1 0.417657 0.415029 0.412358
39 1 0.584019 0.419911 0.245337
88 1 0.594975 0.244585 0.411031
113 1 0.669292 0.337417 0.330008
22 1 0.749761 0.254628 0.249555
47 1 0.913226 0.417214 0.245811
96 1 0.915154 0.246096 0.414591
117 1 0.744992 0.416556 0.420006
30 1 0.0862974 0.582144 0.245758
100 1 0.168032 0.493852 0.32984
121 1 0.0149804 0.670836 0.336778
38 1 0.424224 0.587334 0.25101
104 1 0.250412 0.583247 0.410051
129 1 0.341776 0.666345 0.333228
108 1 0.504217 0.498249 0.334703
112 1 0.583058 0.582541 0.419778
137 1 0.673129 0.665911 0.33163
46 1 0.759013 0.580166 0.245999
116 1 0.83573 0.498234 0.340251
120 1 0.920334 0.587321 0.417281
54 1 0.0892052 0.915442 0.259418
124 1 0.174614 0.835527 0.338049
125 1 0.0949259 0.7542 0.419082
55 1 0.255883 0.747057 0.254899
62 1 0.414273 0.906978 0.253855
128 1 0.252106 0.917737 0.425086
133 1 0.419683 0.752374 0.420626
63 1 0.5897 0.752827 0.255314
132 1 0.505428 0.82928 0.337986
136 1 0.585622 0.914571 0.422093
70 1 0.753956 0.920522 0.24373
71 1 0.921669 0.747278 0.250093
140 1 0.83396 0.835583 0.330394
141 1 0.744968 0.758965 0.417095
144 1 0.911621 0.915708 0.417385
74 1 -0.00211152 0.169425 0.504358
75 1 0.164801 0.00328638 0.499804
145 1 0.00408828 0.00179884 0.668051
148 1 0.168335 0.174939 0.665236
79 1 0.246287 0.0868001 0.585496
82 1 0.338417 0.16552 0.502152
153 1 0.33894 0.00420438 0.66804
83 1 0.501614 0.00634031 0.495371
87 1 0.589192 0.0857543 0.580649
90 1 0.670344 0.170216 0.500993
156 1 0.50563 0.166777 0.676978
161 1 0.665993 -0.0015139 0.661011
91 1 0.833998 -0.00612236 0.503202
95 1 0.916995 0.0853235 0.582898
164 1 0.829263 0.165652 0.66146
78 1 0.083396 0.247035 0.578963
99 1 0.170181 0.338811 0.500708
169 1 0.000278821 0.325184 0.654642
86 1 0.421785 0.241714 0.584606
103 1 0.252945 0.422722 0.589084
177 1 0.327915 0.329051 0.667417
107 1 0.506588 0.325902 0.496891
111 1 0.578239 0.413675 0.58877
185 1 0.669887 0.339474 0.66919
94 1 0.745195 0.248904 0.586408
115 1 0.833391 0.33244 0.501649
119 1 0.918635 0.412198 0.577281
98 1 -0.00181456 0.502928 0.496154
102 1 0.0823862 0.581878 0.582287
123 1 0.167195 0.662506 0.50637
172 1 0.165183 0.504308 0.674907
193 1 -0.00351045 0.662437 0.665285
106 1 0.334184 0.499429 0.499028
110 1 0.410496 0.582745 0.586258
201 1 0.335208 0.672238 0.670356
114 1 0.662089 0.494169 0.50027
131 1 0.49442 0.663217 0.506858
180 1 0.491468 0.499937 0.666867
209 1 0.666243 0.659773 0.666189
118 1 0.745599 0.583027 0.575115
139 1 0.831821 0.671642 0.494025
188 1 0.837875 0.504542 0.655792
122 1 -5.97772e-05 0.834385 0.499153
126 1 0.0836464 0.920474 0.58347
196 1 0.164584 0.837811 0.65962
127 1 0.249708 0.754129 0.577711
130 1 0.336385 0.831765 0.501619
134 1 0.419845 0.920054 0.584425
135 1 0.580501 0.749832 0.584298
138 1 0.663568 0.833044 0.502544
204 1 0.497983 0.834401 0.670768
142 1 0.751385 0.91074 0.587824
143 1 0.915892 0.750243 0.575156
212 1 0.842871 0.834631 0.667273
146 1 -0.00614465 0.170061 0.825049
147 1 0.164895 -0.00295798 0.830891
149 1 0.0862148 0.0897799 0.748509
151 1 0.250272 0.0785925 0.920065
154 1 0.32912 0.164382 0.833931
157 1 0.420139 0.0876347 0.760592
155 1 0.502155 9.68348e-05 0.834704
159 1 0.576731 0.0848787 0.926099
162 1 0.66401 0.165512 0.826318
163 1 0.835469 0.00429848 0.826847
165 1 0.750917 0.0814414 0.744582
167 1 0.913633 0.0888104 0.915024
150 1 0.0751717 0.245812 0.915908
171 1 0.160907 0.335289 0.831266
173 1 0.0766811 0.418565 0.750567
152 1 0.246978 0.252297 0.755589
158 1 0.4133 0.255393 0.913061
175 1 0.246716 0.410695 0.917793
181 1 0.409704 0.417865 0.752065
160 1 0.585543 0.256405 0.747891
179 1 0.498568 0.337917 0.825317
183 1 0.587036 0.417604 0.9208
166 1 0.743785 0.247749 0.91679
168 1 0.913211 0.255584 0.740211
187 1 0.832149 0.335577 0.829944
189 1 0.750542 0.427643 0.743233
191 1 0.916455 0.421246 0.913839
170 1 0.0064712 0.504801 0.836807
174 1 0.0866769 0.586853 0.920888
195 1 0.169078 0.666702 0.835688
176 1 0.251308 0.587779 0.751382
178 1 0.328071 0.498505 0.835081
182 1 0.414026 0.587172 0.920637
184 1 0.576187 0.581718 0.749021
186 1 0.656584 0.504294 0.835552
203 1 0.499933 0.662866 0.840609
190 1 0.746008 0.585386 0.910947
192 1 0.920185 0.585197 0.751053
211 1 0.834473 0.667065 0.832145
194 1 0.0049949 0.831395 0.833197
197 1 0.0886885 0.74452 0.752132
198 1 0.086247 0.912471 0.918364
199 1 0.249099 0.750236 0.918996
200 1 0.244323 0.915796 0.750428
202 1 0.331372 0.838522 0.839095
205 1 0.418654 0.748442 0.757032
206 1 0.42013 0.916925 0.922687
207 1 0.584538 0.747769 0.922506
208 1 0.574195 0.919451 0.741972
210 1 0.656134 0.834569 0.829555
213 1 0.756525 0.748805 0.748438
214 1 0.747357 0.916134 0.913726
215 1 0.917612 0.750631 0.909269
216 1 0.922327 0.918638 0.752844
ITEM: TIMESTEP
3500
ITEM: NUMBER OF ATOMS
216
ITEM: BOX BOUNDS pp pp pp
-7.7225323355593289e-02 1.6370225323355548e+01
-7.7225323355593289e-02 1.6370225323355548e+01
-7.7225323355593289e-02 1.6370225323355548e+01
ITEM: ATOMS id type xs ys zs
1 1 -0.000319346 -0.00265557 0.00163882
2 1 0.00823264 0.164691 0.166306
3 1 0.165288 0.00147651 0.16683
4 1 0.164025 0.164384 0.00228041
5 1 0.0853272 0.0799888 0.0836515
9 1 0.328388 0.0015913 0.00178917
10 1 0.327031 0.165608 0.167978
13 1 0.411799 0.0832281 0.0856883
11 1 0.501346 -0.00131799 0.166196
12 1 0.497607 0.162659 0.00507981
17 1 0.669256 0.00492761 0.00588283
18 1 0.669811 0.166169 0.16395
19 1 0.829776 0.000267491 0.166785
20 1 0.837681 0.172861 -0.00350444
21 1 0.755567 0.0899397 0.0792042
25 1 0.000251014 0.336343 -0.00478059
27 1 0.171633 0.332791 0.170457
29 1 0.0832671 0.410163 0.0861194
8 1 0.246229 0.253123 0.0837742
33 1 0.331145 0.336101 0.0042186
37 1 0.415953 0.416419 0.0853786
16 1 0.584704 0.248701 0.079044
35 1 0.504486 0.330596 0.170298
41 1 0.664691 0.333897 -0.00264204
24 1 0.923966 0.248523 0.0850004
43 1 0.831983 0.329177 0.169335
45 1 0.746768 0.412588 0.0840524
26 1 0.00469433 0.496805 0.160051
28 1 0.163401 0.502186 -0.00358669
49 1 0.00182238 0.666783 0.000212068
51 1 0.170821 0.671465 0.169651
32 1 0.253455 0.583961 0.0799275
34 1 0.331086 0.497996 0.166866
57 1 0.339142 0.662129 -0.00543083
36 1 0.5031 0.497168 -0.00269451
40 1 0.581723 0.584447 0.0775422
42 1 0.664183 0.496199 0.16135
59 1 0.497189 0.656393 0.170501
65 1 0.669618 0.669474 -0.00669817
44 1 0.828508 0.495988 8.16726e-05
48 1 0.9155 0.579867 0.0828804
67 1 0.832267 0.662383 0.165608
50 1 0.00463813 0.831419 0.160793
52 1 0.176713 0.837491 0.00432069
53 1 0.0898737 0.759257 0.07696
56 1 0.254641 0.919708 0.0911224
58 1 0.340895 0.82833 0.175513
61 1 0.420834 0.741992 0.0858107
60 1 0.500295 0.829122 -4.58901e-05
64 1 0.583298 0.914486 0.0801546
66 1 0.661119 0.825912 0.164727
68 1 0.840626 0.833567 0.000626675
69 1 0.750973 0.749232 0.0861825
72 1 0.911907 0.922304 0.088731
73 1 0.00635837 -0.00214859 0.330979
76 1 0.169512 0.166849 0.340399
77 1 0.0899072 0.0846431 0.42334
7 1 0.255776 0.0845872 0.25256
81 1 0.334654 0.000391615 0.339473
85 1 0.41625 0.0817107 0.424752
15 1 0.583071 0.0861552 0.249505
84 1 0.492375 0.16903 0.334473
89 1 0.663519 -0.00377449 0.329762
23 1 0.918856 0.0803385 0.24593
92 1 0.836327 0.1634 0.325216
93 1 0.748818 0.0848956 0.411974
6 1 0.0881673 0.248002 0.249577
97 1 0.00265085 0.332287 0.329
101 1 0.0821125 0.422255 0.411329
14 1 0.413071 0.251445 0.250327
31 1 0.253354 0.418032 0.252454
80 1 0.257689 0.25439 0.419449
105 1 0.332104 0.336411 0.335039
109 1 0.413302 0.419126 0.420058
39 1 0.587747 0.416635 0.25774
88 1 0.576793 0.248298 0.418789
113 1 0.66762 0.329464 0.33483
22 1 0.752891 0.245407 0.243512
47 1 0.916699 0.415888 0.245107
96 1 0.922365 0.247467 0.410994
117 1 0.75437 0.416923 0.407718
30 1 0.0799783 0.582345 0.246244
100 1 0.170532 0.501634 0.3315
121 1 -0.00749391 0.662688 0.32732
38 1 0.413788 0.575178 0.253251
104 1 0.253706 0.582673 0.423499
129 1 0.340308 0.667244 0.340096
108 1 0.50253 0.499037 0.33799
112 1 0.588001 0.583213 0.423152
137 1 0.669796 0.672377 0.333154
46 1 0.743805 0.580452 0.242978
116 1 0.830187 0.501341 0.321338
120 1 0.914221 0.579788 0.413082
54 1 0.0897642 0.909392 0.243269
124 1 0.165502 0.831837 0.336831
125 1 0.0813315 0.742816 0.414939
55 1 0.252478 0.746998 0.260575
62 1 0.423096 0.922338 0.255796
128 1 0.251742 0.907659 0.419503
133 1 0.419827 0.750753 0.420104
63 1 0.577468 0.747803 0.249584
132 1 0.49889 0.834651 0.335487
136 1 0.580881 0.913101 0.420649
70 1 0.750681 0.913705 0.247829
71 1 0.915929 0.748869 0.247384
140 1 0.835921 0.833452 0.340164
141 1 0.753983 0.746804 0.418929
144 1 0.926633 0.914379 0.416701
74 1 0.00405808 0.173408 0.498663
75 1 0.171618 -0.0082516 0.502805
145 1 -0.00475833 -0.00189696 0.661201
148 1 0.160721 0.171259 0.661678
79 1 0.249857 0.0857283 0.585947
82 1 0.331786 0.164416 0.501038
153 1 0.326566 -0.00230216 0.675727
83 1 0.494879 -0.00405706 0.501422
87 1 0.575922 0.0822446 0.586206
90 1 0.662027 0.161677 0.497577
156 1 0.487772 0.16453 0.662256
161 1 0.66258 0.00162023 0.673141
91 1 0.836442 0.00290327 0.493309
95 1 0.918237 0.0868361 0.580844
164 1 0.826755 0.166472 0.666488
78 1 0.0779066 0.25487 0.585665
99 1 0.156503 0.333551 0.501152
169 1 -0.00433479 0.337815 0.669086
86 1 0.408596 0.256419 0.5864
103 1 0.245326 0.420859 0.575114
177 1 0.327649 0.345111 0.67018
107 1 0.498296 0.339086 0.50616
111 1 0.591878 0.421782 0.580471
185 1 0.656634 0.317698 0.664058
94 1 0.741736 0.24453 0.580645
115 1 0.834255 0.332701 0.490941
119 1 0.916922 0.420928 0.578239
98 1 -0.003759 0.497718 0.494207
102 1 0.0808941 0.585101 0.5786
123 1 0.168359 0.671221 0.499434
172 1 0.163966 0.505061 0.659205
193 1 -0.00148883 0.673933 0.662188
106 1 0.33812 0.508243 0.50859
110 1 0.423732 0.586263 0.590158
201 1 0.334735 0.659503 0.670839
114 1 0.68023 0.499409 0.499915
131 1 0.504014 0.672388 0.500385
180 1 0.508381 0.502889 0.664741
209 1 0.672248 0.673672 0.666258
118 1 0.758677 0.587672 0.586146
139 1 0.840186 0.664617 0.501614
188 1 0.832948 0.499574 0.668371
122 1 0.0060427 0.832887 0.49979
126 1 0.0861062 0.915271 0.586285
196 1 0.168661 0.827514 0.671024
127 1 0.249071 0.746951 0.589442
130 1 0.332779 0.826578 0.507643
134 1 0.41748 0.908123 0.590758
135 1 0.593838 0.762482 0.584973
138 1 0.674538 0.838292 0.497593
204 1 0.507364 0.834399 0.675207
142 1 0.745877 0.926765 0.579255
143 1 0.911886 0.756165 0.585663
212 1 0.830008 0.840044 0.659331
146 1 0.000206309 0.166628 0.837416
147 1 0.16477 0.00657704 0.834035
149 1 0.0800082 0.0826515 0.747613
151 1 0.248529 0.0850933 0.914609
154 1 0.331263 0.170539 0.831675
157 1 0.409758 0.0841797 0.748488
155 1 0.495653 0.00162286 0.831543
159 1 0.581655 0.0841308 0.917201
162 1 0.66311 0.17082 0.837402
163 1 0.827156 0.00191962 0.832824
165 1 0.746856 0.0887113 0.751552
167 1 0.914555 0.0802157 0.916031
150 1 0.0863774 0.252289 0.910865
171 1 0.170015 0.334107 0.83521
173 1 0.0820785 0.419565 0.747771
152 1 0.249717 0.251083 0.74151
158 1 0.413739 0.239162 0.923824
175 1 0.248308 0.419 0.916774
181 1 0.41918 0.421887 0.74217
160 1 0.575568 0.245738 0.743208
179 1 0.492398 0.328386 0.831409
183 1 0.578185 0.418139 0.907792
166 1 0.748838 0.25208 0.915337
168 1 0.917179 0.243257 0.747372
187 1 0.831384 0.325941 0.827828
189 1 0.7422 0.405526 0.748682
191 1 0.91495 0.41573 0.915346
170 1 -0.00817667 0.501864 0.830654
174 1 0.0790873 0.585471 0.913586
195 1 0.16417 0.670007 0.836461
176 1 0.243616 0.584675 0.750813
178 1 0.334565 0.501521 0.828867
182 1 0.423557 0.581967 0.91172
184 1 0.590782 0.583841 0.748181
186 1 0.669744 0.497086 0.829844
203 1 0.504797 0.667568 0.826329
190 1 0.751719 0.578763 0.91324
192 1 0.913328 0.582489 0.752416
211 1 0.83421 0.664549 0.835682
194 1 -0.00782446 0.838317 0.835573
197 1 0.0721113 0.756952 0.753302
198 1 0.0830955 0.915207 0.913022
199 1 0.246762 0.75003 0.919188
200 1 0.248813 0.911197 0.756036
202 1 0.332363 0.828764 0.838048
205 1 0.419577 0.752634 0.751041
206 1 0.417787 0.916728 0.917492
207 1 0.575646 0.750871 0.915156
208 1 0.583004 0.924602 0.758395
210 1 0.66642 0.837255 0.839596
213 1 0.757895 0.752113 0.748428
214 1 0.75379 0.922194 0.924327
215 1 0.915232 0.745994 0.920079
216 1 0.911511 0.920744 0.746207
ITEM: TIMESTEP
3600
ITEM: NUMBER OF ATOMS
216
ITEM: BOX BOUNDS pp pp pp
-6.1523080513044448e-02 1.6354523080513005e+01
-6.1523080513044448e-02 1.6354523080513005e+01
-6.1523080513044448e-02 1.6354523080513005e+01
ITEM: ATOMS id type xs ys zs
1 1 0.00523696 0.00739294 0.00371878
2 1 -0.00341561 0.16863 0.169956
3 1 0.168002 -0.000263648 0.164807
4 1 0.175515 0.173473 0.00129535
5 1 0.0893956 0.0893626 0.087436
9 1 0.337692 0.000201096 0.00112423
10 1 0.343513 0.16922 0.171027
13 1 0.41821 0.0870307 0.0817318
11 1 0.497875 0.0019099 0.162364
12 1 0.502932 0.171528 -0.00677566
17 1 0.665366 0.00149102 0.00174818
18 1 0.664062 0.166834 0.171129
19 1 0.833407 0.00569045 0.167357
20 1 0.827839 0.157524 0.000773522
21 1 0.748213 0.0777381 0.0894356
25 1 -0.00121284 0.329835 0.0048424
27 1 0.167202 0.334956 0.165595
29 1 0.0825521 0.417238 0.0804863
8 1 0.260394 0.254127 0.0892273
33 1 0.335183 0.334991 -0.00670547
37 1 0.412488 0.424586 0.0819935
16 1 0.581494 0.248002 0.0854899
35 1 0.496579 0.334519 0.164112
41 1 0.671658 0.330586 0.0048982
24 1 0.910554 0.249806 0.0829248
43 1 0.834972 0.335279 0.165889
45 1 0.751566 0.416217 0.0850083
26 1 -0.00239524 0.503522 0.174523
28 1 0.167625 0.496464 0.00302094
49 1 -0.0035791 0.666527 -0.00261507
51 1 0.159335 0.660378 0.162261
32 1 0.253795 0.580034 0.0835543
34 1 0.333191 0.499818 0.171347
57 1 0.326572 0.671902 -0.0014934
36 1 0.499642 0.502896 0.000462225
40 1 0.583609 0.581826 0.0903102
42 1 0.670247 0.501808 0.169759
59 1 0.502725 0.675972 0.164296
65 1 0.663023 0.665108 0.00468319
44 1 0.837571 0.497771 -0.00146911
48 1 0.914748 0.583341 0.0841154
67 1 0.833014 0.667744 0.169532
50 1 0.00234686 0.837744 0.168781
52 1 0.160784 0.822816 -0.00504046
53 1 0.0805294 0.747586 0.0866661
56 1 0.238927 0.912916 0.0733491
58 1 0.327962 0.834932 0.160321
61 1 0.412781 0.753233 0.0812228
60 1 0.498803 0.833843 0.0027935
64 1 0.578705 0.914329 0.0851735
66 1 0.668436 0.839921 0.166143
68 1 0.831076 0.832053 -0.0013893
69 1 0.749669 0.753331 0.0844014
72 1 0.919309 0.914704 0.087398
73 1 -0.0111288 0.000382103 0.331803
76 1 0.167206 0.168974 0.327894
77 1 0.0759404 0.0795248 0.415066
7 1 0.250046 0.0757243 0.244612
81 1 0.336515 0.00253877 0.335313
85 1 0.415326 0.0854248 0.417425
15 1 0.581816 0.0842278 0.25128
84 1 0.497792 0.165242 0.339373
89 1 0.668328 0.00258277 0.334138
23 1 0.910597 0.087719 0.250612
92 1 0.831772 0.174783 0.334876
93 1 0.750198 0.0844344 0.418725
6 1 0.0819256 0.253997 0.249082
97 1 -0.000298904 0.33474 0.33857
101 1 0.0811716 0.418607 0.422577
14 1 0.417525 0.251044 0.257264
31 1 0.251009 0.416909 0.249594
80 1 0.247397 0.250421 0.416957
105 1 0.330704 0.333609 0.330472
109 1 0.413809 0.417274 0.413644
39 1 0.58231 0.41641 0.24439
88 1 0.585532 0.252467 0.411786
113 1 0.6682 0.33319 0.329064
22 1 0.747346 0.250995 0.252853
47 1 0.920096 0.41701 0.254097
96 1 0.917185 0.249129 0.419308
117 1 0.744829 0.41926 0.41626
30 1 0.0821788 0.583571 0.258637
100 1 0.164085 0.496018 0.331839
121 1 -0.00232384 0.669006 0.337652
38 1 0.417856 0.592743 0.240603
104 1 0.24703 0.589353 0.416451
129 1 0.328669 0.667539 0.326203
108 1 0.492479 0.503035 0.321454
112 1 0.584547 0.581395 0.404122
137 1 0.669399 0.663431 0.328544
46 1 0.757196 0.581767 0.257118
116 1 0.837689 0.498195 0.340961
120 1 0.918213 0.583331 0.417663
54 1 0.0841827 0.920454 0.250639
124 1 0.170057 0.831686 0.32796
125 1 0.079851 0.759118 0.414246
55 1 0.244966 0.75441 0.241369
62 1 0.414429 0.91316 0.251833
128 1 0.247899 0.921821 0.409278
133 1 0.411636 0.749552 0.409971
63 1 0.585836 0.751457 0.246445
132 1 0.500423 0.828453 0.331255
136 1 0.581708 0.917267 0.411646
70 1 0.753743 0.920062 0.24912
71 1 0.915317 0.751154 0.24866
140 1 0.829107 0.828607 0.327026
141 1 0.748641 0.752825 0.417499
144 1 0.905843 0.915204 0.414047
74 1 0.00358321 0.163818 0.500169
75 1 0.163646 0.00470755 0.501139
145 1 -0.00108789 -0.00128986 0.672223
148 1 0.166884 0.162943 0.668797
79 1 0.249969 0.0836893 0.580451
82 1 0.331373 0.162836 0.492838
153 1 0.334501 0.00463832 0.664239
83 1 0.501511 0.00487854 0.496406
87 1 0.584285 0.0871155 0.582353
90 1 0.667889 0.169892 0.501905
156 1 0.505898 0.168099 0.670427
161 1 0.670635 -0.00324416 0.666946
91 1 0.827076 -0.00306908 0.504071
95 1 0.916657 0.0825211 0.583139
164 1 0.841556 0.16745 0.670435
78 1 0.0907646 0.241645 0.580154
99 1 0.168016 0.331716 0.504014
169 1 0.00721538 0.325817 0.66066
86 1 0.416263 0.242558 0.583161
103 1 0.255808 0.41401 0.591376
177 1 0.342822 0.328634 0.666454
107 1 0.499161 0.330654 0.49522
111 1 0.579735 0.41271 0.590933
185 1 0.672707 0.341285 0.661549
94 1 0.756943 0.252651 0.587086
115 1 0.830533 0.333588 0.500871
119 1 0.921308 0.415897 0.587471
98 1 0.000791715 0.500221 0.505312
102 1 0.0795248 0.578172 0.58393
123 1 0.163726 0.670235 0.501481
172 1 0.171525 0.495812 0.670454
193 1 -0.00443931 0.663226 0.674696
106 1 0.330874 0.497433 0.495948
110 1 0.412826 0.57669 0.579253
201 1 0.332254 0.670545 0.656203
114 1 0.658937 0.499668 0.50229
131 1 0.497529 0.660524 0.50074
180 1 0.494589 0.498962 0.666842
209 1 0.664451 0.658973 0.667272
118 1 0.744223 0.584481 0.574767
139 1 0.82688 0.668717 0.493833
188 1 0.83346 0.502109 0.666043
122 1 -0.0107393 0.834131 0.499507
126 1 0.0738446 0.914799 0.580567
196 1 0.161246 0.835634 0.664893
127 1 0.249366 0.750914 0.581462
130 1 0.329585 0.835338 0.488846
134 1 0.41591 0.920096 0.575064
135 1 0.581878 0.745645 0.583176
138 1 0.665533 0.830351 0.49975
204 1 0.50122 0.83242 0.661892
142 1 0.752034 0.904089 0.586329
143 1 0.912959 0.748365 0.581948
212 1 0.838091 0.832473 0.673871
146 1 0.000636903 0.170195 0.831382
147 1 0.172234 -0.00690969 0.838513
149 1 0.0821937 0.0819257 0.752284
151 1 0.25168 0.0864017 0.918468
154 1 0.331738 0.161533 0.832932
157 1 0.420983 0.0801328 0.753718
155 1 0.501227 -0.0021618 0.830211
159 1 0.582635 0.0821827 0.912306
162 1 0.671802 0.163437 0.830607
163 1 0.839606 0.000991626 0.834773
165 1 0.753669 0.079283 0.751946
167 1 0.919164 0.0866654 0.918981
150 1 0.0858209 0.251137 0.922352
171 1 0.165591 0.330882 0.832033
173 1 0.0832399 0.413808 0.750933
152 1 0.249336 0.250568 0.755166
158 1 0.415867 0.25306 0.911454
175 1 0.251938 0.416802 0.911856
181 1 0.418562 0.417764 0.747418
160 1 0.595023 0.250689 0.751632
179 1 0.507127 0.337772 0.833976
183 1 0.593454 0.41785 0.923339
166 1 0.752602 0.242998 0.918838
168 1 0.915985 0.254576 0.753558
187 1 0.834399 0.333981 0.846554
189 1 0.751993 0.416781 0.753921
191 1 0.919043 0.416385 0.919758
170 1 -0.0017123 0.498356 0.834824
174 1 0.0849908 0.578221 0.912786
195 1 0.171616 0.662736 0.832784
176 1 0.257111 0.582726 0.74683
178 1 0.335989 0.501758 0.834075
182 1 0.415887 0.585663 0.920773
184 1 0.579313 0.579042 0.756181
186 1 0.673322 0.502524 0.837052
203 1 0.500471 0.670066 0.841133
190 1 0.75604 0.584673 0.915233
192 1 0.907025 0.585899 0.754938
211 1 0.83371 0.666848 0.837056
194 1 -0.000725207 0.828857 0.832541
197 1 0.0934334 0.747222 0.749791
198 1 0.0845288 0.914564 0.924686
199 1 0.249216 0.750751 0.915518
200 1 0.251468 0.919523 0.746589
202 1 0.334711 0.831383 0.827924
205 1 0.417647 0.747452 0.749437
206 1 0.417418 0.912746 0.916252
207 1 0.583785 0.749007 0.921868
208 1 0.583285 0.915343 0.743306
210 1 0.66535 0.832133 0.82808
213 1 0.748834 0.74859 0.746826
214 1 0.749428 0.923183 0.912193
215 1 0.916262 0.752026 0.913222
216 1 0.92079 0.912151 0.756073
ITEM: TIMESTEP
3700
ITEM: NUMBER OF ATOMS
216
ITEM: BOX BOUNDS pp pp pp
-6.5740975512442290e-02 1.6358740975512390e+01
-6.5740975512442290e-02 1.6358740975512390e+01
-6.5740975512442290e-02 1.6358740975512390e+01
ITEM: ATOMS id type xs ys zs
1 1 -0.00475027 -0.00468078 -0.00601635
2 1 -0.0038169 0.160555 0.169667
3 1 0.161707 -0.00251109 0.169077
4 1 0.160082 0.158338 -0.00879557
5 1 0.0787469 0.0776719 0.0810671
9 1 0.332752 0.000822941 -0.00646818
10 1 0.329547 0.167085 0.15443
13 1 0.418518 0.0835056 0.0814487
11 1 0.503137 0.000840588 0.165256
12 1 0.501838 0.158645 0.00528495
17 1 0.667645 -0.00281881 -0.00406778
18 1 0.674729 0.168254 0.162951
19 1 0.831266 0.00253142 0.170328
20 1 0.835558 0.175607 0.00321253
21 1 0.752326 0.0892558 0.0802937
25 1 0.00257144 0.338692 -0.00649987
27 1 0.167766 0.337075 0.16933
29 1 0.0859833 0.416637 0.0856575
8 1 0.240882 0.244815 0.0716088
33 1 0.33644 0.330122 0.00562144
37 1 0.42004 0.415772 0.0839833
16 1 0.58951 0.253319 0.0833671
35 1 0.501453 0.335679 0.167876
41 1 0.66884 0.33346 -0.00364881
24 1 0.921419 0.255598 0.0838622
43 1 0.829312 0.333855 0.177469
45 1 0.750994 0.420782 0.0846121
26 1 0.00062103 0.49385 0.169993
28 1 0.169564 0.500378 -0.00218008
49 1 0.00495052 0.673032 0.00173407
51 1 0.16776 0.673594 0.17031
32 1 0.245885 0.587234 0.0852118
34 1 0.332722 0.501773 0.16338
57 1 0.336214 0.667296 -0.00242146
36 1 0.500679 0.505403 0.00232726
40 1 0.579178 0.59091 0.0838947
42 1 0.663969 0.505891 0.167202
59 1 0.494238 0.663167 0.166259
65 1 0.669163 0.672806 -0.00100551
44 1 0.830778 0.497732 -0.00198508
48 1 0.916587 0.582172 0.0871642
67 1 0.83099 0.670968 0.172773
50 1 -0.00908533 0.826489 0.168842
52 1 0.173187 0.837796 0.000137553
53 1 0.0856566 0.758994 0.0788137
56 1 0.250496 0.920395 0.0895051
58 1 0.32943 0.83096 0.164282
61 1 0.421471 0.747719 0.0768311
60 1 0.498773 0.836407 -0.00706488
64 1 0.588273 0.915644 0.0775011
66 1 0.662646 0.834488 0.170226
68 1 0.836364 0.83019 -0.00160427
69 1 0.750749 0.749539 0.0862104
72 1 0.91421 0.918877 0.0812811
73 1 0.00413208 0.00158021 0.333794
76 1 0.1659 0.165665 0.337808
77 1 0.0780493 0.0894203 0.421216
7 1 0.247997 0.0902874 0.246676
81 1 0.329359 0.00582627 0.330802
85 1 0.417471 0.0834089 0.407041
15 1 0.585345 0.0864904 0.250007
84 1 0.499518 0.16712 0.330641
89 1 0.66685 -0.00162856 0.338766
23 1 0.911451 0.0810067 0.254387
92 1 0.833317 0.160829 0.336731
93 1 0.753836 0.0814413 0.417206
6 1 0.0811958 0.253269 0.253781
97 1 -0.00373655 0.3338 0.335473
101 1 0.0820651 0.409996 0.41993
14 1 0.419436 0.246874 0.241624
31 1 0.250609 0.41836 0.246714
80 1 0.258785 0.244866 0.419395
105 1 0.334725 0.329991 0.328193
109 1 0.414627 0.411885 0.415203
39 1 0.586622 0.417623 0.254901
88 1 0.584445 0.248588 0.416413
113 1 0.666045 0.334748 0.340728
22 1 0.744239 0.249118 0.261264
47 1 0.909605 0.418533 0.259784
96 1 0.913993 0.247316 0.418913
117 1 0.752484 0.416661 0.420364
30 1 0.0830921 0.587527 0.245957
100 1 0.164798 0.499765 0.331345
121 1 -0.000672037 0.664347 0.334298
38 1 0.409822 0.57957 0.249027
104 1 0.252007 0.575136 0.409042
129 1 0.330775 0.667137 0.328943
108 1 0.495313 0.49817 0.339283
112 1 0.580231 0.582562 0.421411
137 1 0.660133 0.672162 0.332735
46 1 0.744057 0.589386 0.249831
116 1 0.831704 0.507506 0.334001
120 1 0.914699 0.580937 0.427228
54 1 0.0770861 0.919355 0.249117
124 1 0.154317 0.839509 0.33327
125 1 0.0825254 0.74766 0.418323
55 1 0.248104 0.751546 0.255271
62 1 0.409226 0.919956 0.244706
128 1 0.248062 0.918823 0.411856
133 1 0.413635 0.759882 0.408959
63 1 0.576626 0.7493 0.25207
132 1 0.500417 0.840206 0.327323
136 1 0.582369 0.916676 0.419912
70 1 0.744251 0.916804 0.253644
71 1 0.915232 0.755003 0.258399
140 1 0.831727 0.836983 0.342384
141 1 0.747527 0.744017 0.417317
144 1 0.922469 0.918024 0.422343
74 1 -0.00648442 0.170823 0.51039
75 1 0.170961 0.000958687 0.495936
145 1 0.00121009 -0.00494347 0.670319
148 1 0.170279 0.169278 0.660997
79 1 0.254913 0.0823686 0.581322
82 1 0.342663 0.159428 0.503419
153 1 0.334647 -0.000486112 0.661961
83 1 0.497658 0.00586685 0.49404
87 1 0.587332 0.0755554 0.5798
90 1 0.668255 0.170784 0.501746
156 1 0.502963 0.16425 0.663252
161 1 0.669144 -0.00393053 0.663852
91 1 0.83647 -0.0021755 0.503498
95 1 0.920794 0.0821498 0.585355
164 1 0.830884 0.163567 0.667754
78 1 0.0761866 0.251852 0.587417
99 1 0.168255 0.327623 0.499963
169 1 -0.000814958 0.332672 0.677014
86 1 0.41987 0.250387 0.577838
103 1 0.253452 0.411706 0.576592
177 1 0.329915 0.334642 0.6662
107 1 0.50624 0.33674 0.505403
111 1 0.583081 0.419428 0.585272
185 1 0.665524 0.343345 0.672239
94 1 0.747744 0.254143 0.591166
115 1 0.83696 0.333138 0.505987
119 1 0.918946 0.417093 0.586608
98 1 0.0017131 0.500988 0.496344
102 1 0.0940557 0.581675 0.579544
123 1 0.172769 0.665717 0.496221
172 1 0.16907 0.495885 0.66681
193 1 0.00663916 0.66418 0.663231
106 1 0.333587 0.4971 0.499563
110 1 0.410918 0.584644 0.588382
201 1 0.331576 0.664376 0.670364
114 1 0.665525 0.499499 0.502427
131 1 0.488011 0.67129 0.49613
180 1 0.498111 0.496242 0.661639
209 1 0.659142 0.669224 0.660356
118 1 0.746072 0.579534 0.593016
139 1 0.82857 0.661579 0.505409
188 1 0.832226 0.503222 0.673887
122 1 0.0057822 0.83386 0.502901
126 1 0.0920981 0.919162 0.584783
196 1 0.173626 0.834222 0.662479
127 1 0.253542 0.751152 0.583333
130 1 0.331038 0.83645 0.501394
134 1 0.420006 0.920696 0.583642
135 1 0.577496 0.74562 0.578407
138 1 0.661251 0.828506 0.499741
204 1 0.49778 0.829625 0.666323
142 1 0.751711 0.914612 0.58414
143 1 0.912859 0.750575 0.581374
212 1 0.829373 0.83336 0.667393
146 1 0.00129331 0.160264 0.840705
147 1 0.17154 0.00550576 0.824659
149 1 0.0875871 0.0849283 0.747291
151 1 0.256378 0.0855342 0.910729
154 1 0.344745 0.164159 0.83387
157 1 0.41797 0.0846533 0.741483
155 1 0.504112 0.00195076 0.829039
159 1 0.586877 0.0849213 0.912928
162 1 0.672307 0.166372 0.838539
163 1 0.839024 -0.00743989 0.828707
165 1 0.750187 0.0819458 0.755984
167 1 0.906901 0.0822243 0.91375
150 1 0.0816076 0.250815 0.918358
171 1 0.1735 0.334564 0.836335
173 1 0.09341 0.415279 0.757589
152 1 0.257202 0.247642 0.752599
158 1 0.419143 0.248151 0.923237
175 1 0.250949 0.410769 0.922441
181 1 0.414907 0.41645 0.75072
160 1 0.585174 0.245415 0.753242
179 1 0.496169 0.329217 0.832922
183 1 0.583349 0.418033 0.920365
166 1 0.752065 0.258034 0.913287
168 1 0.919156 0.246819 0.755531
187 1 0.840287 0.337413 0.830275
189 1 0.749347 0.418666 0.752658
191 1 0.917499 0.41724 0.917372
170 1 0.00322245 0.494977 0.833099
174 1 0.0849666 0.584904 0.916843
195 1 0.168924 0.671676 0.829915
176 1 0.251581 0.584919 0.752363
178 1 0.335512 0.494025 0.835742
182 1 0.413726 0.583758 0.912289
184 1 0.577117 0.582216 0.741576
186 1 0.65769 0.502899 0.833372
203 1 0.493799 0.660718 0.827495
190 1 0.748078 0.586212 0.918907
192 1 0.930067 0.581709 0.754336
211 1 0.839235 0.662511 0.828352
194 1 0.000273343 0.833201 0.830012
197 1 0.0838289 0.752352 0.748472
198 1 0.0918637 0.914742 0.911442
199 1 0.249635 0.750741 0.915596
200 1 0.249926 0.913953 0.744213
202 1 0.327056 0.835623 0.836395
205 1 0.409753 0.747194 0.74625
206 1 0.42004 0.921454 0.906588
207 1 0.57999 0.753134 0.911349
208 1 0.582542 0.912363 0.749741
210 1 0.663331 0.828384 0.83027
213 1 0.75122 0.741987 0.755144
214 1 0.750925 0.904713 0.912059
215 1 0.914163 0.74343 0.910302
216 1 0.909392 0.913778 0.744417
ITEM: TIMESTEP
3800
ITEM: NUMBER OF ATOMS
216
ITEM: BOX BOUNDS pp pp pp
-7.4098546700257728e-02 1.6367098546700191e+01
-7.4098546700257728e-02 1.6367098546700191e+01
-7.4098546700257728e-02 1.6367098546700191e+01
ITEM: ATOMS id type xs ys zs
1 1 -0.00299884 0.00491501 0.00216241
2 1 -0.00276003 0.16403 0.164113
3 1 0.165214 -0.00049153 0.165208
4 1 0.170848 0.171125 0.00473306
5 1 0.0876484 0.0857703 0.0822883
9 1 0.334242 0.00290381 0.00430599
10 1 0.336655 0.163837 0.176967
13 1 0.413424 0.0881941 0.0835842
11 1 0.499207 6.72916e-07 0.16257
12 1 0.499705 0.171933 -0.0075948
17 1 0.66507 0.00540651 0.00298375
18 1 0.669642 0.171712 0.16641
19 1 0.838653 -0.00167727 0.169295
20 1 0.830675 0.158799 -0.00547538
21 1 0.752878 0.0787865 0.086654
25 1 -0.00127355 0.332905 -0.0028624
27 1 0.164242 0.329301 0.163775
29 1 0.0744214 0.413116 0.0840718
8 1 0.25543 0.252387 0.0893339
33 1 0.327734 0.334157 -0.00147113
37 1 0.412791 0.411085 0.0851763
16 1 0.579805 0.251006 0.0814935
35 1 0.498119 0.330353 0.168831
41 1 0.667058 0.335489 0.00190609
24 1 0.919351 0.244446 0.0751129
43 1 0.835845 0.336089 0.160645
45 1 0.745437 0.420646 0.0789051
26 1 0.00138434 0.5032 0.165423
28 1 0.165188 0.492417 0.00641268
49 1 -0.00516824 0.668686 -0.000383753
51 1 0.168342 0.665776 0.168432
32 1 0.252649 0.579011 0.0894417
34 1 0.335282 0.493131 0.170609
57 1 0.330955 0.667634 0.00145129
36 1 0.494579 0.494199 -0.000228054
40 1 0.581977 0.576785 0.0805792
42 1 0.66317 0.498653 0.167183
59 1 0.504332 0.664614 0.167092
65 1 0.663513 0.655759 0.0014059
44 1 0.835398 0.5003 -0.00136798
48 1 0.910095 0.58609 0.0833993
67 1 0.824083 0.667175 0.167442
50 1 0.0104354 0.837925 0.168245
52 1 0.163706 0.830179 0.00303123
53 1 0.085248 0.747639 0.0894112
56 1 0.244445 0.918626 0.0776472
58 1 0.332545 0.838919 0.167792
61 1 0.417085 0.751441 0.0918079
60 1 0.503405 0.829614 0.0078252
64 1 0.581918 0.913432 0.0860415
66 1 0.667837 0.825985 0.164394
68 1 0.831206 0.830926 0.000495201
69 1 0.74344 0.745539 0.079046
72 1 0.915325 0.914113 0.086244
73 1 0.00155319 -0.00194068 0.328809
76 1 0.16463 0.16184 0.328458
77 1 0.0858574 0.0794357 0.417757
7 1 0.254961 0.0754259 0.252904
81 1 0.338541 0.000809736 0.339634
85 1 0.416247 0.0859758 0.424417
15 1 0.586109 0.0837654 0.248758
84 1 0.500321 0.164463 0.336925
89 1 0.666925 -0.00397909 0.324959
23 1 0.921514 0.0807011 0.253761
92 1 0.838889 0.170457 0.327962
93 1 0.750379 0.0842715 0.408312
6 1 0.079143 0.247153 0.246853
97 1 -0.0022905 0.336869 0.329495
101 1 0.0829364 0.423624 0.408074
14 1 0.418648 0.248221 0.257202
31 1 0.247389 0.41791 0.251452
80 1 0.242569 0.256648 0.412311
105 1 0.333313 0.338275 0.330886
109 1 0.418821 0.41981 0.42012
39 1 0.581642 0.409488 0.250842
88 1 0.581517 0.250323 0.412335
113 1 0.667604 0.329711 0.328888
22 1 0.757997 0.249471 0.243012
47 1 0.923736 0.417254 0.241145
96 1 0.924338 0.252504 0.416642
117 1 0.744924 0.413965 0.414407
30 1 0.0877438 0.580901 0.249094
100 1 0.167784 0.497743 0.333071
121 1 -0.00142094 0.666235 0.329605
38 1 0.420334 0.585762 0.25049
104 1 0.247626 0.584166 0.419219
129 1 0.336912 0.663711 0.335669
108 1 0.506739 0.501718 0.330484
112 1 0.588926 0.58959 0.420324
137 1 0.672692 0.67053 0.335027
46 1 0.747766 0.582374 0.252245
116 1 0.834059 0.492179 0.329849
120 1 0.918909 0.580116 0.409175
54 1 0.0903331 0.916185 0.250528
124 1 0.175382 0.832757 0.333974
125 1 0.0877183 0.746977 0.411877
55 1 0.255517 0.743737 0.245963
62 1 0.422165 0.919888 0.255096
128 1 0.253122 0.913278 0.42033
133 1 0.420679 0.737173 0.424083
63 1 0.588886 0.748624 0.248851
132 1 0.502526 0.827583 0.337723
136 1 0.580974 0.917413 0.414851
70 1 0.755351 0.913873 0.244668
71 1 0.916611 0.742423 0.241741
140 1 0.835228 0.829281 0.325865
141 1 0.751792 0.752245 0.413811
144 1 0.914156 0.916621 0.411629
74 1 0.0025818 0.167331 0.491454
75 1 0.168021 -0.00282433 0.502222
145 1 -0.00860866 -0.000982231 0.660999
148 1 0.166687 0.165219 0.666117
79 1 0.251924 0.0850928 0.585377
82 1 0.324682 0.169277 0.493993
153 1 0.332089 0.00397328 0.67133
83 1 0.496834 -0.00339918 0.497984
87 1 0.574799 0.0840252 0.58604
90 1 0.662633 0.159762 0.494495
156 1 0.490637 0.164949 0.669795
161 1 0.663865 0.00265903 0.671345
91 1 0.832657 0.00571629 0.497908
95 1 0.918123 0.0844222 0.575712
164 1 0.833679 0.169127 0.663589
78 1 0.0872239 0.250117 0.578257
99 1 0.162061 0.343067 0.500185
169 1 0.00652853 0.334629 0.664342
86 1 0.411848 0.25179 0.58106
103 1 0.24618 0.423359 0.580872
177 1 0.332358 0.3359 0.666978
107 1 0.504047 0.335858 0.493725
111 1 0.584314 0.417701 0.580447
185 1 0.662616 0.325231 0.658505
94 1 0.744711 0.247884 0.576027
115 1 0.830001 0.329719 0.492511
119 1 0.915722 0.418176 0.576919
98 1 -0.00253143 0.498579 0.495143
102 1 0.0740813 0.581138 0.584726
123 1 0.161517 0.664603 0.502935
172 1 0.162777 0.499918 0.664701
193 1 0.00210252 0.663878 0.6715
106 1 0.333168 0.504379 0.499015
110 1 0.424152 0.582745 0.587648
201 1 0.334568 0.665573 0.66068
114 1 0.666258 0.496757 0.507295
131 1 0.512614 0.667574 0.508194
180 1 0.509093 0.497627 0.670088
209 1 0.675932 0.668795 0.67154
118 1 0.756171 0.58922 0.578253
139 1 0.842564 0.664313 0.495646
188 1 0.832423 0.498714 0.665803
122 1 0.00531787 0.833631 0.491906
126 1 0.0830648 0.914552 0.586099
196 1 0.16849 0.830067 0.669662
127 1 0.244778 0.746264 0.587893
130 1 0.331102 0.828393 0.505833
134 1 0.413442 0.915425 0.582547
135 1 0.591888 0.756524 0.588034
138 1 0.667181 0.839992 0.503468
204 1 0.503984 0.835957 0.664063
142 1 0.747451 0.923228 0.583686
143 1 0.925074 0.749912 0.585339
212 1 0.837646 0.839508 0.666359
146 1 0.00145852 0.174078 0.831207
147 1 0.160017 -0.000717018 0.840222
149 1 0.0784432 0.0794581 0.749441
151 1 0.240346 0.0825139 0.919366
154 1 0.326526 0.166305 0.836259
157 1 0.41175 0.0781796 0.761519
155 1 0.501489 0.000269954 0.843294
159 1 0.583005 0.082235 0.920578
162 1 0.661401 0.169289 0.83898
163 1 0.831011 0.00370653 0.830311
165 1 0.748243 0.0860097 0.750009
167 1 0.921293 0.081673 0.912452
150 1 0.0842842 0.250966 0.916171
171 1 0.157796 0.336094 0.836212
173 1 0.0707628 0.42028 0.748632
152 1 0.245852 0.250645 0.750792
158 1 0.4113 0.245627 0.912958
175 1 0.24963 0.417259 0.916664
181 1 0.419175 0.420803 0.748394
160 1 0.584077 0.255369 0.747762
179 1 0.498424 0.336571 0.833693
183 1 0.579063 0.413191 0.915885
166 1 0.743688 0.244237 0.921664
168 1 0.913363 0.258352 0.748636
187 1 0.828074 0.336838 0.83943
189 1 0.752891 0.407919 0.74512
191 1 0.916631 0.420105 0.918494
170 1 -0.00675533 0.500212 0.836672
174 1 0.0832405 0.584067 0.919442
195 1 0.168975 0.665306 0.839307
176 1 0.252176 0.587966 0.745494
178 1 0.327474 0.503801 0.834537
182 1 0.415539 0.58064 0.920709
184 1 0.587643 0.582816 0.74917
186 1 0.676084 0.494989 0.828911
203 1 0.503846 0.671063 0.834688
190 1 0.756443 0.584821 0.914862
192 1 0.907879 0.583152 0.753674
211 1 0.830662 0.672858 0.836732
194 1 -0.00705374 0.834189 0.833602
197 1 0.0858373 0.750246 0.750008
198 1 0.0727387 0.91843 0.919405
199 1 0.246565 0.754536 0.917489
200 1 0.250353 0.921222 0.750602
202 1 0.337444 0.834064 0.8318
205 1 0.420385 0.748031 0.745141
206 1 0.41948 0.912802 0.927935
207 1 0.59084 0.754337 0.921042
208 1 0.584527 0.921824 0.75815
210 1 0.670415 0.838549 0.838096
213 1 0.75364 0.75901 0.748876
214 1 0.750266 0.923115 0.919021
215 1 0.915285 0.752782 0.920483
216 1 0.917391 0.923344 0.750206
ITEM: TIMESTEP
3900
ITEM: NUMBER OF ATOMS
216
ITEM: BOX BOUNDS pp pp pp
-5.7591618962202773e-02 1.6350591618962152e+01
-5.7591618962202773e-02 1.6350591618962152e+01
-5.7591618962202773e-02 1.6350591618962152e+01
ITEM: ATOMS id type xs ys zs
1 1 0.0090717 0.00185249 0.00227882
2 1 0.0106811 0.164217 0.170604
3 1 0.17171 -0.00273593 0.170035
4 1 0.160488 0.168583 -0.00494195
5 1 0.0855025 0.079716 0.0881061
9 1 0.328055 -0.00481219 0.00538146
10 1 0.328983 0.170019 0.166117
13 1 0.414737 0.0766765 0.0899828
11 1 0.497624 -0.00601958 0.173138
12 1 0.498066 0.162209 0.000139971
17 1 0.658265 0.000356616 -0.00455612
18 1 0.653669 0.15727 0.168989
19 1 0.830923 0.000297958 0.163803
20 1 0.829477 0.171765 -0.00366053
21 1 0.74547 0.0819234 0.0805095
25 1 0.00146672 0.337076 -0.00168656
27 1 0.173979 0.340719 0.163804
29 1 0.0870012 0.416548 0.0767364
8 1 0.248094 0.24818 0.0798831
33 1 0.331299 0.338181 0.000125016
37 1 0.419873 0.42559 0.0768312
16 1 0.577672 0.250257 0.0849568
35 1 0.498104 0.338078 0.165327
41 1 0.659999 0.325543 -0.00489301
24 1 0.916387 0.255074 0.0891444
43 1 0.827063 0.329101 0.168431
45 1 0.749238 0.408234 0.0796757
26 1 0.00351764 0.497197 0.162753
28 1 0.166078 0.505937 -0.00635548
49 1 0.000415936 0.666131 -0.00241334
51 1 0.167062 0.664295 0.162034
32 1 0.253622 0.585985 0.0808555
34 1 0.335441 0.501546 0.168188
57 1 0.338442 0.665026 -0.00364738
36 1 0.507763 0.502977 0.00328306
40 1 0.588291 0.586304 0.0818521
42 1 0.667168 0.495304 0.161155
59 1 0.507256 0.666273 0.170006
65 1 0.667947 0.677888 0.00558942
44 1 0.832258 0.494126 -0.0073417
48 1 0.92084 0.572627 0.0769177
67 1 0.845001 0.664106 0.156776
50 1 0.00510667 0.835068 0.16039
52 1 0.172527 0.83301 0.00197168
53 1 0.0884952 0.746907 0.082202
56 1 0.25711 0.909648 0.0905947
58 1 0.34042 0.823851 0.172039
61 1 0.422986 0.747625 0.0798175
60 1 0.495913 0.83703 -0.00142458
64 1 0.578902 0.912229 0.0849834
66 1 0.669503 0.835285 0.169633
68 1 0.832051 0.83386 -0.00129162
69 1 0.75711 0.754214 0.0890214
72 1 0.921881 0.917972 0.0805803
73 1 0.00185614 0.0026178 0.329549
76 1 0.174833 0.170193 0.33807
77 1 0.0809443 0.0833674 0.414881
7 1 0.249158 0.0813378 0.251289
81 1 0.332147 -0.00394322 0.333827
85 1 0.418946 0.073929 0.419829
15 1 0.575571 0.0789766 0.256927
84 1 0.492883 0.169027 0.338383
89 1 0.664231 0.000747517 0.343182
23 1 0.914976 0.0832437 0.240262
92 1 0.828247 0.163223 0.327992
93 1 0.749923 0.0820349 0.423278
6 1 0.0905242 0.254558 0.249907
97 1 0.00225837 0.330634 0.339302
101 1 0.0847702 0.416011 0.419288
14 1 0.412963 0.253736 0.244528
31 1 0.253075 0.419885 0.255195
80 1 0.254745 0.246368 0.428996
105 1 0.334683 0.328701 0.336737
109 1 0.414727 0.409901 0.423193
39 1 0.585446 0.418762 0.243657
88 1 0.579964 0.25388 0.420559
113 1 0.663132 0.329521 0.333332
22 1 0.738119 0.246814 0.251949
47 1 0.919227 0.412561 0.249931
96 1 0.911382 0.240141 0.407353
117 1 0.752194 0.418098 0.411393
30 1 0.0843055 0.578656 0.2534
100 1 0.169561 0.502227 0.337095
121 1 0.00406805 0.666729 0.338142
38 1 0.415914 0.583067 0.250836
104 1 0.251356 0.587816 0.417645
129 1 0.337211 0.667662 0.340846
108 1 0.495655 0.494781 0.332734
112 1 0.588848 0.579268 0.41143
137 1 0.668108 0.6597 0.325383
46 1 0.757673 0.585288 0.243026
116 1 0.841509 0.506291 0.330212
120 1 0.920385 0.588152 0.417544
54 1 0.0836733 0.914394 0.250014
124 1 0.167569 0.825977 0.334191
125 1 0.0839218 0.751409 0.422852
55 1 0.248658 0.745982 0.25523
62 1 0.417327 0.911472 0.256536
128 1 0.253879 0.916995 0.418093
133 1 0.423592 0.755534 0.420563
63 1 0.586802 0.746681 0.25284
132 1 0.509658 0.835927 0.336678
136 1 0.587564 0.919172 0.424775
70 1 0.750108 0.919118 0.250667
71 1 0.91786 0.75314 0.250776
140 1 0.833267 0.835987 0.334188
141 1 0.746552 0.751782 0.416391
144 1 0.920017 0.923279 0.413449
74 1 -0.0014145 0.162928 0.496791
75 1 0.166368 0.0039574 0.502373
145 1 0.00410555 0.00625266 0.666333
148 1 0.161143 0.169793 0.663038
79 1 0.244143 0.0799595 0.587755
82 1 0.33849 0.154235 0.508242
153 1 0.327218 -0.00442044 0.669341
83 1 0.504063 -0.00471125 0.505659
87 1 0.589529 0.0843538 0.578235
90 1 0.670349 0.176158 0.501631
156 1 0.502859 0.168798 0.667455
161 1 0.669054 0.000220707 0.661874
91 1 0.836446 -8.80356e-05 0.500604
95 1 0.919143 0.0813526 0.58212
164 1 0.833786 0.158072 0.656953
78 1 0.0783291 0.251422 0.579568
99 1 0.164518 0.332402 0.502666
169 1 -0.00277149 0.335012 0.658595
86 1 0.41532 0.249972 0.585528
103 1 0.246398 0.41706 0.58898
177 1 0.332278 0.338951 0.667882
107 1 0.502431 0.332686 0.507251
111 1 0.582348 0.413103 0.587395
185 1 0.666073 0.339736 0.663977
94 1 0.752583 0.255553 0.58522
115 1 0.835389 0.328017 0.491935
119 1 0.9142 0.416852 0.585354
98 1 0.00456949 0.504453 0.502491
102 1 0.0820247 0.592527 0.579377
123 1 0.17621 0.673006 0.507886
172 1 0.165044 0.507918 0.664967
193 1 -0.00570008 0.672514 0.661143
106 1 0.331574 0.50162 0.507711
110 1 0.415944 0.58905 0.582624
201 1 0.331129 0.675706 0.676551
114 1 0.668458 0.49529 0.498076
131 1 0.503175 0.665381 0.499237
180 1 0.496548 0.500445 0.658365
209 1 0.663093 0.665876 0.6629
118 1 0.744618 0.578188 0.581261
139 1 0.827917 0.669605 0.494607
188 1 0.831055 0.502583 0.664027
122 1 -0.00394808 0.834411 0.508391
126 1 0.0793809 0.918904 0.586593
196 1 0.160919 0.830777 0.664789
127 1 0.255406 0.752094 0.589982
130 1 0.339641 0.833536 0.503708
134 1 0.420162 0.918972 0.592627
135 1 0.582688 0.747477 0.581016
138 1 0.666528 0.832195 0.49723
204 1 0.503822 0.830057 0.67328
142 1 0.751633 0.916088 0.577975
143 1 0.90651 0.751466 0.585144
212 1 0.83033 0.839572 0.67244
146 1 -0.0039507 0.163984 0.832955
147 1 0.175975 0.000165998 0.832553
149 1 0.08411 0.0855391 0.749864
151 1 0.257386 0.0866528 0.919751
154 1 0.331304 0.168272 0.828386
157 1 0.409596 0.0856784 0.744701
155 1 0.493912 0.0104876 0.825719
159 1 0.572436 0.0846779 0.915319
162 1 0.658524 0.159622 0.82808
163 1 0.833888 -6.03701e-05 0.83507
165 1 0.747549 0.0795245 0.747658
167 1 0.916103 0.0851649 0.924909
150 1 0.0796463 0.24982 0.91646
171 1 0.164329 0.33235 0.829541
173 1 0.0841105 0.416421 0.744187
152 1 0.246195 0.251153 0.749772
158 1 0.414488 0.256661 0.920351
175 1 0.251362 0.419163 0.913006
181 1 0.419301 0.421123 0.751207
160 1 0.582011 0.253456 0.748073
179 1 0.496299 0.328756 0.831973
183 1 0.578371 0.415198 0.917761
166 1 0.749212 0.253124 0.905688
168 1 0.918113 0.243876 0.741348
187 1 0.832725 0.330607 0.827737
189 1 0.744512 0.417557 0.74414
191 1 0.915557 0.412377 0.908802
170 1 -0.0019574 0.497616 0.825923
174 1 0.0769701 0.578919 0.904962
195 1 0.161098 0.669359 0.828687
176 1 0.246665 0.581719 0.756123
178 1 0.335876 0.500689 0.832672
182 1 0.422174 0.575593 0.914863
184 1 0.580052 0.583632 0.746187
186 1 0.661725 0.502805 0.835314
203 1 0.501978 0.667201 0.839077
190 1 0.745541 0.58448 0.920733
192 1 0.917604 0.586011 0.742362
211 1 0.832941 0.66613 0.835096
194 1 -0.00308317 0.836541 0.835674
197 1 0.0786252 0.749438 0.749406
198 1 0.0942512 0.918876 0.918559
199 1 0.247186 0.740347 0.922276
200 1 0.243416 0.910723 0.751601
202 1 0.327764 0.829313 0.838739
205 1 0.414164 0.752817 0.75847
206 1 0.414778 0.92279 0.915671
207 1 0.580892 0.749859 0.923931
208 1 0.586272 0.923145 0.746509
210 1 0.66577 0.833161 0.830002
213 1 0.744955 0.749103 0.749573
214 1 0.747094 0.921259 0.914749
215 1 0.9162 0.751513 0.915899
216 1 0.924897 0.921145 0.754028
ITEM: TIMESTEP
4000
ITEM: NUMBER OF ATOMS
216
ITEM: BOX BOUNDS pp pp pp
-8.1062069664612935e-02 1.6374062069664546e+01
-8.1062069664612935e-02 1.6374062069664546e+01
-8.1062069664612935e-02 1.6374062069664546e+01
ITEM: ATOMS id type xs ys zs
1 1 -0.00583821 0.00167047 0.00251185
2 1 -0.00801893 0.16256 0.160909
3 1 0.163126 0.00800816 0.161508
4 1 0.167853 0.163495 0.00701876
5 1 0.0800814 0.0874477 0.0802265
9 1 0.333385 -0.00173788 -0.00674334
10 1 0.334725 0.1663 0.169112
13 1 0.417658 0.086423 0.0779642
11 1 0.501408 0.00207915 0.167307
12 1 0.507636 0.165475 -0.00213439
17 1 0.669254 -0.00024552 0.000405641
18 1 0.677002 0.178176 0.161268
19 1 0.835679 0.00359832 0.171953
20 1 0.83858 0.162602 0.0048752
21 1 0.750704 0.0856926 0.0860641
25 1 0.000355323 0.33193 -0.00155071
27 1 0.161402 0.331804 0.17167
29 1 0.0781104 0.413151 0.0907295
8 1 0.250397 0.250707 0.0865355
33 1 0.33923 0.331087 0.00512114
37 1 0.42391 0.410176 0.0880773
16 1 0.586237 0.250459 0.0820132
35 1 0.499821 0.328583 0.170499
41 1 0.674137 0.339866 0.00522384
24 1 0.919883 0.247238 0.0774035
43 1 0.836449 0.334611 0.163906
45 1 0.75692 0.42235 0.0889391
26 1 -0.00279384 0.50412 0.166873
28 1 0.163672 0.493679 0.00585008
49 1 0.00353106 0.662523 0.00596159
51 1 0.164826 0.670455 0.173432
32 1 0.246222 0.583111 0.0856666
34 1 0.331953 0.497222 0.16296
57 1 0.329038 0.666733 0.00362998
36 1 0.495965 0.500356 1.02443e-05
40 1 0.580401 0.58097 0.0785437
42 1 0.667605 0.502939 0.168564
59 1 0.497336 0.665123 0.160443
65 1 0.669672 0.662547 -0.00608769
44 1 0.83796 0.505152 0.0103184
48 1 0.914027 0.590811 0.0899198
67 1 0.825569 0.667056 0.170615
50 1 -0.0070659 0.828891 0.166378
52 1 0.162908 0.833922 0.00099908
53 1 0.0785518 0.754771 0.0796495
56 1 0.242118 0.924155 0.0812423
58 1 0.326487 0.842892 0.163051
61 1 0.412138 0.751379 0.0815324
60 1 0.507083 0.826117 0.00457491
64 1 0.586623 0.924429 0.0808061
66 1 0.665726 0.836015 0.16157
68 1 0.838845 0.832786 0.00241817
69 1 0.74773 0.745647 0.0782788
72 1 0.912782 0.923356 0.0848797
73 1 -0.00346375 -0.00210741 0.334921
76 1 0.16127 0.161319 0.329516
77 1 0.0801719 0.0840681 0.419002
7 1 0.253751 0.0850514 0.249931
81 1 0.337409 0.00423621 0.329638
85 1 0.413938 0.0869063 0.412961
15 1 0.589196 0.0851792 0.241222
84 1 0.507014 0.163063 0.327479
89 1 0.664671 -0.00635921 0.327979
23 1 0.919006 0.089052 0.25592
92 1 0.838974 0.173059 0.339161
93 1 0.752521 0.0831896 0.413858
6 1 0.0778133 0.246151 0.249706
97 1 0.00179465 0.335125 0.331433
101 1 0.0883923 0.414809 0.418774
14 1 0.418552 0.247887 0.255447
31 1 0.247122 0.415213 0.246393
80 1 0.247242 0.256223 0.405702
105 1 0.331141 0.334897 0.326203
109 1 0.419005 0.418335 0.408012
39 1 0.584995 0.411855 0.251993
88 1 0.586485 0.249783 0.417943
113 1 0.666178 0.332971 0.330371
22 1 0.761513 0.255916 0.2491
47 1 0.911228 0.418675 0.247537
96 1 0.921628 0.260201 0.423037
117 1 0.744398 0.415507 0.41789
30 1 0.0815994 0.586152 0.247719
100 1 0.163864 0.498389 0.330287
121 1 -0.00196943 0.659701 0.33137
38 1 0.414566 0.583484 0.245524
104 1 0.243737 0.579478 0.413302
129 1 0.325849 0.665133 0.326331
108 1 0.50557 0.505283 0.331981
112 1 0.576779 0.592036 0.419115
137 1 0.665364 0.674316 0.338724
46 1 0.742853 0.580264 0.255193
116 1 0.830866 0.497078 0.337317
120 1 0.912834 0.579708 0.41777
54 1 0.0818312 0.920223 0.248119
124 1 0.16075 0.841084 0.32921
125 1 0.0830391 0.745947 0.41262
55 1 0.249261 0.754801 0.248631
62 1 0.41237 0.921171 0.245167
128 1 0.247629 0.917976 0.413537
133 1 0.40892 0.750142 0.411008
63 1 0.582741 0.754148 0.24921
132 1 0.492865 0.835107 0.331037
136 1 0.58269 0.910493 0.414752
70 1 0.748168 0.916711 0.249347
71 1 0.918986 0.748239 0.253065
140 1 0.828839 0.834428 0.336934
141 1 0.751527 0.748283 0.418384
144 1 0.911808 0.914119 0.42125
74 1 -0.00300216 0.171241 0.513749
75 1 0.162896 -0.000195265 0.500942
145 1 -0.0078947 -0.00370125 0.669412
148 1 0.171291 0.159518 0.670482
79 1 0.254213 0.0866912 0.581378
82 1 0.325255 0.177812 0.496896
153 1 0.340436 0.0091183 0.66202
83 1 0.50238 0.00377463 0.491178
87 1 0.584528 0.0756612 0.586776
90 1 0.664912 0.163856 0.499879
156 1 0.49966 0.165641 0.671744
161 1 0.667204 -0.00312644 0.67087
91 1 0.832146 -0.00244022 0.505022
95 1 0.914974 0.0813413 0.587191
164 1 0.832076 0.172927 0.669658
78 1 0.089006 0.247682 0.590828
99 1 0.166681 0.32778 0.497036
169 1 -0.000519116 0.329888 0.669008
86 1 0.42059 0.253692 0.575547
103 1 0.252054 0.409098 0.57633
177 1 0.332342 0.329031 0.669487
107 1 0.501804 0.335217 0.498865
111 1 0.58279 0.416221 0.581616
185 1 0.662203 0.335857 0.666539
94 1 0.744142 0.250142 0.58795
115 1 0.831635 0.337182 0.512055
119 1 0.920637 0.419412 0.585019
98 1 -0.000922763 0.49762 0.494177
102 1 0.0885591 0.580094 0.5869
123 1 0.159252 0.661864 0.494271
172 1 0.168913 0.492997 0.667956
193 1 0.00609502 0.66409 0.669188
106 1 0.334061 0.499874 0.492744
110 1 0.419727 0.578262 0.584231
201 1 0.332107 0.660077 0.657247
114 1 0.661134 0.506866 0.499629
131 1 0.488911 0.669661 0.498569
180 1 0.501225 0.490538 0.670767
209 1 0.663572 0.667025 0.665385
118 1 0.751003 0.587599 0.588234
139 1 0.83942 0.664213 0.504079
188 1 0.833077 0.498427 0.665644
122 1 0.000583661 0.835173 0.496726
126 1 0.0853203 0.919697 0.586981
196 1 0.174533 0.841367 0.666942
127 1 0.242925 0.751199 0.574787
130 1 0.32818 0.831264 0.497454
134 1 0.416131 0.920479 0.573475
135 1 0.582389 0.746839 0.578439
138 1 0.66579 0.828729 0.496913
204 1 0.493675 0.834004 0.657489
142 1 0.745123 0.914867 0.586712
143 1 0.925275 0.743664 0.58046
212 1 0.83525 0.822918 0.657503
146 1 0.00546068 0.166765 0.840094
147 1 0.158485 0.00118503 0.834577
149 1 0.0794658 0.0795955 0.745408
151 1 0.249158 0.0819238 0.915534
154 1 0.338608 0.161727 0.834448
157 1 0.423362 0.0789752 0.755335
155 1 0.507432 -0.00857993 0.841434
159 1 0.591963 0.0777898 0.913569
162 1 0.670527 0.170511 0.840633
163 1 0.834011 -0.000921039 0.832082
165 1 0.750786 0.088882 0.749839
167 1 0.915026 0.0802147 0.909146
150 1 0.0876818 0.252833 0.920484
171 1 0.170226 0.332895 0.835707
173 1 0.0837485 0.416424 0.754404
152 1 0.250854 0.245142 0.748836
158 1 0.420393 0.249534 0.911271
175 1 0.250983 0.415813 0.916237
181 1 0.409719 0.412966 0.753421
160 1 0.590794 0.250727 0.753151
179 1 0.504706 0.337064 0.830213
183 1 0.58573 0.421757 0.922035
166 1 0.752726 0.248299 0.927882
168 1 0.915895 0.254221 0.758523
187 1 0.835566 0.336136 0.840411
189 1 0.750784 0.415612 0.74787
191 1 0.918762 0.419609 0.92656
170 1 -0.00123209 0.50159 0.837209
174 1 0.0905725 0.58724 0.921113
195 1 0.173495 0.66709 0.832769
176 1 0.25262 0.583608 0.747181
178 1 0.337092 0.502458 0.83273
182 1 0.409193 0.587983 0.919777
184 1 0.585348 0.586718 0.753868
186 1 0.6695 0.496207 0.833009
203 1 0.49269 0.664717 0.832562
190 1 0.754147 0.58239 0.917973
192 1 0.922189 0.582409 0.750151
211 1 0.837883 0.665251 0.826716
194 1 0.00668586 0.829035 0.831912
197 1 0.0843163 0.750834 0.750671
198 1 0.0729149 0.909912 0.920327
199 1 0.252032 0.756872 0.913954
200 1 0.257763 0.924961 0.748018
202 1 0.335246 0.837265 0.830792
205 1 0.415994 0.748521 0.74245
206 1 0.422081 0.910432 0.918247
207 1 0.583119 0.748245 0.91584
208 1 0.576291 0.91016 0.748302
210 1 0.664677 0.832215 0.83694
213 1 0.750475 0.744141 0.748193
214 1 0.754319 0.910867 0.92072
215 1 0.919323 0.748524 0.912052
216 1 0.908392 0.909769 0.746115
ITEM: TIMESTEP
4100
ITEM: NUMBER OF ATOMS
216
ITEM: BOX BOUNDS pp pp pp
-5.3266907220859139e-02 1.6346266907220794e+01
-5.3266907220859139e-02 1.6346266907220794e+01
-5.3266907220859139e-02 1.6346266907220794e+01
ITEM: ATOMS id type xs ys zs
1 1 0.000778878 -0.001431 -0.00443377
2 1 -0.00231 0.170721 0.171293
3 1 0.164279 -0.00324113 0.167024
4 1 0.164371 0.161341 -0.00446987
5 1 0.082417 0.082436 0.0846176
9 1 0.339437 0.00103083 0.000982901
10 1 0.334654 0.165811 0.168151
13 1 0.423034 0.0832072 0.0877384
11 1 0.50396 -0.00501478 0.162064
12 1 0.506579 0.170997 0.00324292
17 1 0.670202 -0.000410311 -0.00147958
18 1 0.673808 0.163395 0.175002
19 1 0.836811 -0.00740768 0.16592
20 1 0.834127 0.172406 0.00157284
21 1 0.752604 0.0805218 0.0813471
25 1 0.00154541 0.3301 0.00702732
27 1 0.169729 0.331413 0.164278
29 1 0.0852395 0.419704 0.0822173
8 1 0.244534 0.244038 0.0819203
33 1 0.332649 0.332517 0.000204696
37 1 0.414168 0.423312 0.0827504
16 1 0.591804 0.252366 0.0921245
35 1 0.503556 0.337757 0.161352
41 1 0.669958 0.333671 0.00180071
24 1 0.914678 0.256657 0.0907078
43 1 0.82724 0.335858 0.17023
45 1 0.748586 0.421669 0.0845721
26 1 0.000804964 0.502631 0.171572
28 1 0.171406 0.504087 -6.1101e-05
49 1 -0.00690973 0.670896 0.00338081
51 1 0.162432 0.666821 0.162438
32 1 0.256217 0.587099 0.0796029
34 1 0.330933 0.496985 0.1651
57 1 0.339976 0.667645 -0.00930809
36 1 0.494518 0.501993 -0.00528307
40 1 0.580272 0.583687 0.0865007
42 1 0.664828 0.500397 0.167997
59 1 0.489676 0.669183 0.163588
65 1 0.653706 0.667047 0.00389056
44 1 0.833356 0.49806 -0.000734884
48 1 0.917805 0.578991 0.0815974
67 1 0.83495 0.666338 0.164475
50 1 0.000961852 0.839471 0.168788
52 1 0.1671 0.835844 -0.00584796
53 1 0.0822072 0.754359 0.0844827
56 1 0.248969 0.914517 0.0783192
58 1 0.332882 0.833785 0.166472
61 1 0.411533 0.754828 0.0803297
60 1 0.495708 0.841598 -0.010279
64 1 0.584029 0.912287 0.0805625
66 1 0.665898 0.832578 0.16992
68 1 0.822798 0.833794 0.00281896
69 1 0.74288 0.7502 0.0833529
72 1 0.917048 0.9065 0.0790955
73 1 -0.00384475 0.00167528 0.340226
76 1 0.175025 0.177122 0.335262
77 1 0.0865813 0.088838 0.418049
7 1 0.243618 0.0848173 0.245262
81 1 0.327898 0.00248169 0.322923
85 1 0.416126 0.0827989 0.409438
15 1 0.585762 0.0839279 0.249088
84 1 0.499468 0.173667 0.331599
89 1 0.664203 0.00473525 0.332631
23 1 0.91416 0.0780538 0.251995
92 1 0.826075 0.160874 0.327503
93 1 0.747983 0.0812758 0.420303
6 1 0.0825681 0.253568 0.249015
97 1 -0.00390672 0.335333 0.3374
101 1 0.0808145 0.41689 0.4175
14 1 0.416845 0.255334 0.242333
31 1 0.252519 0.412843 0.251571
80 1 0.253032 0.249397 0.422721
105 1 0.332577 0.32575 0.332416
109 1 0.414028 0.407603 0.418833
39 1 0.577925 0.419201 0.252954
88 1 0.582396 0.255511 0.414621
113 1 0.669307 0.33792 0.335058
22 1 0.745601 0.250914 0.25455
47 1 0.913991 0.419541 0.255243
96 1 0.909531 0.240576 0.419733
117 1 0.756933 0.418013 0.419413
30 1 0.0814702 0.586813 0.254631
100 1 0.163975 0.499419 0.332912
121 1 -0.0014168 0.671111 0.335316
38 1 0.413066 0.584215 0.253754
104 1 0.251653 0.585947 0.413509
129 1 0.333808 0.673933 0.333756
108 1 0.494643 0.497017 0.334809
112 1 0.579426 0.577525 0.416914
137 1 0.666655 0.660846 0.33915
46 1 0.753383 0.588669 0.253456
116 1 0.832462 0.507616 0.335569
120 1 0.915491 0.588367 0.419317
54 1 0.0794689 0.918904 0.251872
124 1 0.170054 0.827212 0.335091
125 1 0.0816702 0.74944 0.417084
55 1 0.249717 0.751395 0.243803
62 1 0.416289 0.923169 0.246615
128 1 0.249574 0.917315 0.412359
133 1 0.421768 0.748958 0.413192
63 1 0.575019 0.750609 0.252549
132 1 0.492738 0.842984 0.3319
136 1 0.577843 0.921111 0.411843
70 1 0.751034 0.915417 0.254686
71 1 0.911443 0.749314 0.252398
140 1 0.83198 0.833424 0.338755
141 1 0.745323 0.751997 0.419151
144 1 0.914788 0.915428 0.420317
74 1 0.000807664 0.165431 0.49858
75 1 0.173353 0.000663715 0.499648
145 1 0.00855263 0.00176983 0.661865
148 1 0.170779 0.173631 0.663688
79 1 0.247765 0.084344 0.589618
82 1 0.33628 0.160819 0.497929
153 1 0.330524 -0.00588786 0.667116
83 1 0.495834 -0.0053081 0.501755
87 1 0.578963 0.0857945 0.580363
90 1 0.666014 0.169475 0.505647
156 1 0.499536 0.165724 0.660832
161 1 0.665946 0.000176607 0.663663
91 1 0.837888 0.000170863 0.501603
95 1 0.91887 0.0815936 0.586919
164 1 0.835514 0.162813 0.67195
78 1 0.0859864 0.251653 0.580358
99 1 0.17023 0.333452 0.500099
169 1 0.0067448 0.332748 0.672513
86 1 0.415261 0.248668 0.584151
103 1 0.249519 0.41624 0.586639
177 1 0.342344 0.330201 0.666356
107 1 0.503187 0.333865 0.498561
111 1 0.584347 0.410769 0.585542
185 1 0.673003 0.33014 0.670444
94 1 0.751582 0.246914 0.590875
115 1 0.835658 0.330415 0.505062
119 1 0.914294 0.414097 0.589244
98 1 -0.00917005 0.49505 0.503043
102 1 0.0816445 0.584412 0.57927
123 1 0.172282 0.666239 0.493793
172 1 0.171073 0.50215 0.667969
193 1 -0.00389158 0.663958 0.66736
106 1 0.329038 0.500668 0.496805
110 1 0.409329 0.590353 0.573579
201 1 0.331982 0.665966 0.669339
114 1 0.663846 0.497512 0.506047
131 1 0.505509 0.667367 0.494222
180 1 0.495679 0.503791 0.663207
209 1 0.672636 0.66656 0.666478
118 1 0.753789 0.583901 0.585507
139 1 0.828279 0.668966 0.502336
188 1 0.838792 0.502977 0.675909
122 1 -0.00360818 0.828155 0.502022
126 1 0.0808265 0.915663 0.578594
196 1 0.159558 0.822941 0.663625
127 1 0.252027 0.746415 0.577928
130 1 0.335688 0.837152 0.493204
134 1 0.410972 0.910319 0.586278
135 1 0.582994 0.751704 0.585806
138 1 0.660513 0.839931 0.50228
204 1 0.503738 0.834536 0.66919
142 1 0.751452 0.916384 0.579238
143 1 0.914866 0.747554 0.587257
212 1 0.831907 0.835845 0.667594
146 1 -0.000128127 0.162932 0.828183
147 1 0.172636 -0.00279211 0.826595
149 1 0.0907854 0.0896506 0.745573
151 1 0.251784 0.0867678 0.914892
154 1 0.33533 0.168614 0.828509
157 1 0.414696 0.0775442 0.747488
155 1 0.503439 0.00716096 0.82784
159 1 0.586886 0.0839222 0.920501
162 1 0.66602 0.163445 0.83189
163 1 0.832894 -0.00213754 0.834079
165 1 0.749237 0.0791182 0.753476
167 1 0.915963 0.0848928 0.92381
150 1 0.0804331 0.248577 0.917058
171 1 0.16803 0.326459 0.834194
173 1 0.0903663 0.410877 0.751666
152 1 0.255805 0.251256 0.751954
158 1 0.41778 0.240914 0.920834
175 1 0.250111 0.418114 0.916686
181 1 0.419615 0.415035 0.747138
160 1 0.586767 0.248539 0.748365
179 1 0.499229 0.334421 0.832082
183 1 0.582393 0.413922 0.914454
166 1 0.748793 0.246753 0.910067
168 1 0.91787 0.245625 0.749509
187 1 0.837593 0.339166 0.831416
189 1 0.754507 0.417905 0.756157
191 1 0.922348 0.417487 0.919072
170 1 0.00798131 0.499483 0.834788
174 1 0.0814364 0.585882 0.925888
195 1 0.163961 0.664772 0.83409
176 1 0.255794 0.577381 0.753155
178 1 0.334168 0.496972 0.833471
182 1 0.418661 0.581243 0.913046
184 1 0.582755 0.582431 0.742385
186 1 0.665089 0.50134 0.830374
203 1 0.502683 0.666351 0.834262
190 1 0.747238 0.585271 0.916408
192 1 0.916858 0.582262 0.754683
211 1 0.833302 0.662636 0.835778
194 1 0.00106014 0.832879 0.830618
197 1 0.0809483 0.742546 0.748399
198 1 0.0843437 0.918842 0.912113
199 1 0.249247 0.749132 0.9164
200 1 0.253502 0.907121 0.742001
202 1 0.333343 0.832092 0.83077
205 1 0.417868 0.74797 0.755114
206 1 0.414086 0.922057 0.903835
207 1 0.582174 0.746809 0.912471
208 1 0.58487 0.923305 0.752439
210 1 0.666189 0.830321 0.830144
213 1 0.754097 0.74509 0.745736
214 1 0.746215 0.917875 0.916312
215 1 0.917824 0.755031 0.920284
216 1 0.927631 0.920035 0.749772
ITEM: TIMESTEP
4200
ITEM: NUMBER OF ATOMS
216
ITEM: BOX BOUNDS pp pp pp
-7.7412741159784915e-02 1.6370412741159726e+01
-7.7412741159784915e-02 1.6370412741159726e+01
-7.7412741159784915e-02 1.6370412741159726e+01
ITEM: ATOMS id type xs ys zs
1 1 0.00348906 -0.00488883 0.00563075
2 1 0.000866121 0.165485 0.165008
3 1 0.173396 0.00214286 0.169618
4 1 0.169371 0.178594 0.000322333
5 1 0.088651 0.084042 0.081912
9 1 0.326543 -0.00506339 -0.00101291
10 1 0.329995 0.169767 0.165925
13 1 0.409094 0.0839938 0.0818143
11 1 0.488932 0.00402037 0.171202
12 1 0.491287 0.158748 -0.00852759
17 1 0.660689 0.00174364 -0.000437464
18 1 0.652601 0.168775 0.167594
19 1 0.824661 0.00682119 0.170567
20 1 0.836045 0.162315 0.00117534
21 1 0.740583 0.0885873 0.0837552
25 1 -0.00369955 0.33184 -0.00327011
27 1 0.165624 0.334916 0.167924
29 1 0.0806709 0.412978 0.0796542
8 1 0.251317 0.253281 0.0842004
33 1 0.330752 0.340434 -0.00176344
37 1 0.418416 0.413145 0.0866555
16 1 0.568445 0.248764 0.0786248
35 1 0.496148 0.330677 0.174064
41 1 0.661067 0.330847 0.00147874
24 1 0.917185 0.247188 0.0805375
43 1 0.835843 0.325986 0.164407
45 1 0.751117 0.410035 0.0835781
26 1 -0.00318643 0.500312 0.161605
28 1 0.164931 0.498097 -0.00226442
49 1 0.00749698 0.659126 -0.00432107
51 1 0.16957 0.664408 0.170243
32 1 0.246229 0.580103 0.0832838
34 1 0.337459 0.501553 0.167024
57 1 0.332375 0.66017 0.00299516
36 1 0.500927 0.500226 0.00609682
40 1 0.588189 0.585479 0.0771472
42 1 0.666679 0.496349 0.165721
59 1 0.509351 0.661752 0.166987
65 1 0.677951 0.675702 -0.00215967
44 1 0.829768 0.500377 0.00145928
48 1 0.91492 0.586393 0.0806265
67 1 0.832498 0.664323 0.170345
50 1 0.000882001 0.829103 0.159218
52 1 0.167682 0.831459 0.00220194
53 1 0.0882615 0.744402 0.0813312
56 1 0.252095 0.911593 0.0914881
58 1 0.339817 0.830428 0.170632
61 1 0.415077 0.741131 0.0868503
60 1 0.502106 0.826523 0.00727883
64 1 0.580436 0.926475 0.0868116
66 1 0.672087 0.838219 0.158201
68 1 0.841901 0.835189 -0.00183051
69 1 0.760431 0.7549 0.0840236
72 1 0.917283 0.921892 0.0881714
73 1 -0.00248912 -0.00691447 0.322312
76 1 0.167801 0.159503 0.333594
77 1 0.0793208 0.0732441 0.409723
7 1 0.256935 0.0798777 0.254491
81 1 0.334863 -0.0104252 0.338659
85 1 0.418011 0.0801731 0.423342
15 1 0.578601 0.0810397 0.2523
84 1 0.498019 0.165341 0.335413
89 1 0.668786 -0.000447901 0.335578
23 1 0.916666 0.0889405 0.2482
92 1 0.83591 0.173553 0.334034
93 1 0.755678 0.0809985 0.412956
6 1 0.0890888 0.245673 0.250257
97 1 0.00584532 0.332705 0.330926
101 1 0.0865463 0.418647 0.416427
14 1 0.413003 0.249047 0.255463
31 1 0.251893 0.422361 0.249143
80 1 0.244753 0.251783 0.411359
105 1 0.333096 0.336693 0.339648
109 1 0.422839 0.426351 0.415507
39 1 0.585353 0.414331 0.245955
88 1 0.580481 0.246313 0.420088
113 1 0.664379 0.320803 0.330339
22 1 0.747882 0.244671 0.245886
47 1 0.917446 0.418491 0.247219
96 1 0.921483 0.254084 0.414341
117 1 0.747807 0.412936 0.410731
30 1 0.0807549 0.580138 0.24886
100 1 0.170254 0.505217 0.334864
121 1 0.00305832 0.665063 0.33283
38 1 0.418362 0.580644 0.250217
104 1 0.250078 0.585293 0.420822
129 1 0.330977 0.662624 0.33923
108 1 0.506784 0.505322 0.333894
112 1 0.585501 0.588735 0.416382
137 1 0.668361 0.661322 0.329889
46 1 0.750228 0.574597 0.249646
116 1 0.834058 0.496524 0.330128
120 1 0.919703 0.580858 0.411835
54 1 0.0876369 0.91462 0.241828
124 1 0.169215 0.829699 0.335403
125 1 0.0827696 0.749992 0.417908
55 1 0.255874 0.748447 0.254531
62 1 0.421139 0.906037 0.254094
128 1 0.255407 0.915269 0.420284
133 1 0.41592 0.746695 0.422663
63 1 0.58796 0.751571 0.246856
132 1 0.500312 0.824804 0.339677
136 1 0.590927 0.914175 0.417069
70 1 0.74819 0.915172 0.249297
71 1 0.92014 0.753325 0.251066
140 1 0.837876 0.836113 0.326879
141 1 0.759459 0.751774 0.413873
144 1 0.918071 0.919326 0.40855
74 1 0.00454426 0.164111 0.499461
75 1 0.163932 -0.00358683 0.499287
145 1 -0.00400426 0.00365162 0.667275
148 1 0.162934 0.15983 0.668229
79 1 0.250246 0.078693 0.578501
82 1 0.326503 0.175281 0.499572
153 1 0.334631 0.00214989 0.664552
83 1 0.507304 0.00122122 0.505333
87 1 0.590556 0.0863209 0.584307
90 1 0.670427 0.168948 0.495933
156 1 0.500989 0.167502 0.670553
161 1 0.668464 0.00493618 0.670417
91 1 0.834684 -0.00145911 0.494337
95 1 0.917435 0.0857919 0.576619
164 1 0.833939 0.167254 0.656884
78 1 0.0846493 0.248223 0.585011
99 1 0.162974 0.331255 0.495119
169 1 -0.00568165 0.335634 0.659387
86 1 0.415942 0.253245 0.586923
103 1 0.249351 0.418573 0.582958
177 1 0.32394 0.336024 0.669672
107 1 0.493646 0.331673 0.500393
111 1 0.58353 0.414238 0.581392
185 1 0.66953 0.331563 0.662678
94 1 0.755051 0.254068 0.575938
115 1 0.829844 0.332222 0.491645
119 1 0.91393 0.41924 0.580022
98 1 0.00703834 0.503654 0.49886
102 1 0.0796476 0.589269 0.589136
123 1 0.163207 0.670965 0.503255
172 1 0.161758 0.497563 0.672374
193 1 -0.00529794 0.674508 0.674833
106 1 0.337267 0.50244 0.505021
110 1 0.427053 0.580869 0.592764
201 1 0.333598 0.664944 0.671276
114 1 0.670239 0.505304 0.490681
131 1 0.499663 0.663828 0.502684
180 1 0.507569 0.496049 0.671802
209 1 0.663036 0.668044 0.669782
118 1 0.748931 0.582041 0.586446
139 1 0.837514 0.666684 0.494179
188 1 0.827868 0.494194 0.662233
122 1 0.000106003 0.838977 0.495215
126 1 0.0807967 0.91489 0.585967
196 1 0.168441 0.836905 0.672972
127 1 0.250972 0.750153 0.592127
130 1 0.337201 0.832536 0.502628
134 1 0.417924 0.924031 0.583985
135 1 0.58549 0.742386 0.581753
138 1 0.673744 0.829299 0.499564
204 1 0.498966 0.836438 0.662424
142 1 0.756887 0.919259 0.5833
143 1 0.9154 0.754736 0.580923
212 1 0.833878 0.833339 0.672153
146 1 0.00274211 0.173773 0.837158
147 1 0.162578 -0.0014829 0.841972
149 1 0.0755616 0.0803128 0.750987
151 1 0.249053 0.0918651 0.91833
154 1 0.325645 0.172225 0.832031
157 1 0.412256 0.0858282 0.750173
155 1 0.491184 -0.00370337 0.835657
159 1 0.578846 0.0826315 0.907025
162 1 0.668698 0.162983 0.833099
163 1 0.831158 0.0035836 0.833598
165 1 0.750979 0.0930678 0.746177
167 1 0.922029 0.0843263 0.91384
150 1 0.0903183 0.253655 0.917334
171 1 0.165735 0.33949 0.828594
173 1 0.076915 0.419089 0.751039
152 1 0.242112 0.250118 0.745874
158 1 0.411872 0.25813 0.909622
175 1 0.246581 0.423877 0.909045
181 1 0.412687 0.421536 0.752868
160 1 0.583498 0.249583 0.752555
179 1 0.497026 0.331123 0.833351
183 1 0.582426 0.420671 0.917301
166 1 0.752734 0.24992 0.918485
168 1 0.918291 0.250789 0.744877
187 1 0.829546 0.323267 0.831478
189 1 0.746582 0.41041 0.744682
191 1 0.906784 0.413212 0.917236
170 1 -0.0127497 0.501786 0.827196
174 1 0.0812309 0.573442 0.906923
195 1 0.164923 0.670275 0.82774
176 1 0.247488 0.583988 0.750042
178 1 0.3332 0.504428 0.834297
182 1 0.417091 0.581815 0.916407
184 1 0.586556 0.58798 0.761309
186 1 0.674059 0.498163 0.833938
203 1 0.497313 0.666245 0.838238
190 1 0.750735 0.582022 0.921127
192 1 0.907667 0.584244 0.741258
211 1 0.830713 0.668949 0.829576
194 1 0.00078818 0.832449 0.838335
197 1 0.0797833 0.760017 0.752731
198 1 0.0828279 0.912567 0.921735
199 1 0.253897 0.749484 0.92042
200 1 0.254152 0.921311 0.757079
202 1 0.332418 0.831755 0.837709
205 1 0.412158 0.756059 0.748346
206 1 0.417307 0.91066 0.91831
207 1 0.586045 0.749936 0.918931
208 1 0.581398 0.918068 0.75007
210 1 0.670982 0.841418 0.834897
213 1 0.742934 0.755821 0.755177
214 1 0.752682 0.922909 0.920642
215 1 0.915562 0.743942 0.917166
216 1 0.91549 0.916095 0.753004
ITEM: TIMESTEP
4300
ITEM: NUMBER OF ATOMS
216
ITEM: BOX BOUNDS pp pp pp
-6.3720976856822986e-02 1.6356720976856771e+01
-6.3720976856822986e-02 1.6356720976856771e+01
-6.3720976856822986e-02 1.6356720976856771e+01
ITEM: ATOMS id type xs ys zs
1 1 0.00148583 0.00734016 -0.00449047
2 1 0.000254433 0.170523 0.160769
3 1 0.169027 -0.00346554 0.165507
4 1 0.165501 0.16447 0.0010317
5 1 0.0870968 0.0856885 0.084231
9 1 0.337583 0.00557786 0.00571221
10 1 0.332351 0.161743 0.169012
13 1 0.421239 0.0829736 0.0919689
11 1 0.50638 -0.00468828 0.171704
12 1 0.499856 0.172465 0.00817862
17 1 0.664412 -0.000592305 -0.00378813
18 1 0.675504 0.164242 0.164994
19 1 0.846015 -0.00770265 0.161878
20 1 0.824474 0.175462 -0.00353741
21 1 0.755185 0.0777467 0.0818904
25 1 0.00356195 0.330981 -0.00160385
27 1 0.167712 0.331708 0.161181
29 1 0.0848967 0.419239 0.0850611
8 1 0.250246 0.243399 0.0830145
33 1 0.329129 0.327858 0.000898863
37 1 0.417712 0.417863 0.0803052
16 1 0.588839 0.245779 0.0880588
35 1 0.497091 0.33322 0.158979
41 1 0.669795 0.330371 -0.00432059
24 1 0.914822 0.247136 0.0772978
43 1 0.834041 0.334326 0.161802
45 1 0.751318 0.418584 0.0796498
26 1 0.00509667 0.494691 0.170373
28 1 0.166462 0.498941 0.00174993
49 1 -0.0100816 0.673999 0.00681007
51 1 0.166597 0.663917 0.165158
32 1 0.251547 0.582735 0.0839011
34 1 0.332831 0.502674 0.164903
57 1 0.33324 0.669971 0.00461911
36 1 0.498935 0.502195 -0.00296518
40 1 0.58473 0.576243 0.0897732
42 1 0.672824 0.502396 0.169559
59 1 0.498818 0.666579 0.170381
65 1 0.665497 0.653425 0.0052535
44 1 0.834321 0.498554 -0.00523225
48 1 0.917468 0.573827 0.0835636
67 1 0.833264 0.668795 0.154914
50 1 0.000267815 0.83511 0.170899
52 1 0.159872 0.83554 5.20497e-05
53 1 0.0787857 0.752617 0.085574
56 1 0.251101 0.911428 0.0850924
58 1 0.331712 0.836395 0.172161
61 1 0.417612 0.756156 0.0911031
60 1 0.497093 0.837191 0.000390698
64 1 0.589966 0.909748 0.0861564
66 1 0.670737 0.827214 0.173509
68 1 0.823092 0.837034 0.00201587
69 1 0.741844 0.743725 0.0788255
72 1 0.921383 0.913058 0.0734846
73 1 0.00646035 0.00337602 0.344109
76 1 0.169714 0.171836 0.330656
77 1 0.0917816 0.0932361 0.416876
7 1 0.247317 0.085991 0.252116
81 1 0.333517 0.00252006 0.331093
85 1 0.415252 0.0831484 0.417865
15 1 0.58368 0.0837989 0.248468
84 1 0.509026 0.168569 0.3291
89 1 0.668407 -0.000230535 0.325956
23 1 0.92616 0.0791308 0.250614
92 1 0.832622 0.159916 0.326158
93 1 0.745268 0.0871478 0.415325
6 1 0.0854925 0.251325 0.250438
97 1 -0.000386574 0.332087 0.330587
101 1 0.0861092 0.412202 0.416209
14 1 0.418764 0.248217 0.246199
31 1 0.245759 0.41626 0.254118
80 1 0.25024 0.246758 0.421784
105 1 0.333884 0.32934 0.335159
109 1 0.412056 0.41174 0.42032
39 1 0.579088 0.417044 0.250325
88 1 0.587022 0.252426 0.416726
113 1 0.6672 0.342805 0.333353
22 1 0.755842 0.252403 0.246899
47 1 0.914416 0.411677 0.246142
96 1 0.910594 0.247906 0.407664
117 1 0.756183 0.420435 0.414498
30 1 0.0884823 0.579409 0.253458
100 1 0.165888 0.497916 0.342076
121 1 0.000709238 0.665542 0.334039
38 1 0.418609 0.582468 0.253863
104 1 0.252117 0.581557 0.41424
129 1 0.343493 0.666109 0.33454
108 1 0.498578 0.495485 0.337126
112 1 0.578696 0.582038 0.416843
137 1 0.671076 0.662329 0.336124
46 1 0.75641 0.585694 0.241933
116 1 0.836111 0.50128 0.328462
120 1 0.915728 0.581403 0.408814
54 1 0.0825643 0.916954 0.259337
124 1 0.166475 0.836389 0.336944
125 1 0.0836824 0.746413 0.418124
55 1 0.252845 0.744865 0.249941
62 1 0.411449 0.920135 0.25078
128 1 0.247396 0.915582 0.42122
133 1 0.423448 0.751429 0.420077
63 1 0.5892 0.748376 0.258014
132 1 0.501617 0.836931 0.331936
136 1 0.579701 0.920061 0.418524
70 1 0.75507 0.915044 0.250241
71 1 0.918031 0.745975 0.247153
140 1 0.83632 0.837486 0.3338
141 1 0.748281 0.754898 0.409998
144 1 0.916768 0.913776 0.420362
74 1 -0.0116879 0.168062 0.495914
75 1 0.165754 0.00225043 0.500027
145 1 -0.00554676 -0.00252481 0.664801
148 1 0.165267 0.176401 0.666554
79 1 0.251152 0.0836376 0.592112
82 1 0.331344 0.16587 0.508332
153 1 0.33514 -0.000106877 0.669948
83 1 0.494815 -0.00761528 0.506635
87 1 0.575815 0.0787017 0.584275
90 1 0.663698 0.163629 0.498529
156 1 0.496387 0.163982 0.664269
161 1 0.665416 0.00292117 0.665192
91 1 0.836312 0.00289492 0.495921
95 1 0.910956 0.0801874 0.585902
164 1 0.825669 0.167031 0.66899
78 1 0.0743728 0.253735 0.574659
99 1 0.170448 0.335398 0.500424
169 1 -0.00231625 0.333558 0.666714
86 1 0.420204 0.248689 0.576668
103 1 0.246788 0.414941 0.584645
177 1 0.334755 0.33088 0.666138
107 1 0.503101 0.333426 0.497398
111 1 0.579819 0.421039 0.582206
185 1 0.66543 0.338709 0.669093
94 1 0.744382 0.247079 0.582238
115 1 0.83567 0.33048 0.501851
119 1 0.912389 0.417869 0.580664
98 1 -0.00361571 0.498311 0.492103
102 1 0.0887502 0.581711 0.575335
123 1 0.172472 0.66486 0.496314
172 1 0.168133 0.508034 0.661551
193 1 0.0100076 0.66235 0.66279
106 1 0.333934 0.499247 0.496809
110 1 0.411101 0.592738 0.574895
201 1 0.335977 0.670247 0.667927
114 1 0.666274 0.498945 0.497424
131 1 0.506987 0.666617 0.500509
180 1 0.490283 0.508844 0.664687
209 1 0.670242 0.667256 0.668885
118 1 0.75098 0.582502 0.580812
139 1 0.836279 0.663492 0.500601
188 1 0.835457 0.50408 0.667163
122 1 0.00356726 0.832786 0.497677
126 1 0.0880708 0.91826 0.58528
196 1 0.164856 0.835165 0.668595
127 1 0.246985 0.756326 0.582539
130 1 0.33781 0.83201 0.504625
134 1 0.414741 0.914427 0.588887
135 1 0.581875 0.750533 0.586285
138 1 0.662394 0.831993 0.500423
204 1 0.49712 0.832585 0.671957
142 1 0.74603 0.919802 0.583899
143 1 0.923345 0.747963 0.584585
212 1 0.832367 0.831257 0.663178
146 1 -0.00417507 0.164929 0.831484
147 1 0.165088 0.00248049 0.831722
149 1 0.0821686 0.0857627 0.752793
151 1 0.245178 0.0788555 0.922293
154 1 0.335868 0.162727 0.836238
157 1 0.416526 0.0847114 0.751238
155 1 0.506921 0.00584067 0.839434
159 1 0.582264 0.0845107 0.926863
162 1 0.655604 0.168891 0.829962
163 1 0.830031 -0.00163665 0.831761
165 1 0.744666 0.0797118 0.751198
167 1 0.910559 0.0837853 0.916663
150 1 0.078865 0.244447 0.915639
171 1 0.159908 0.330368 0.836185
173 1 0.0832634 0.418032 0.743922
152 1 0.248638 0.253649 0.756564
158 1 0.414741 0.245665 0.920801
175 1 0.248013 0.411117 0.918354
181 1 0.411274 0.414608 0.75398
160 1 0.578736 0.250473 0.745536
179 1 0.497858 0.330993 0.832117
183 1 0.580161 0.413223 0.916048
166 1 0.742008 0.247769 0.909351
168 1 0.906941 0.252659 0.753936
187 1 0.825608 0.343666 0.830566
189 1 0.753218 0.429265 0.745176
191 1 0.922267 0.418654 0.907979
170 1 0.0072407 0.501409 0.830224
174 1 0.0808314 0.588495 0.924764
195 1 0.166456 0.665378 0.835967
176 1 0.253574 0.583952 0.750897
178 1 0.331512 0.500591 0.836428
182 1 0.41493 0.583768 0.917851
184 1 0.584731 0.583661 0.740857
186 1 0.663158 0.500455 0.828905
203 1 0.504547 0.662336 0.830908
190 1 0.747887 0.583573 0.914458
192 1 0.924693 0.584428 0.750391
211 1 0.835068 0.66925 0.835183
194 1 0.00627503 0.836557 0.832996
197 1 0.0823755 0.748678 0.749353
198 1 0.0795549 0.916787 0.916868
199 1 0.250171 0.75263 0.916172
200 1 0.246486 0.912556 0.750571
202 1 0.332836 0.836973 0.832263
205 1 0.419535 0.747609 0.759084
206 1 0.413183 0.921882 0.914263
207 1 0.589418 0.751256 0.918408
208 1 0.587411 0.915294 0.758342
210 1 0.670054 0.82791 0.834629
213 1 0.754213 0.750998 0.747614
214 1 0.74509 0.909437 0.91408
215 1 0.913959 0.766408 0.911821
216 1 0.913901 0.916093 0.748927
ITEM: TIMESTEP
4400
ITEM: NUMBER OF ATOMS
216
ITEM: BOX BOUNDS pp pp pp
-6.2545726030684534e-02 1.6355545726030638e+01
-6.2545726030684534e-02 1.6355545726030638e+01
-6.2545726030684534e-02 1.6355545726030638e+01
ITEM: ATOMS id type xs ys zs
1 1 -0.00421198 -0.00943468 -0.00544564
2 1 -0.000756887 0.163896 0.170142
3 1 0.160714 0.00870919 0.170198
4 1 0.160987 0.163246 -0.00151043
5 1 0.0729995 0.081001 0.0752273
9 1 0.332115 -0.00444034 -0.00196009
10 1 0.332925 0.168386 0.165439
13 1 0.419741 0.0860283 0.0779779
11 1 0.49802 0.00109211 0.165253
12 1 0.506433 0.163735 -0.00682975
17 1 0.676534 -0.00244473 -0.00254918
18 1 0.660549 0.166748 0.169888
19 1 0.821584 -0.00241818 0.175801
20 1 0.843892 0.164274 -0.000107359
21 1 0.75015 0.0914237 0.0778117
25 1 0.00339055 0.333515 0.00473576
27 1 0.160533 0.328425 0.164809
29 1 0.0851174 0.420866 0.081708
8 1 0.248133 0.246158 0.0799452
33 1 0.337929 0.332329 0.00370285
37 1 0.416952 0.414232 0.0838971
16 1 0.584105 0.255528 0.0768079
35 1 0.509105 0.329665 0.171364
41 1 0.668666 0.336142 -0.000938923
24 1 0.915308 0.254503 0.0893426
43 1 0.836718 0.338793 0.165877
45 1 0.74885 0.423408 0.0875528
26 1 -0.00260475 0.502483 0.161727
28 1 0.174861 0.50218 0.00447961
49 1 0.0140438 0.663355 -0.00142022
51 1 0.168439 0.671889 0.160244
32 1 0.24713 0.58543 0.0853135
34 1 0.335983 0.501566 0.163783
57 1 0.332155 0.660867 0.00090961
36 1 0.496397 0.497902 0.00192295
40 1 0.583622 0.588131 0.0733668
42 1 0.660933 0.502883 0.158805
59 1 0.494785 0.666234 0.160059
65 1 0.66747 0.672841 -0.00108318
44 1 0.833494 0.507047 0.00248782
48 1 0.918195 0.592295 0.0866812
67 1 0.831877 0.663814 0.176582
50 1 0.00282376 0.833859 0.164462
52 1 0.17007 0.840336 0.000269179
53 1 0.0923918 0.75491 0.0833519
56 1 0.252879 0.921721 0.0813108
58 1 0.337586 0.837093 0.159226
61 1 0.409649 0.75083 0.079386
60 1 0.503209 0.831201 0.00222393
64 1 0.582275 0.919786 0.0851183
66 1 0.668508 0.830635 0.167549
68 1 0.838182 0.823848 0.00213267
69 1 0.751882 0.752845 0.087697
72 1 0.909568 0.912724 0.0884958
73 1 -0.0080618 -0.00152384 0.334819
76 1 0.163171 0.160857 0.341251
77 1 0.0762525 0.0808442 0.419813
7 1 0.248574 0.0919029 0.249461
81 1 0.331611 0.00333301 0.323467
85 1 0.419095 0.0864306 0.416164
15 1 0.590563 0.0814075 0.248629
84 1 0.502887 0.165052 0.334192
89 1 0.665115 0.00350446 0.337059
23 1 0.907464 0.084927 0.254106
92 1 0.833647 0.168454 0.349449
93 1 0.751872 0.0819764 0.422137
6 1 0.0771254 0.243816 0.255358
97 1 -0.00454715 0.338399 0.336758
101 1 0.0867378 0.41757 0.41326
14 1 0.419573 0.246333 0.247014
31 1 0.248747 0.415229 0.245655
80 1 0.242044 0.248698 0.417069
105 1 0.337086 0.333023 0.334814
109 1 0.426565 0.419224 0.414868
39 1 0.588807 0.421068 0.247182
88 1 0.578372 0.247264 0.421611
113 1 0.665149 0.325495 0.338658
22 1 0.754411 0.249173 0.252587
47 1 0.916206 0.422855 0.25266
96 1 0.920078 0.25278 0.430555
117 1 0.747318 0.415867 0.420981
30 1 0.0823939 0.58613 0.2453
100 1 0.159626 0.498325 0.32404
121 1 0.0040176 0.666235 0.334952
38 1 0.417179 0.584167 0.248813
104 1 0.24306 0.576002 0.41158
129 1 0.323384 0.66552 0.329053
108 1 0.501931 0.504446 0.331515
112 1 0.581438 0.589094 0.42218
137 1 0.658146 0.671217 0.329342
46 1 0.743777 0.584721 0.261349
116 1 0.83161 0.50026 0.340436
120 1 0.921371 0.583465 0.421616
54 1 0.0774176 0.92019 0.246564
124 1 0.164368 0.837499 0.333327
125 1 0.0847964 0.75414 0.415741
55 1 0.250094 0.765263 0.243062
62 1 0.420612 0.919114 0.242371
128 1 0.251654 0.922266 0.417262
133 1 0.411567 0.745106 0.415934
63 1 0.57757 0.749577 0.239033
132 1 0.496899 0.835036 0.328656
136 1 0.581968 0.915923 0.418139
70 1 0.746875 0.910476 0.253312
71 1 0.913487 0.750462 0.257801
140 1 0.828869 0.833588 0.337279
141 1 0.746633 0.747242 0.415255
144 1 0.912767 0.918101 0.415637
74 1 0.00508782 0.165141 0.505088
75 1 0.164713 0.0026151 0.50333
145 1 0.00346477 0.000570026 0.663876
148 1 0.172889 0.158364 0.66794
79 1 0.251976 0.0832208 0.574009
82 1 0.334059 0.171748 0.496267
153 1 0.334204 -0.00376958 0.664272
83 1 0.504647 0.00393438 0.498619
87 1 0.586903 0.089396 0.5823
90 1 0.664849 0.166269 0.502157
156 1 0.501156 0.167292 0.668933
161 1 0.661985 -0.00250199 0.66356
91 1 0.836929 -0.00193642 0.506342
95 1 0.916172 0.0876238 0.586244
164 1 0.833397 0.165901 0.664651
78 1 0.0955096 0.254793 0.58894
99 1 0.165199 0.332927 0.498706
169 1 0.00614711 0.338272 0.671263
86 1 0.418041 0.246935 0.588719
103 1 0.247334 0.418929 0.578893
177 1 0.335873 0.33053 0.66225
107 1 0.494992 0.331752 0.497552
111 1 0.585426 0.409851 0.576993
185 1 0.665509 0.327217 0.671937
94 1 0.746323 0.250327 0.583584
115 1 0.834514 0.338861 0.501717
119 1 0.919139 0.418503 0.58795
98 1 0.00367104 0.500744 0.50565
102 1 0.0832387 0.583829 0.593821
123 1 0.160679 0.658107 0.502518
172 1 0.166291 0.493149 0.669191
193 1 0.000290376 0.667352 0.66326
106 1 0.330418 0.498886 0.498032
110 1 0.420023 0.579129 0.581212
201 1 0.330338 0.661376 0.665001
114 1 0.66552 0.501726 0.500575
131 1 0.491243 0.665274 0.49937
180 1 0.506334 0.496893 0.669678
209 1 0.664422 0.668305 0.662856
118 1 0.748407 0.579513 0.590785
139 1 0.834038 0.666788 0.499573
188 1 0.832225 0.49415 0.668785
122 1 -0.00142857 0.837247 0.500762
126 1 0.0822589 0.914852 0.584315
196 1 0.16738 0.830879 0.665517
127 1 0.247357 0.74538 0.577999
130 1 0.329755 0.839963 0.502071
134 1 0.417796 0.922589 0.574895
135 1 0.577021 0.74623 0.576564
138 1 0.664729 0.835814 0.501949
204 1 0.492264 0.831856 0.655972
142 1 0.751172 0.914182 0.585822
143 1 0.920356 0.754114 0.584995
212 1 0.830006 0.832173 0.672697
146 1 0.00414987 0.168509 0.833381
147 1 0.166629 -0.00792737 0.833562
149 1 0.0867162 0.0825156 0.750972
151 1 0.251684 0.0854731 0.91327
154 1 0.339212 0.169407 0.833939
157 1 0.42084 0.0801247 0.748617
155 1 0.495828 -0.00365802 0.834126
159 1 0.591442 0.0846099 0.914273
162 1 0.67664 0.168113 0.840642
163 1 0.831247 -0.00543064 0.83021
165 1 0.750287 0.0847709 0.745348
167 1 0.921461 0.0834312 0.915034
150 1 0.0878683 0.248944 0.916321
171 1 0.170409 0.333822 0.837898
173 1 0.0887766 0.415718 0.759703
152 1 0.256941 0.249154 0.752866
158 1 0.422935 0.252595 0.920257
175 1 0.257025 0.41991 0.919429
181 1 0.420279 0.415799 0.749478
160 1 0.581188 0.248212 0.757774
179 1 0.502765 0.338479 0.836238
183 1 0.580914 0.422488 0.914629
166 1 0.759292 0.25238 0.921984
168 1 0.923146 0.246779 0.746709
187 1 0.835235 0.335493 0.835108
189 1 0.751981 0.411031 0.755716
191 1 0.915343 0.418872 0.919893
170 1 0.000612056 0.497012 0.83682
174 1 0.0938768 0.578309 0.910885
195 1 0.167108 0.673796 0.82881
176 1 0.245431 0.577977 0.75047
178 1 0.331659 0.497167 0.830189
182 1 0.410173 0.576824 0.918032
184 1 0.582397 0.585242 0.750104
186 1 0.664835 0.501209 0.829928
203 1 0.489559 0.666226 0.828551
190 1 0.745003 0.584115 0.91718
192 1 0.914556 0.573507 0.746234
211 1 0.82842 0.660089 0.82582
194 1 -0.00387847 0.832928 0.827453
197 1 0.0826847 0.75285 0.745783
198 1 0.0816951 0.914723 0.911188
199 1 0.248877 0.752624 0.91991
200 1 0.250393 0.916825 0.745359
202 1 0.333252 0.832338 0.831698
205 1 0.407304 0.752067 0.743643
206 1 0.417188 0.91162 0.922829
207 1 0.58252 0.746397 0.907311
208 1 0.582773 0.914407 0.744776
210 1 0.667452 0.834147 0.830993
213 1 0.740982 0.748702 0.751488
214 1 0.752273 0.910808 0.917583
215 1 0.928407 0.74047 0.916522
216 1 0.920313 0.915147 0.750762
ITEM: TIMESTEP
4500
ITEM: NUMBER OF ATOMS
216
ITEM: BOX BOUNDS pp pp pp
-8.0998440671942618e-02 1.6373998440671908e+01
-8.0998440671942618e-02 1.6373998440671908e+01
-8.0998440671942618e-02 1.6373998440671908e+01
ITEM: ATOMS id type xs ys zs
1 1 0.00936823 0.00887253 0.00931609
2 1 -0.00234261 0.170952 0.16488
3 1 0.171858 -0.00432283 0.162625
4 1 0.172976 0.173958 0.00618248
5 1 0.0897987 0.0894869 0.092304
9 1 0.335858 -0.00147357 -0.00408811
10 1 0.331895 0.163251 0.168202
13 1 0.414486 0.0811541 0.0837038
11 1 0.499157 0.00552641 0.167222
12 1 0.502986 0.171054 0.00218518
17 1 0.661572 0.00255199 0.0022969
18 1 0.665638 0.167681 0.166394
19 1 0.836571 0.00265559 0.165288
20 1 0.830516 0.165114 0.00146438
21 1 0.750893 0.0785059 0.0894198
25 1 -0.0047347 0.329647 0.00278235
27 1 0.169367 0.339102 0.166697
29 1 0.0791301 0.41706 0.0858099
8 1 0.257886 0.25528 0.0870407
33 1 0.33569 0.335922 -0.00875161
37 1 0.417628 0.420072 0.0789471
16 1 0.582331 0.245709 0.0881096
35 1 0.49719 0.339405 0.160164
41 1 0.666255 0.334318 0.00831091
24 1 0.91047 0.246236 0.0846224
43 1 0.838049 0.336095 0.173818
45 1 0.753309 0.405955 0.0900957
26 1 -0.000890411 0.499993 0.177768
28 1 0.161495 0.497579 0.0012907
49 1 -0.00580545 0.664622 0.00550381
51 1 0.16143 0.656868 0.166739
32 1 0.247937 0.584799 0.0740693
34 1 0.326043 0.504156 0.158849
57 1 0.333999 0.669354 -0.00196686
36 1 0.508398 0.502543 0.000694792
40 1 0.580609 0.582284 0.0925142
42 1 0.667885 0.497019 0.172475
59 1 0.505113 0.672869 0.169978
65 1 0.664492 0.668811 0.00195438
44 1 0.83438 0.491212 0.0075321
48 1 0.918112 0.577312 0.0864308
67 1 0.831828 0.674164 0.157645
50 1 -0.00257085 0.831161 0.162419
52 1 0.160115 0.823546 -0.0012988
53 1 0.0774549 0.743445 0.0834693
56 1 0.251742 0.904319 0.077644
58 1 0.331236 0.833762 0.166635
61 1 0.413552 0.75285 0.0846177
60 1 0.490323 0.833137 -0.00877622
64 1 0.578054 0.919329 0.0824424
66 1 0.662963 0.836869 0.161289
68 1 0.823116 0.84872 -0.00224908
69 1 0.746399 0.754896 0.0789526
72 1 0.922941 0.924188 0.080505
73 1 0.00342345 0.000849821 0.333616
76 1 0.171961 0.167311 0.323378
77 1 0.089457 0.0843488 0.407761
7 1 0.248796 0.0799622 0.248403
81 1 0.331469 -0.00487926 0.33303
85 1 0.418155 0.080945 0.417227
15 1 0.572237 0.0834797 0.250762
84 1 0.498841 0.176759 0.332259
89 1 0.667188 0.00103589 0.330417
23 1 0.92232 0.0862134 0.252528
92 1 0.830935 0.170235 0.327556
93 1 0.746305 0.083376 0.417255
6 1 0.0891364 0.255256 0.249914
97 1 0.0024222 0.332411 0.336087
101 1 0.0858354 0.416162 0.424421
14 1 0.413701 0.252389 0.246455
31 1 0.247768 0.429575 0.252833
80 1 0.249053 0.247906 0.41549
105 1 0.329459 0.332383 0.334347
109 1 0.413934 0.414401 0.421108
39 1 0.576068 0.417732 0.251419
88 1 0.586231 0.251703 0.421371
113 1 0.666182 0.342326 0.336813
22 1 0.746443 0.255534 0.24955
47 1 0.918183 0.418979 0.251281
96 1 0.915991 0.246518 0.409266
117 1 0.752749 0.420559 0.420227
30 1 0.0803471 0.581622 0.255091
100 1 0.17013 0.508854 0.344054
121 1 -0.00771369 0.667117 0.331931
38 1 0.416361 0.579464 0.241796
104 1 0.25258 0.590702 0.422945
129 1 0.333426 0.667583 0.329055
108 1 0.490196 0.497469 0.332798
112 1 0.580296 0.576945 0.410307
137 1 0.666653 0.663544 0.33748
46 1 0.752861 0.584133 0.244787
116 1 0.832195 0.498998 0.330593
120 1 0.910841 0.582267 0.415326
54 1 0.0809005 0.915606 0.25121
124 1 0.160458 0.825762 0.325245
125 1 0.0737134 0.749921 0.417495
55 1 0.242338 0.741825 0.242416
62 1 0.412074 0.914584 0.240593
128 1 0.240749 0.91363 0.410599
133 1 0.420381 0.752498 0.418268
63 1 0.590049 0.752011 0.254522
132 1 0.500239 0.835337 0.329614
136 1 0.583902 0.921465 0.413703
70 1 0.745742 0.916079 0.247359
71 1 0.913044 0.757325 0.245616
140 1 0.830466 0.835974 0.331448
141 1 0.749403 0.75644 0.418192
144 1 0.917026 0.915436 0.418746
74 1 0.000127702 0.161165 0.494772
75 1 0.161422 0.00288797 0.497469
145 1 0.00324894 -0.00261426 0.669996
148 1 0.163977 0.165176 0.662788
79 1 0.25118 0.0809478 0.582497
82 1 0.334314 0.169691 0.50074
153 1 0.333515 -0.000192001 0.66163
83 1 0.49816 -0.00226474 0.503694
87 1 0.582888 0.0785118 0.582352
90 1 0.667572 0.169487 0.502052
156 1 0.50495 0.166836 0.657947
161 1 0.674396 0.00470323 0.665906
91 1 0.826742 0.000306844 0.497098
95 1 0.919655 0.0773565 0.581772
164 1 0.847594 0.16406 0.672821
78 1 0.0795242 0.245024 0.577043
99 1 0.170616 0.332293 0.497387
169 1 0.000204194 0.332198 0.668192
86 1 0.422261 0.252452 0.578664
103 1 0.249303 0.41339 0.586673
177 1 0.337769 0.336903 0.667865
107 1 0.500858 0.330384 0.498594
111 1 0.577763 0.417964 0.583573
185 1 0.677301 0.339519 0.665701
94 1 0.765521 0.244449 0.586848
115 1 0.832424 0.330442 0.498164
119 1 0.913592 0.417189 0.589028
98 1 -0.00101063 0.499626 0.504475
102 1 0.0801617 0.584272 0.578403
123 1 0.162529 0.675288 0.495652
172 1 0.160981 0.501359 0.66273
193 1 0.000228525 0.664179 0.67265
106 1 0.331605 0.495983 0.498097
110 1 0.415769 0.586839 0.578025
201 1 0.335384 0.671092 0.664502
114 1 0.665676 0.501534 0.500461
131 1 0.508345 0.666492 0.497422
180 1 0.492917 0.49961 0.66369
209 1 0.663276 0.662744 0.670625
118 1 0.745748 0.579107 0.586437
139 1 0.824203 0.666762 0.502532
188 1 0.832718 0.50204 0.66645
122 1 -0.0056358 0.831262 0.501729
126 1 0.082591 0.913524 0.578108
196 1 0.164395 0.833839 0.666519
127 1 0.250029 0.75502 0.585962
130 1 0.333373 0.831687 0.491984
134 1 0.411811 0.910219 0.585066
135 1 0.584385 0.741954 0.586123
138 1 0.664205 0.83057 0.500308
204 1 0.50503 0.833722 0.666475
142 1 0.748585 0.918889 0.578137
143 1 0.911303 0.742992 0.584356
212 1 0.833972 0.832967 0.666248
146 1 0.00396133 0.162485 0.845314
147 1 0.168922 0.000911395 0.83297
149 1 0.0800797 0.0795779 0.752178
151 1 0.247675 0.0834283 0.92127
154 1 0.33304 0.165676 0.833796
157 1 0.413848 0.0892572 0.741655
155 1 0.502823 0.00227014 0.828636
159 1 0.579914 0.0843862 0.914661
162 1 0.668049 0.164819 0.831619
163 1 0.845265 0.000203237 0.844169
165 1 0.756732 0.0822045 0.75493
167 1 0.922177 0.0864518 0.927787
150 1 0.0852165 0.248605 0.920524
171 1 0.165242 0.334671 0.828451
173 1 0.0852124 0.421013 0.745212
152 1 0.245719 0.247673 0.742452
158 1 0.419631 0.249416 0.911878
175 1 0.244073 0.419651 0.914549
181 1 0.420088 0.414396 0.756747
160 1 0.58705 0.246064 0.746173
179 1 0.50338 0.326075 0.833838
183 1 0.588341 0.412756 0.919811
166 1 0.748303 0.245508 0.920807
168 1 0.920463 0.248858 0.761425
187 1 0.835289 0.326158 0.840664
189 1 0.755677 0.421806 0.752222
191 1 0.917792 0.412017 0.92068
170 1 0.00125826 0.497022 0.830446
174 1 0.0755262 0.579355 0.923282
195 1 0.164296 0.655084 0.833429
176 1 0.252922 0.579014 0.746455
178 1 0.340175 0.499539 0.837532
182 1 0.429863 0.588865 0.914604
184 1 0.589073 0.578403 0.756556
186 1 0.67152 0.492813 0.83938
203 1 0.511663 0.66803 0.83332
190 1 0.750097 0.579249 0.921996
192 1 0.917105 0.587158 0.749582
211 1 0.832073 0.67517 0.835359
194 1 0.00880314 0.833703 0.83866
197 1 0.0832547 0.746916 0.752845
198 1 0.0867904 0.920568 0.92047
199 1 0.251218 0.747178 0.911577
200 1 0.252101 0.916806 0.749148
202 1 0.335516 0.83321 0.82593
205 1 0.425904 0.7498 0.744437
206 1 0.411149 0.919956 0.903803
207 1 0.584988 0.751944 0.920358
208 1 0.588365 0.911108 0.750581
210 1 0.674381 0.831179 0.834261
213 1 0.746935 0.751102 0.74436
214 1 0.74594 0.923554 0.911274
215 1 0.90843 0.759834 0.92325
216 1 0.92019 0.909628 0.750132
ITEM: TIMESTEP
4600
ITEM: NUMBER OF ATOMS
216
ITEM: BOX BOUNDS pp pp pp
-5.2638707351302827e-02 1.6345638707351277e+01
-5.2638707351302827e-02 1.6345638707351277e+01
-5.2638707351302827e-02 1.6345638707351277e+01
ITEM: ATOMS id type xs ys zs
1 1 -0.00701086 -0.000447055 -0.00999369
2 1 0.00974959 0.163342 0.165449
3 1 0.170403 0.00280533 0.169053
4 1 0.168863 0.159536 -0.00547114
5 1 0.0849383 0.0779099 0.0744939
9 1 0.333492 0.00246932 4.06392e-05
10 1 0.334317 0.169001 0.167449
13 1 0.414781 0.0823639 0.0886628
11 1 0.495009 -0.00813562 0.169239
12 1 0.487136 0.16893 -0.00211969
17 1 0.667656 0.00181044 -0.00220052
18 1 0.662897 0.166208 0.1632
19 1 0.833625 0.00307775 0.161583
20 1 0.84037 0.166057 0.00220372
21 1 0.745545 0.0923595 0.0770477
25 1 0.00339009 0.332668 -0.000681908
27 1 0.167873 0.332829 0.167371
29 1 0.0863289 0.425719 0.0822784
8 1 0.247635 0.248034 0.0812476
33 1 0.330065 0.332277 0.00109758
37 1 0.416876 0.420217 0.0944458
16 1 0.575661 0.252464 0.0822209
35 1 0.496329 0.325605 0.171045
41 1 0.662532 0.329561 -0.00541329
24 1 0.924158 0.251413 0.0838314
43 1 0.827728 0.3298 0.161802
45 1 0.747374 0.416802 0.0776569
26 1 -0.00476568 0.499022 0.161498
28 1 0.170805 0.508223 -0.0100999
49 1 0.00108072 0.66636 -0.000286657
51 1 0.164928 0.673215 0.16587
32 1 0.248442 0.580559 0.0920579
34 1 0.336042 0.500376 0.173807
57 1 0.331672 0.660238 0.0030411
36 1 0.494196 0.494209 -0.00433317
40 1 0.584962 0.584024 0.0744902
42 1 0.667223 0.498321 0.162255
59 1 0.495461 0.660984 0.16101
65 1 0.665718 0.670503 -0.00025082
44 1 0.829611 0.49897 -0.000907825
48 1 0.917854 0.583222 0.0808634
67 1 0.835719 0.661647 0.170229
50 1 0.000570042 0.828131 0.172086
52 1 0.169678 0.835671 0.00175016
53 1 0.081008 0.750738 0.0816231
56 1 0.254418 0.920063 0.0906165
58 1 0.334094 0.828068 0.171069
61 1 0.417729 0.746281 0.0822862
60 1 0.508849 0.831937 0.00158614
64 1 0.589888 0.919567 0.0881238
66 1 0.669678 0.83414 0.173419
68 1 0.836095 0.826179 0.00508744
69 1 0.751601 0.749415 0.0881614
72 1 0.916408 0.912592 0.0811035
73 1 0.0021147 -0.000120018 0.331238
76 1 0.168961 0.165375 0.343342
77 1 0.0851893 0.078595 0.417802
7 1 0.251753 0.0917704 0.252111
81 1 0.333324 -0.000792868 0.329586
85 1 0.412836 0.0840943 0.418039
15 1 0.579152 0.0780327 0.251383
84 1 0.501212 0.159492 0.334535
89 1 0.666438 0.000553163 0.33399
23 1 0.921531 0.0809945 0.240931
92 1 0.842456 0.158697 0.331989
93 1 0.753498 0.0811232 0.416266
6 1 0.089837 0.243339 0.255387
97 1 -0.00340047 0.333814 0.325848
101 1 0.0822455 0.418338 0.414022
14 1 0.417802 0.250364 0.255506
31 1 0.254614 0.408585 0.247517
80 1 0.249046 0.253009 0.416612
105 1 0.336624 0.339001 0.340683
109 1 0.422092 0.42227 0.417386
39 1 0.581115 0.414067 0.253145
88 1 0.575903 0.253342 0.415067
113 1 0.662736 0.328189 0.332353
22 1 0.753626 0.245858 0.246014
47 1 0.907749 0.412415 0.245124
96 1 0.91611 0.253815 0.421492
117 1 0.747205 0.410889 0.410957
30 1 0.0838336 0.582776 0.241581
100 1 0.163207 0.497284 0.324755
121 1 0.00990871 0.668626 0.331156
38 1 0.420985 0.585 0.257829
104 1 0.246463 0.575003 0.41714
129 1 0.331104 0.666936 0.342944
108 1 0.514001 0.50228 0.337701
112 1 0.583586 0.588422 0.421471
137 1 0.663164 0.671349 0.336368
46 1 0.74775 0.578104 0.25529
116 1 0.834466 0.490324 0.333581
120 1 0.917254 0.583863 0.416972
54 1 0.0892614 0.912412 0.251802
124 1 0.174376 0.83464 0.343368
125 1 0.0920104 0.749884 0.418382
55 1 0.254553 0.752773 0.252976
62 1 0.416014 0.91343 0.255061
128 1 0.259954 0.912153 0.424941
133 1 0.415922 0.748718 0.422834
63 1 0.579063 0.750679 0.242979
132 1 0.496069 0.82582 0.336178
136 1 0.587594 0.912898 0.41916
70 1 0.750097 0.920492 0.252793
71 1 0.920699 0.743008 0.250717
140 1 0.835373 0.83037 0.329974
141 1 0.752749 0.746498 0.414237
144 1 0.916621 0.915359 0.410404
74 1 -0.000657523 0.167263 0.500508
75 1 0.169295 -0.0079728 0.498867
145 1 -0.00167415 0.00386308 0.662476
148 1 0.166967 0.166365 0.667662
79 1 0.246071 0.0814083 0.59161
82 1 0.325614 0.16441 0.505657
153 1 0.331006 0.000611169 0.667545
83 1 0.503588 0.00292627 0.505794
87 1 0.583018 0.0898277 0.585032
90 1 0.662289 0.161938 0.495194
156 1 0.496978 0.162167 0.668603
161 1 0.66039 -0.00127271 0.658297
91 1 0.841871 -0.00249845 0.499892
95 1 0.912446 0.0845756 0.584652
164 1 0.82088 0.171388 0.659687
78 1 0.0860797 0.252791 0.584419
99 1 0.16733 0.335495 0.503624
169 1 -0.00353752 0.332994 0.667514
86 1 0.415164 0.249076 0.582311
103 1 0.248532 0.421481 0.585634
177 1 0.329254 0.331601 0.664438
107 1 0.496024 0.336301 0.504426
111 1 0.585941 0.414919 0.577464
185 1 0.659597 0.328174 0.668158
94 1 0.741423 0.251031 0.571884
115 1 0.83316 0.336298 0.500353
119 1 0.915651 0.41905 0.575755
98 1 0.00265025 0.501998 0.498406
102 1 0.0869636 0.581506 0.59031
123 1 0.171038 0.660496 0.50316
172 1 0.166535 0.499077 0.671723
193 1 -0.00373541 0.667008 0.66494
106 1 0.338382 0.505593 0.50299
110 1 0.417545 0.58306 0.587987
201 1 0.337176 0.666805 0.66957
114 1 0.673006 0.501837 0.49655
131 1 0.503348 0.669745 0.50676
180 1 0.506906 0.501524 0.67275
209 1 0.676914 0.675908 0.663614
118 1 0.761221 0.58783 0.582026
139 1 0.836111 0.672877 0.503199
188 1 0.832149 0.499474 0.665417
122 1 0.00699369 0.834289 0.492137
126 1 0.0838396 0.919404 0.584435
196 1 0.168676 0.833563 0.666271
127 1 0.254569 0.744687 0.581528
130 1 0.340278 0.83035 0.513976
134 1 0.422739 0.921008 0.587118
135 1 0.587027 0.760726 0.589268
138 1 0.675078 0.830945 0.501853
204 1 0.496008 0.831138 0.668684
142 1 0.758869 0.913514 0.587236
143 1 0.923388 0.758635 0.58452
212 1 0.831986 0.829507 0.66836
146 1 -0.00745188 0.166359 0.819441
147 1 0.165722 0.00162253 0.829649
149 1 0.0871606 0.0891287 0.750779
151 1 0.252824 0.0792824 0.909571
154 1 0.33381 0.168771 0.831253
157 1 0.416295 0.0776939 0.750215
155 1 0.494949 -0.00547359 0.841298
159 1 0.582787 0.0840873 0.918158
162 1 0.662014 0.167871 0.831302
163 1 0.822693 0.0066436 0.834272
165 1 0.743299 0.0877357 0.744587
167 1 0.914981 0.0850474 0.909633
150 1 0.0777048 0.252185 0.911972
171 1 0.162252 0.334792 0.834132
173 1 0.0803239 0.414407 0.748931
152 1 0.250348 0.255268 0.752798
158 1 0.412614 0.254916 0.912976
175 1 0.250395 0.416453 0.915165
181 1 0.412111 0.412984 0.739485
160 1 0.573009 0.25032 0.757196
179 1 0.49108 0.342054 0.832139
183 1 0.581186 0.417907 0.912088
166 1 0.750825 0.248166 0.914695
168 1 0.908384 0.246931 0.740623
187 1 0.834638 0.336074 0.825464
189 1 0.74796 0.421743 0.75031
191 1 0.91602 0.4168 0.915456
170 1 0.000669341 0.501829 0.832111
174 1 0.0825748 0.588429 0.915476
195 1 0.161995 0.677376 0.834703
176 1 0.247519 0.589887 0.747105
178 1 0.330505 0.496672 0.82369
182 1 0.409166 0.577164 0.9147
184 1 0.588814 0.594946 0.749389
186 1 0.662028 0.502712 0.828368
203 1 0.495333 0.667314 0.836932
190 1 0.74638 0.58131 0.911257
192 1 0.916218 0.580177 0.746944
211 1 0.835234 0.662906 0.83161
194 1 -0.00446112 0.834349 0.829647
197 1 0.0788343 0.752795 0.744488
198 1 0.0812739 0.915245 0.917822
199 1 0.253066 0.752937 0.917829
200 1 0.252479 0.916731 0.751377
202 1 0.335991 0.837531 0.839209
205 1 0.416126 0.751842 0.759619
206 1 0.418783 0.913386 0.924212
207 1 0.583942 0.750699 0.908073
208 1 0.578451 0.918038 0.752605
210 1 0.661192 0.837242 0.838602
213 1 0.751626 0.754398 0.758282
214 1 0.75299 0.909695 0.923801
215 1 0.921883 0.748193 0.914896
216 1 0.910561 0.928172 0.748807
ITEM: TIMESTEP
4700
ITEM: NUMBER OF ATOMS
216
ITEM: BOX BOUNDS pp pp pp
-8.4433290314080978e-02 1.6377433290314077e+01
-8.4433290314080978e-02 1.6377433290314077e+01
-8.4433290314080978e-02 1.6377433290314077e+01
ITEM: ATOMS id type xs ys zs
1 1 -0.00407928 0.000910401 -0.000696176
2 1 -0.0156974 0.166815 0.164275
3 1 0.162956 0.00343276 0.169719
4 1 0.15892 0.166613 0.0039787
5 1 0.0716108 0.0811346 0.088962
9 1 0.333925 0.000486987 0.00243226
10 1 0.329203 0.162941 0.16564
13 1 0.417101 0.0832067 0.0843956
11 1 0.505178 0.00474568 0.17096
12 1 0.504686 0.166316 0.00603394
17 1 0.67293 -0.00619121 0.0048438
18 1 0.672213 0.164046 0.167867
19 1 0.834689 -0.00794266 0.173917
20 1 0.824378 0.161732 -0.0076496
21 1 0.755364 0.0746501 0.0818221
25 1 -0.00673879 0.334936 -0.00668881
27 1 0.165856 0.32852 0.169163
29 1 0.0801615 0.405739 0.0791168
8 1 0.246649 0.243225 0.0868781
33 1 0.33256 0.325783 0.00264781
37 1 0.414893 0.408489 0.0760974
16 1 0.589334 0.252579 0.0838755
35 1 0.503919 0.334486 0.168813
41 1 0.663235 0.34542 0.00146814
24 1 0.905799 0.25072 0.0765985
43 1 0.841899 0.34024 0.161527
45 1 0.755856 0.416291 0.0828753
26 1 0.00270472 0.498815 0.164878
28 1 0.165653 0.497488 0.008315
49 1 0.00523086 0.668814 -0.00213945
51 1 0.17726 0.665403 0.167119
32 1 0.252477 0.582033 0.0802455
34 1 0.332581 0.492373 0.165374
57 1 0.336917 0.673257 0.00508808
36 1 0.498277 0.504828 0.00291338
40 1 0.578688 0.58212 0.0907329
42 1 0.664613 0.493621 0.16347
59 1 0.5048 0.668808 0.179309
65 1 0.666082 0.659542 -0.00212236
44 1 0.837747 0.508552 -0.00130241
48 1 0.9245 0.588121 0.0787086
67 1 0.844587 0.669918 0.161983
50 1 0.00308354 0.832632 0.162668
52 1 0.165553 0.834537 0.00461388
53 1 0.087798 0.745321 0.0868612
56 1 0.248509 0.919498 0.0818616
58 1 0.338216 0.840399 0.171192
61 1 0.416304 0.749945 0.0946468
60 1 0.497399 0.834297 -0.000866324
64 1 0.580733 0.912052 0.0866284
66 1 0.67027 0.823244 0.163606
68 1 0.834964 0.832631 -0.00365688
69 1 0.753449 0.749555 0.0772512
72 1 0.916437 0.91235 0.0828766
73 1 -0.00364008 0.00365431 0.337377
76 1 0.160356 0.166912 0.325854
77 1 0.0852483 0.0946056 0.416306
7 1 0.246846 0.0798578 0.25552
81 1 0.333335 -0.00356567 0.333526
85 1 0.422603 0.0818364 0.414106
15 1 0.599542 0.0824814 0.249757
84 1 0.503702 0.170414 0.32711
89 1 0.67068 -0.00106181 0.327771
23 1 0.913675 0.0803112 0.258041
92 1 0.82422 0.167138 0.331115
93 1 0.745304 0.0821204 0.413001
6 1 0.0752369 0.243443 0.24137
97 1 -0.00123919 0.332505 0.328223
101 1 0.0832963 0.411925 0.410999
14 1 0.412953 0.246092 0.243044
31 1 0.250325 0.415665 0.248934
80 1 0.245208 0.243066 0.40907
105 1 0.330123 0.329392 0.324481
109 1 0.418444 0.409257 0.414374
39 1 0.583362 0.413609 0.248503
88 1 0.59186 0.246077 0.415086
113 1 0.672131 0.338965 0.331908
22 1 0.750258 0.256421 0.247706
47 1 0.921224 0.418465 0.246129
96 1 0.911071 0.251328 0.41304
117 1 0.757851 0.417218 0.416258
30 1 0.088952 0.583134 0.250736
100 1 0.173627 0.496588 0.33427
121 1 0.00444513 0.670178 0.329002
38 1 0.417099 0.574823 0.248993
104 1 0.257357 0.590195 0.41676
129 1 0.345218 0.667453 0.33013
108 1 0.496151 0.494037 0.334733
112 1 0.586197 0.578873 0.412543
137 1 0.67591 0.663063 0.336025
46 1 0.759499 0.589563 0.246107
116 1 0.83396 0.49844 0.326039
120 1 0.915653 0.584039 0.411011
54 1 0.0811029 0.918053 0.250931
124 1 0.166089 0.832502 0.330487
125 1 0.0866185 0.750609 0.413019
55 1 0.256058 0.751905 0.258804
62 1 0.42567 0.9185 0.251542
128 1 0.244228 0.917312 0.41822
133 1 0.41827 0.752761 0.413017
63 1 0.590611 0.746296 0.258327
132 1 0.504212 0.837445 0.329582
136 1 0.583879 0.916821 0.415554
70 1 0.755231 0.904437 0.247951
71 1 0.920624 0.751398 0.250459
140 1 0.84182 0.83279 0.335427
141 1 0.754335 0.75094 0.419058
144 1 0.920695 0.919437 0.425632
74 1 -0.00420332 0.166749 0.49813
75 1 0.1701 0.0121784 0.505051
145 1 0.000935103 0.00529367 0.664298
148 1 0.163493 0.1674 0.667019
79 1 0.253187 0.0860807 0.584807
82 1 0.337925 0.173897 0.498984
153 1 0.336879 -0.000693566 0.673362
83 1 0.49945 -0.00347467 0.502559
87 1 0.581824 0.0834706 0.583529
90 1 0.665639 0.161203 0.508193
156 1 0.502488 0.166353 0.665647
161 1 0.664749 0.0058697 0.673071
91 1 0.830821 0.0035676 0.497779
95 1 0.910696 0.0877325 0.583554
164 1 0.837317 0.168097 0.671217
78 1 0.0799656 0.251826 0.587855
99 1 0.168316 0.329909 0.496464
169 1 -0.00439998 0.335317 0.666168
86 1 0.4193 0.260328 0.593079
103 1 0.250702 0.419848 0.583806
177 1 0.33164 0.339169 0.671841
107 1 0.503538 0.328919 0.489962
111 1 0.578218 0.417988 0.581244
185 1 0.669774 0.332704 0.664034
94 1 0.753647 0.249009 0.585182
115 1 0.831245 0.332081 0.493765
119 1 0.910422 0.411056 0.581142
98 1 -0.00298816 0.495344 0.497925
102 1 0.082676 0.588146 0.580234
123 1 0.167101 0.67143 0.497565
172 1 0.166545 0.499753 0.663462
193 1 0.00150121 0.669158 0.663894
106 1 0.331197 0.493612 0.499481
110 1 0.409632 0.587823 0.581083
201 1 0.329081 0.670288 0.668266
114 1 0.667549 0.500257 0.496397
131 1 0.495313 0.664476 0.493293
180 1 0.485602 0.498652 0.669032
209 1 0.665612 0.661749 0.666365
118 1 0.745871 0.583959 0.583147
139 1 0.833332 0.663435 0.497879
188 1 0.836697 0.50505 0.665015
122 1 0.000334715 0.831456 0.507167
126 1 0.0817979 0.918231 0.584354
196 1 0.168318 0.835644 0.671655
127 1 0.2481 0.750728 0.582345
130 1 0.326879 0.835959 0.495027
134 1 0.409105 0.911394 0.585272
135 1 0.583041 0.748021 0.580975
138 1 0.667825 0.834491 0.500537
204 1 0.499287 0.835055 0.670512
142 1 0.744214 0.922755 0.577744
143 1 0.91389 0.744417 0.578811
212 1 0.832359 0.836343 0.654809
146 1 -0.00458073 0.167886 0.833906
147 1 0.16338 0.00270042 0.836609
149 1 0.0786522 0.0855266 0.745699
151 1 0.244269 0.0827158 0.923968
154 1 0.325211 0.168155 0.844149
157 1 0.416853 0.0870305 0.759529
155 1 0.499883 0.00311717 0.836016
159 1 0.587355 0.0847616 0.920659
162 1 0.665672 0.167582 0.830421
163 1 0.835169 -0.000900139 0.829891
165 1 0.754297 0.0893837 0.749565
167 1 0.91513 0.0802324 0.914898
150 1 0.086404 0.24792 0.909857
171 1 0.170354 0.338528 0.829687
173 1 0.0854918 0.419174 0.752134
152 1 0.251058 0.247956 0.750317
158 1 0.418363 0.247893 0.920111
175 1 0.24777 0.413277 0.917674
181 1 0.413086 0.418093 0.763419
160 1 0.579291 0.251921 0.746822
179 1 0.500348 0.334087 0.834042
183 1 0.576984 0.4181 0.912708
166 1 0.740831 0.258791 0.910418
168 1 0.920054 0.249549 0.747175
187 1 0.828646 0.336787 0.825204
189 1 0.746614 0.423129 0.745931
191 1 0.912867 0.419655 0.908344
170 1 0.000715804 0.50629 0.834128
174 1 0.08387 0.582579 0.921265
195 1 0.167019 0.66058 0.839326
176 1 0.247085 0.577638 0.753185
178 1 0.331575 0.503633 0.845363
182 1 0.417414 0.593779 0.921701
184 1 0.575245 0.577993 0.755831
186 1 0.663026 0.497994 0.835967
203 1 0.500918 0.670986 0.835488
190 1 0.7496 0.582777 0.913964
192 1 0.916591 0.585587 0.748545
211 1 0.835906 0.669561 0.829119
194 1 -0.00108052 0.829505 0.837234
197 1 0.0862873 0.744184 0.756031
198 1 0.0800652 0.923505 0.915116
199 1 0.247811 0.753004 0.916287
200 1 0.251373 0.921625 0.757262
202 1 0.331162 0.831354 0.835549
205 1 0.411929 0.750545 0.753179
206 1 0.411237 0.917475 0.919509
207 1 0.583594 0.743659 0.92175
208 1 0.586716 0.916956 0.756319
210 1 0.668964 0.824207 0.836824
213 1 0.749369 0.750996 0.742794
214 1 0.748337 0.917141 0.914337
215 1 0.917286 0.746824 0.923993
216 1 0.915876 0.907866 0.744701
ITEM: TIMESTEP
4800
ITEM: NUMBER OF ATOMS
216
ITEM: BOX BOUNDS pp pp pp
-5.4216890138464535e-02 1.6347216890138490e+01
-5.4216890138464535e-02 1.6347216890138490e+01
-5.4216890138464535e-02 1.6347216890138490e+01
ITEM: ATOMS id type xs ys zs
1 1 0.00339644 -0.00184095 0.00376326
2 1 0.0101792 0.169725 0.1704
3 1 0.167434 -0.000622776 0.16352
4 1 0.177645 0.168096 -0.000582892
5 1 0.0875394 0.0870863 0.0800541
9 1 0.332267 0.00104413 -0.00412017
10 1 0.337507 0.166736 0.165595
13 1 0.415594 0.08077 0.0798281
11 1 0.500798 -0.000600765 0.166612
12 1 0.502668 0.163799 -0.00640624
17 1 0.664091 0.00420758 -0.0063844
18 1 0.659377 0.162451 0.1678
19 1 0.828227 0.00489203 0.158322
20 1 0.844871 0.166487 0.00375452
21 1 0.744799 0.0858103 0.0854589
25 1 -0.000530834 0.332646 0.0103988
27 1 0.168325 0.332431 0.164984
29 1 0.0889194 0.422832 0.0874423
8 1 0.259536 0.256869 0.0847949
33 1 0.333614 0.336143 -0.00250983
37 1 0.420562 0.418024 0.0878312
16 1 0.584077 0.245235 0.081317
35 1 0.503113 0.332857 0.164081
41 1 0.671824 0.33152 -0.00453321
24 1 0.917811 0.249784 0.0973605
43 1 0.833617 0.335728 0.172515
45 1 0.750187 0.413312 0.0831887
26 1 -0.0051263 0.500792 0.169769
28 1 0.166323 0.502142 -0.00735431
49 1 -0.00506546 0.666368 -0.00486088
51 1 0.159204 0.668712 0.164914
32 1 0.250962 0.584752 0.0853859
34 1 0.327302 0.505109 0.173146
57 1 0.32924 0.66202 -0.00551395
36 1 0.508977 0.493938 -0.00307254
40 1 0.587257 0.589244 0.0778104
42 1 0.667952 0.505049 0.170146
59 1 0.498907 0.668417 0.161469
65 1 0.668793 0.676909 -0.00548362
44 1 0.830554 0.497766 0.000963992
48 1 0.913325 0.585277 0.0824065
67 1 0.829248 0.666972 0.168854
50 1 -0.00346674 0.833839 0.16986
52 1 0.165026 0.82964 -0.00440583
53 1 0.0735876 0.749409 0.0771108
56 1 0.253854 0.918537 0.0801097
58 1 0.330229 0.835912 0.16716
61 1 0.417305 0.75197 0.073227
60 1 0.500145 0.831299 -0.00316653
64 1 0.589713 0.919368 0.0785006
66 1 0.664584 0.839396 0.172884
68 1 0.834618 0.832943 -0.00518844
69 1 0.751355 0.748633 0.0853102
72 1 0.915789 0.921189 0.0824835
73 1 -0.00172074 -0.00130957 0.330655
76 1 0.168568 0.164962 0.333422
77 1 0.0858686 0.0736392 0.409376
7 1 0.247645 0.0916096 0.246476
81 1 0.332885 0.000994324 0.33074
85 1 0.415617 0.0789996 0.419315
15 1 0.574433 0.0818737 0.249928
84 1 0.50381 0.166408 0.335017
89 1 0.665332 0.00370483 0.340901
23 1 0.916617 0.0883933 0.240077
92 1 0.841044 0.169029 0.336628
93 1 0.750174 0.0852522 0.426127
6 1 0.0904777 0.255913 0.261079
97 1 0.00019682 0.33329 0.336765
101 1 0.0858343 0.416657 0.41648
14 1 0.419731 0.251765 0.250198
31 1 0.247764 0.4137 0.250173
80 1 0.25012 0.252645 0.414312
105 1 0.336273 0.332887 0.33523
109 1 0.410977 0.423691 0.414117
39 1 0.584353 0.4214 0.248342
88 1 0.579127 0.255098 0.422147
113 1 0.665043 0.335891 0.335627
22 1 0.750307 0.247824 0.249081
47 1 0.915804 0.415918 0.25319
96 1 0.919421 0.253887 0.420964
117 1 0.745858 0.418976 0.41929
30 1 0.0788509 0.584428 0.255048
100 1 0.170342 0.495871 0.3314
121 1 -0.00698111 0.670024 0.341626
38 1 0.413289 0.596037 0.249493
104 1 0.245375 0.58355 0.416377
129 1 0.325538 0.667575 0.331592
108 1 0.497046 0.504456 0.324769
112 1 0.577522 0.584435 0.412841
137 1 0.653348 0.67002 0.331282
46 1 0.745974 0.584043 0.259131
116 1 0.834142 0.497098 0.342922
120 1 0.915362 0.585786 0.419453
54 1 0.083443 0.917583 0.254117
124 1 0.16862 0.834264 0.336528
125 1 0.0813345 0.751811 0.420679
55 1 0.240566 0.747001 0.249139
62 1 0.413717 0.917547 0.251212
128 1 0.255071 0.918956 0.413599
133 1 0.41065 0.748778 0.418327
63 1 0.576814 0.755009 0.248746
132 1 0.493811 0.827725 0.336698
136 1 0.579797 0.918759 0.41599
70 1 0.745071 0.927314 0.256046
71 1 0.913111 0.749272 0.248967
140 1 0.823635 0.827999 0.332799
141 1 0.743758 0.746414 0.418156
144 1 0.908879 0.911811 0.413647
74 1 0.00474567 0.162481 0.502889
75 1 0.162319 -0.00813755 0.493687
145 1 0.00178152 -0.00155052 0.671902
148 1 0.168013 0.16679 0.67073
79 1 0.243027 0.0821148 0.582421
82 1 0.327323 0.161483 0.499445
153 1 0.329259 0.000230359 0.659997
83 1 0.503979 0.00495806 0.503848
87 1 0.587995 0.0852877 0.584223
90 1 0.665618 0.174029 0.499577
156 1 0.504328 0.167475 0.668351
161 1 0.669905 -0.00182824 0.659506
91 1 0.828731 -0.00692119 0.507208
95 1 0.917918 0.0810614 0.590097
164 1 0.832821 0.163779 0.670021
78 1 0.0837091 0.245502 0.583225
99 1 0.170889 0.340958 0.501346
169 1 0.00270592 0.332015 0.664793
86 1 0.415951 0.240646 0.581797
103 1 0.255497 0.412054 0.583421
177 1 0.333014 0.331923 0.664703
107 1 0.489343 0.332722 0.504301
111 1 0.584998 0.415344 0.585304
185 1 0.667036 0.331474 0.675562
94 1 0.757308 0.251159 0.584844
115 1 0.830746 0.341995 0.504486
119 1 0.918853 0.417672 0.588905
98 1 0.00574605 0.503966 0.506182
102 1 0.0905879 0.58504 0.585926
123 1 0.165181 0.671342 0.500359
172 1 0.17351 0.500094 0.666713
193 1 -0.00274297 0.663761 0.667593
106 1 0.331826 0.49785 0.500191
110 1 0.417802 0.576595 0.580093
201 1 0.337546 0.664758 0.662832
114 1 0.666896 0.499989 0.499443
131 1 0.50018 0.662885 0.499157
180 1 0.50151 0.503488 0.665115
209 1 0.662598 0.663962 0.665233
118 1 0.749201 0.581923 0.578778
139 1 0.833957 0.670642 0.505092
188 1 0.828759 0.495617 0.664753
122 1 -0.00848085 0.830547 0.496373
126 1 0.0817787 0.915825 0.578985
196 1 0.17074 0.830389 0.659451
127 1 0.255582 0.751729 0.5803
130 1 0.33792 0.833079 0.499402
134 1 0.415089 0.92434 0.578323
135 1 0.580835 0.745981 0.579793
138 1 0.665102 0.831811 0.497109
204 1 0.491108 0.835165 0.665336
142 1 0.750538 0.906763 0.590922
143 1 0.916523 0.751048 0.587889
212 1 0.836966 0.822552 0.678006
146 1 -0.000131586 0.164865 0.83551
147 1 0.171201 -0.00121356 0.833904
149 1 0.0871582 0.0804109 0.75939
151 1 0.254178 0.0807071 0.916965
154 1 0.334582 0.163031 0.827654
157 1 0.415514 0.0848993 0.740083
155 1 0.498841 -0.00378365 0.827166
159 1 0.580822 0.0778542 0.908752
162 1 0.66925 0.163975 0.829545
163 1 0.830339 0.00108358 0.837256
165 1 0.747701 0.0746566 0.747578
167 1 0.923074 0.0827217 0.92019
150 1 0.0793992 0.249356 0.925661
171 1 0.165558 0.32524 0.837828
173 1 0.0859125 0.414672 0.747159
152 1 0.245911 0.251606 0.74975
158 1 0.419034 0.252054 0.91504
175 1 0.253424 0.417769 0.915052
181 1 0.423399 0.41034 0.743446
160 1 0.584146 0.249243 0.75673
179 1 0.503537 0.333389 0.835865
183 1 0.594658 0.415462 0.915243
166 1 0.757393 0.242149 0.924306
168 1 0.913497 0.251705 0.748802
187 1 0.838223 0.326381 0.839578
189 1 0.750925 0.415915 0.753265
191 1 0.920253 0.418613 0.922309
170 1 0.00069399 0.498109 0.830189
174 1 0.0814374 0.588265 0.911238
195 1 0.170061 0.66897 0.829609
176 1 0.252801 0.58759 0.74844
178 1 0.33799 0.494703 0.821993
182 1 0.421742 0.575596 0.913769
184 1 0.584644 0.585331 0.750076
186 1 0.670262 0.500785 0.835779
203 1 0.496443 0.665825 0.833238
190 1 0.750386 0.586209 0.917807
192 1 0.91739 0.583233 0.747833
211 1 0.830822 0.668654 0.838835
194 1 0.00249481 0.834786 0.835793
197 1 0.084271 0.750154 0.744957
198 1 0.087195 0.916338 0.917872
199 1 0.255482 0.74643 0.914264
200 1 0.251953 0.912405 0.751097
202 1 0.336341 0.835028 0.828884
205 1 0.416426 0.748912 0.746397
206 1 0.415362 0.918993 0.913486
207 1 0.579009 0.753269 0.911764
208 1 0.581082 0.91584 0.742054
210 1 0.663044 0.837304 0.828023
213 1 0.746894 0.745726 0.751582
214 1 0.750252 0.915357 0.914065
215 1 0.916794 0.74844 0.913435
216 1 0.91918 0.921103 0.754364
ITEM: TIMESTEP
4900
ITEM: NUMBER OF ATOMS
216
ITEM: BOX BOUNDS pp pp pp
-7.2710291051039988e-02 1.6365710291051066e+01
-7.2710291051039988e-02 1.6365710291051066e+01
-7.2710291051039988e-02 1.6365710291051066e+01
ITEM: ATOMS id type xs ys zs
1 1 0.00252157 -0.000944797 -0.000776515
2 1 6.4424e-05 0.167365 0.169146
3 1 0.170936 -0.00122725 0.168071
4 1 0.168895 0.166936 7.66856e-05
5 1 0.0845475 0.0802251 0.0819661
9 1 0.334925 -0.000829768 -0.00292178
10 1 0.328408 0.170168 0.163251
13 1 0.413279 0.0833416 0.0799019
11 1 0.495373 0.00640963 0.166387
12 1 0.49927 0.170272 0.00367729
17 1 0.666783 0.00329232 0.00447592
18 1 0.666385 0.16836 0.167305
19 1 0.836843 0.00142944 0.17297
20 1 0.832058 0.172156 0.007935
21 1 0.748964 0.0868341 0.0883475
25 1 0.0075405 0.331805 -0.000502484
27 1 0.170543 0.341309 0.170261
29 1 0.081976 0.417026 0.0871419
8 1 0.244305 0.253561 0.0813451
33 1 0.332852 0.330451 -0.00162756
37 1 0.412672 0.419356 0.0740718
16 1 0.584125 0.255539 0.0873992
35 1 0.49545 0.333569 0.166666
41 1 0.662381 0.330807 0.00298443
24 1 0.92052 0.251745 0.0799792
43 1 0.834977 0.327838 0.170003
45 1 0.750972 0.413219 0.0883481
26 1 -0.00337664 0.49715 0.166043
28 1 0.167462 0.501847 0.00090332
49 1 -0.000253715 0.665918 0.00464143
51 1 0.170869 0.66575 0.161112
32 1 0.247185 0.586158 0.0768959
34 1 0.338244 0.505256 0.160759
57 1 0.330836 0.670093 -0.00282134
36 1 0.500151 0.501721 -0.00749674
40 1 0.580618 0.581255 0.084679
42 1 0.665035 0.497329 0.163087
59 1 0.495265 0.667096 0.168804
65 1 0.666172 0.658039 0.00471634
44 1 0.831738 0.496979 0.00485722
48 1 0.915635 0.586098 0.0876925
67 1 0.830612 0.670301 0.166822
50 1 -0.00448831 0.831651 0.163953
52 1 0.168745 0.831713 -0.00358236
53 1 0.0856289 0.749525 0.0845121
56 1 0.251899 0.919414 0.0772282
58 1 0.328639 0.825432 0.158494
61 1 0.417566 0.74322 0.0783605
60 1 0.50019 0.833649 -0.00734372
64 1 0.570606 0.920567 0.0816276
66 1 0.658702 0.834813 0.165151
68 1 0.834823 0.835524 0.00545795
69 1 0.743762 0.751801 0.0815601
72 1 0.917221 0.921765 0.085415
73 1 0.00893785 0.00065185 0.337427
76 1 0.165186 0.164789 0.335462
77 1 0.0845899 0.0849596 0.421274
7 1 0.255874 0.0821535 0.251992
81 1 0.328401 -0.00235593 0.335323
85 1 0.413092 0.0835928 0.414985
15 1 0.584405 0.0875907 0.248992
84 1 0.497927 0.165197 0.330576
89 1 0.660502 -0.00203091 0.327649
23 1 0.917798 0.0806948 0.253648
92 1 0.830063 0.163695 0.335852
93 1 0.744738 0.0795082 0.409107
6 1 0.0850254 0.253047 0.249153
97 1 -0.000601163 0.33267 0.331233
101 1 0.081216 0.416517 0.419446
14 1 0.412009 0.255068 0.252189
31 1 0.249765 0.425092 0.250062
80 1 0.249987 0.25174 0.419485
105 1 0.327703 0.344824 0.337458
109 1 0.418722 0.41638 0.420719
39 1 0.579144 0.41433 0.254775
88 1 0.587483 0.24428 0.411868
113 1 0.665476 0.335931 0.340499
22 1 0.75046 0.250929 0.248198
47 1 0.911396 0.412184 0.259626
96 1 0.919707 0.252241 0.416467
117 1 0.750493 0.416041 0.420358
30 1 0.0803992 0.58499 0.247782
100 1 0.157168 0.505161 0.335019
121 1 -0.00425629 0.668589 0.330472
38 1 0.418546 0.577749 0.247798
104 1 0.252328 0.579835 0.415535
129 1 0.33499 0.666799 0.328718
108 1 0.503163 0.503363 0.337084
112 1 0.589812 0.585313 0.420921
137 1 0.667852 0.671989 0.330537
46 1 0.744995 0.582904 0.244433
116 1 0.827091 0.499945 0.331953
120 1 0.909845 0.585058 0.417733
54 1 0.0783934 0.914918 0.243125
124 1 0.157391 0.831884 0.328287
125 1 0.077056 0.748327 0.414059
55 1 0.250858 0.750342 0.245737
62 1 0.414465 0.916762 0.246103
128 1 0.239202 0.913486 0.415314
133 1 0.417426 0.753053 0.408749
63 1 0.58161 0.745933 0.245052
132 1 0.506173 0.835663 0.324918
136 1 0.582492 0.917938 0.415045
70 1 0.751037 0.916849 0.244976
71 1 0.913781 0.752985 0.253135
140 1 0.834769 0.838669 0.333146
141 1 0.752418 0.748414 0.412779
144 1 0.926435 0.915919 0.413729
74 1 -0.00296747 0.167284 0.496347
75 1 0.165698 9.18986e-05 0.49589
145 1 -0.00323205 -0.0025209 0.66538
148 1 0.167546 0.163006 0.664594
79 1 0.254231 0.0812299 0.581882
82 1 0.338509 0.170768 0.502126
153 1 0.336411 -0.00353506 0.666042
83 1 0.495246 -0.00235525 0.495201
87 1 0.579077 0.0764637 0.582713
90 1 0.665962 0.158454 0.497999
156 1 0.501685 0.166911 0.659891
161 1 0.666373 0.00517158 0.668434
91 1 0.8384 0.00604487 0.494759
95 1 0.917016 0.0825697 0.582831
164 1 0.838447 0.166728 0.669336
78 1 0.0850379 0.254475 0.587817
99 1 0.163396 0.327387 0.505043
169 1 -0.001471 0.330592 0.674973
86 1 0.418617 0.253022 0.58239
103 1 0.247188 0.418718 0.581401
177 1 0.331635 0.3348 0.662836
107 1 0.509296 0.332811 0.498586
111 1 0.587237 0.418927 0.58471
185 1 0.668582 0.331074 0.665411
94 1 0.749083 0.243517 0.580958
115 1 0.836875 0.331498 0.498226
119 1 0.91786 0.410434 0.586722
98 1 -0.00910991 0.498918 0.498037
102 1 0.076013 0.581057 0.589238
123 1 0.159922 0.661127 0.500181
172 1 0.163029 0.494586 0.664413
193 1 -0.00227543 0.669836 0.661872
106 1 0.333543 0.500887 0.503835
110 1 0.41888 0.582985 0.584607
201 1 0.331102 0.663859 0.666752
114 1 0.673167 0.500294 0.499295
131 1 0.495557 0.671756 0.498367
180 1 0.503638 0.499099 0.668525
209 1 0.67398 0.66812 0.671858
118 1 0.75372 0.581394 0.589637
139 1 0.82889 0.66698 0.501155
188 1 0.837834 0.499953 0.667644
122 1 0.0043582 0.82768 0.500666
126 1 0.0826471 0.91617 0.582771
196 1 0.163627 0.833148 0.670065
127 1 0.243897 0.743382 0.583009
130 1 0.325563 0.833634 0.499198
134 1 0.420867 0.91133 0.576382
135 1 0.586758 0.751256 0.586723
138 1 0.667956 0.839076 0.499051
204 1 0.504316 0.830664 0.663276
142 1 0.74915 0.928906 0.581974
143 1 0.915517 0.750736 0.581834
212 1 0.829659 0.841714 0.654895
146 1 0.0101016 0.164958 0.834962
147 1 0.167482 0.0011115 0.833262
149 1 0.0850925 0.0820853 0.746374
151 1 0.248825 0.0780273 0.914583
154 1 0.333675 0.168793 0.834006
157 1 0.42326 0.0805138 0.745545
155 1 0.504196 0.0012569 0.839774
159 1 0.587094 0.0887062 0.922275
162 1 0.669746 0.16887 0.837285
163 1 0.839801 0.000522123 0.835689
165 1 0.756048 0.0840754 0.751563
167 1 0.918437 0.0837707 0.920116
150 1 0.0926194 0.251363 0.912175
171 1 0.17417 0.33878 0.831272
173 1 0.079148 0.414927 0.753721
152 1 0.255031 0.251187 0.744191
158 1 0.419343 0.254328 0.914467
175 1 0.252178 0.417278 0.921782
181 1 0.414876 0.415631 0.749091
160 1 0.58425 0.244881 0.743665
179 1 0.509396 0.333007 0.830233
183 1 0.580768 0.412325 0.920194
166 1 0.751044 0.256795 0.918967
168 1 0.926078 0.24479 0.755861
187 1 0.835818 0.335103 0.834478
189 1 0.754756 0.415274 0.755062
191 1 0.915027 0.411137 0.921413
170 1 0.00247729 0.49739 0.844506
174 1 0.0816115 0.58238 0.923196
195 1 0.165575 0.659711 0.837824
176 1 0.247556 0.580524 0.74759
178 1 0.332047 0.503824 0.836256
182 1 0.411805 0.591496 0.913164
184 1 0.590238 0.577302 0.749413
186 1 0.665623 0.49659 0.836838
203 1 0.50881 0.665663 0.826578
190 1 0.750375 0.577244 0.920235
192 1 0.918847 0.582969 0.75851
211 1 0.834746 0.667117 0.836916
194 1 -0.00465986 0.830741 0.836996
197 1 0.0806174 0.745612 0.753091
198 1 0.0820548 0.918135 0.916349
199 1 0.244013 0.749961 0.910574
200 1 0.245815 0.919172 0.744583
202 1 0.331993 0.829027 0.831349
205 1 0.418615 0.747024 0.75249
206 1 0.414497 0.913664 0.914618
207 1 0.588077 0.745827 0.91806
208 1 0.591652 0.920355 0.751628
210 1 0.670168 0.834085 0.839412
213 1 0.75595 0.755495 0.753788
214 1 0.74818 0.92102 0.920699
215 1 0.916906 0.749344 0.922455
216 1 0.912221 0.91409 0.749745
ITEM: TIMESTEP
5000
ITEM: NUMBER OF ATOMS
216
ITEM: BOX BOUNDS pp pp pp
-6.5705768213765836e-02 1.6358705768213806e+01
-6.5705768213765836e-02 1.6358705768213806e+01
-6.5705768213765836e-02 1.6358705768213806e+01
ITEM: ATOMS id type xs ys zs
1 1 -0.00700198 -0.00263509 -0.00233487
2 1 -0.00836141 0.166596 0.158297
3 1 0.160601 -0.00336565 0.167742
4 1 0.164042 0.167307 -0.00407393
5 1 0.0812575 0.0842827 0.0803374
9 1 0.335101 0.00036783 0.00182699
10 1 0.33448 0.162368 0.164426
13 1 0.417264 0.0788798 0.0848819
11 1 0.506947 -0.00155496 0.162087
12 1 0.497845 0.166454 0.00415164
17 1 0.668347 -0.00212441 -0.000774447
18 1 0.665835 0.169564 0.161197
19 1 0.832042 -0.00490726 0.160665
20 1 0.826667 0.160966 -0.00409911
21 1 0.751611 0.0793286 0.0819661
25 1 -0.0106573 0.334038 -0.00340333
27 1 0.163062 0.322055 0.163114
29 1 0.0870636 0.409187 0.0737118
8 1 0.249655 0.247802 0.0818459
33 1 0.332001 0.334581 0.00361513
37 1 0.410485 0.412027 0.0897737
16 1 0.584923 0.249206 0.0796642
35 1 0.503725 0.333164 0.165391
41 1 0.66037 0.340533 -0.00109307
24 1 0.910228 0.250862 0.0771763
43 1 0.833166 0.337686 0.157509
45 1 0.74557 0.420484 0.0772609
26 1 0.0109264 0.502426 0.165709
28 1 0.166492 0.498846 0.00102027
49 1 0.00174777 0.66587 -0.00486634
51 1 0.171314 0.665218 0.171969
32 1 0.250551 0.580333 0.0854501
34 1 0.329078 0.494698 0.172582
57 1 0.332119 0.667652 0.0096894
36 1 0.498603 0.496531 0.00877448
40 1 0.582225 0.586197 0.0871844
42 1 0.667252 0.502998 0.169419
59 1 0.502322 0.666516 0.169822
65 1 0.661969 0.665282 -0.00596979
44 1 0.836974 0.503977 -0.00469989
48 1 0.920858 0.581783 0.0784389
67 1 0.839179 0.661992 0.170224
50 1 0.00499756 0.836907 0.170394
52 1 0.16792 0.835425 0.00223947
53 1 0.0850945 0.74867 0.0874113
56 1 0.246328 0.917113 0.0825998
58 1 0.333988 0.835728 0.164812
61 1 0.41717 0.752411 0.0929124
60 1 0.498923 0.839767 0.0063635
64 1 0.592999 0.912438 0.0859882
66 1 0.67292 0.824824 0.170498
68 1 0.833232 0.833888 -0.000312863
69 1 0.751097 0.743284 0.080066
72 1 0.920561 0.912413 0.0867395
73 1 0.000564084 0.00401484 0.33121
76 1 0.162829 0.164948 0.336039
77 1 0.0813512 0.0814851 0.418705
7 1 0.243916 0.0772881 0.248787
81 1 0.332726 0.0054005 0.337912
85 1 0.419905 0.082577 0.417338
15 1 0.587552 0.0833723 0.247983
84 1 0.501257 0.162603 0.338964
89 1 0.666547 0.00295237 0.332265
23 1 0.9162 0.0746134 0.251612
92 1 0.836445 0.169285 0.329127
93 1 0.75051 0.0864231 0.415279
6 1 0.0736595 0.251454 0.247365
97 1 -0.00446373 0.33503 0.335004
101 1 0.0794019 0.411941 0.413553
14 1 0.419473 0.240717 0.252311
31 1 0.249351 0.407831 0.249818
80 1 0.252568 0.249375 0.420473
105 1 0.336451 0.325252 0.32919
109 1 0.415231 0.41793 0.417203
39 1 0.586994 0.417565 0.251433
88 1 0.58143 0.250775 0.415361
113 1 0.669825 0.33161 0.332042
22 1 0.746019 0.249103 0.248035
47 1 0.922474 0.416978 0.239477
96 1 0.915579 0.24989 0.416955
117 1 0.749332 0.416037 0.414163
30 1 0.0932167 0.586936 0.249219
100 1 0.1732 0.495078 0.333064
121 1 0.00877674 0.665497 0.332228
38 1 0.420332 0.58473 0.249902
104 1 0.250234 0.584577 0.420526
129 1 0.338883 0.660984 0.334032
108 1 0.4933 0.499363 0.334774
112 1 0.586109 0.579837 0.416858
137 1 0.668546 0.663709 0.335433
46 1 0.755163 0.585009 0.256831
116 1 0.833671 0.49436 0.332332
120 1 0.919805 0.581054 0.414083
54 1 0.0868724 0.916304 0.260536
124 1 0.176812 0.83393 0.340454
125 1 0.0848291 0.75645 0.413512
55 1 0.252299 0.748983 0.25534
62 1 0.419505 0.917105 0.250604
128 1 0.258736 0.919123 0.421651
133 1 0.419313 0.744633 0.423857
63 1 0.583576 0.747396 0.256102
132 1 0.503639 0.830341 0.338017
136 1 0.57804 0.918823 0.416687
70 1 0.75476 0.914614 0.251339
71 1 0.923816 0.748528 0.24877
140 1 0.838535 0.828538 0.327219
141 1 0.75707 0.751303 0.416553
144 1 0.914603 0.918422 0.417667
74 1 0.00365183 0.16305 0.49898
75 1 0.172815 0.00287165 0.501576
145 1 0.00476631 0.00307895 0.667227
148 1 0.167972 0.172627 0.666833
79 1 0.250288 0.0853086 0.581062
82 1 0.338799 0.166864 0.497104
153 1 0.332566 -0.00348103 0.668019
83 1 0.501171 -0.000538272 0.500574
87 1 0.586344 0.0836271 0.584526
90 1 0.664036 0.168254 0.498368
156 1 0.502644 0.167986 0.664534
161 1 0.667353 -0.00574624 0.66569
91 1 0.826413 -0.00277754 0.504166
95 1 0.918148 0.0830301 0.580228
164 1 0.834299 0.16425 0.664887
78 1 0.0848172 0.25322 0.582985
99 1 0.173551 0.341385 0.498364
169 1 -0.000219684 0.335006 0.660151
86 1 0.414696 0.246869 0.590047
103 1 0.252059 0.420657 0.585521
177 1 0.335168 0.33132 0.662084
107 1 0.497058 0.331407 0.502237
111 1 0.581027 0.422594 0.580662
185 1 0.66158 0.335315 0.666039
94 1 0.746983 0.253526 0.582642
115 1 0.829472 0.333903 0.49755
119 1 0.915864 0.416855 0.578413
98 1 0.0030819 0.498526 0.501279
102 1 0.0828445 0.583234 0.579258
123 1 0.163413 0.669905 0.496637
172 1 0.166919 0.50529 0.669319
193 1 -0.000323089 0.665587 0.666277
106 1 0.334568 0.500947 0.501065
110 1 0.414077 0.586912 0.585646
201 1 0.336649 0.668606 0.665072
114 1 0.665317 0.497324 0.502892
131 1 0.506544 0.661162 0.509173
180 1 0.502495 0.50534 0.66458
209 1 0.663445 0.665465 0.665264
118 1 0.744058 0.588529 0.575077
139 1 0.840511 0.664356 0.50155
188 1 0.829444 0.500291 0.664505
122 1 -0.00152528 0.838285 0.50161
126 1 0.0861743 0.917144 0.580291
196 1 0.165852 0.835915 0.66519
127 1 0.251215 0.752111 0.587619
130 1 0.340571 0.834819 0.505298
134 1 0.417416 0.918926 0.590638
135 1 0.582216 0.753565 0.5837
138 1 0.666686 0.832521 0.501257
204 1 0.500856 0.837036 0.668373
142 1 0.75056 0.908778 0.589105
143 1 0.920285 0.751251 0.578012
212 1 0.838584 0.831946 0.67485
146 1 -0.00659677 0.171498 0.824862
147 1 0.163297 -0.00203942 0.830426
149 1 0.0826953 0.0880429 0.749989
151 1 0.246091 0.0826051 0.92004
154 1 0.330292 0.163342 0.836982
157 1 0.41721 0.0855991 0.753333
155 1 0.499891 -0.00319558 0.833066
159 1 0.580327 0.0832023 0.918882
162 1 0.660431 0.168784 0.833232
163 1 0.828661 -0.00142467 0.82621
165 1 0.741714 0.0819821 0.748197
167 1 0.914284 0.0834166 0.910185
150 1 0.0732736 0.244714 0.918181
171 1 0.157538 0.333406 0.833672
173 1 0.0857109 0.417053 0.744961
152 1 0.248921 0.251491 0.752825
158 1 0.412928 0.251896 0.921452
175 1 0.247367 0.412524 0.914172
181 1 0.419717 0.421102 0.748572
160 1 0.576674 0.254274 0.753407
179 1 0.493368 0.338324 0.83617
183 1 0.58349 0.418666 0.911846
166 1 0.743542 0.252509 0.917056
168 1 0.912311 0.257164 0.74552
187 1 0.831501 0.331836 0.832871
189 1 0.746419 0.418036 0.7494
191 1 0.916203 0.416215 0.909972
170 1 0.00258515 0.499143 0.830636
174 1 0.0876758 0.584531 0.917182
195 1 0.164282 0.672172 0.835868
176 1 0.24805 0.588941 0.750807
178 1 0.324691 0.500178 0.834509
182 1 0.417547 0.582574 0.923156
184 1 0.578085 0.589313 0.746907
186 1 0.660313 0.505127 0.828838
203 1 0.497775 0.666696 0.835887
190 1 0.747584 0.586967 0.912776
192 1 0.913622 0.582483 0.744641
211 1 0.830463 0.667025 0.831674
194 1 0.000333614 0.840154 0.82988
197 1 0.0826727 0.75047 0.748769
198 1 0.0849404 0.91974 0.916473
199 1 0.256183 0.751668 0.922225
200 1 0.25212 0.916221 0.756189
202 1 0.334907 0.837314 0.841778
205 1 0.41499 0.750768 0.746243
206 1 0.417231 0.921438 0.927615
207 1 0.58227 0.754081 0.917444
208 1 0.582972 0.914522 0.747984
210 1 0.665146 0.830833 0.831192
213 1 0.746563 0.749255 0.747886
214 1 0.751085 0.915695 0.911405
215 1 0.917197 0.750372 0.913703
216 1 0.916321 0.918655 0.748338
