LAMMPS (12 Jun 2025)
OMP_NUM_THREADS environment is not set. Defaulting to 1 thread. (src/comm.cpp:99)
  using 1 OpenMP thread(s) per MPI task
Reading data file ...
  orthogonal box = (-0.08237604 -0.08237604 -0.08237604) to (16.375376 16.375376 16.375376)
  2 by 2 by 2 MPI processor grid
  reading atoms ...
  216 atoms
  reading velocities ...
  216 velocities
  read_data CPU = 0.322 seconds
The scaling is : 3.41e-02.
There are 2 species.
Neighbor list info ...
  update: every = 1 steps, delay = 0 steps, check = yes
  max neighbors/atom: 2000, page size: 100000
  master list distance cutoff = 7.7
  ghost atom cutoff = 7.7
  binsize = 3.85, bins = 5 5 5
  1 neighbor lists, perpetual/occasional/extra = 1 0 0
  (1) pair mtp, perpetual
      attributes: full, newton on
      pair build: full/bin/atomonly
      stencil: full/bin/3d
      bin: standard
Setting up Verlet run ...
  Unit style    : metal
  Current step  : 0
  Time step     : 0.001
Per MPI rank memory allocation (min/avg/max) = 3.075 | 3.075 | 3.076 Mbytes
   Step          Temp          Press          Volume         PotEng    
         0   2583.5079     -10400.338      4457.7073     -137160.04    
       100   2513.6075      3113.0869      4431.7824     -137162.85    
       200   2513.7578     -3575.8452      4402.1331     -137170.39    
       300   2286.6869     -4565.9863      4352.843      -137164.44    
       400   2574.9208      11922.493      4281.5626     -137167.32    
       500   2543.3042      14349.385      4279.0349     -137166.87    
       600   2410.0571     -2837.1746      4355.719      -137169.61    
       700   2021.701      -6858.0083      4437.462      -137163.62    
       800   2566.0369      346.72908      4444.0545     -137166.39    
       900   2558.6017      1659.6825      4426.4714     -137162.21    
      1000   2451.4065     -2183.9843      4415.7827     -137161.08    
      1100   2424.2523     -6295.6135      4363.7764     -137164.29    
      1200   2433.2031      4674.1522      4285.6384     -137165.88    
      1300   2642.9585      6424.4125      4239.4361     -137172.17    
      1400   2341.3836      8540.734       4263.3775     -137167.84    
      1500   2522.1748      77.325246      4360.4317     -137171.02    
      1600   2592.0044     -4036.3117      4454.4528     -137163.89    
      1700   2584.8025     -5633.0399      4503.316      -137160.62    
      1800   2464.7797     -2987.261       4517.9142     -137158.61    
      1900   2504.8195     -13544.606      4479.1669     -137166.99    
      2000   2353.8189     -1645.9488      4377.2644     -137169.83    
      2100   2507.3862      5405.5062      4281.4421     -137171.46    
      2200   2625.8938      17767.794      4247.9574     -137171.52    
      2300   2461.8343      6677.2537      4320.8083     -137166.19    
      2400   2424.5108     -1463.4947      4418.2407     -137165.67    
      2500   2363.4065     -15761.731      4464.926      -137165.58    
      2600   2424.2614     -3863.6304      4422.636      -137161.54    
      2700   2638.5698      16504.339      4351.8987     -137162.28    
      2800   2568.3735      9251.4907      4365.7614     -137164.4     
      2900   2383.7638     -3287.3196      4421.6814     -137165.24    
      3000   2452.8246     -11296.996      4451.7958     -137164.76    
      3100   2601.461      -1486.4415      4440.6811     -137166.16    
      3200   2453.6637      5289.0491      4442.3141     -137161.54    
      3300   2653.5241     -6683.9821      4457.5687     -137164.5     
      3400   2633.8143     -969.62366      4430.1142     -137161.43    
      3500   2718.0885      4814.5615      4395.1305     -137164.68    
      3600   2388.8483     -1731.071       4394.1924     -137165.62    
      3700   2257.4425      2095.6869      4390.884      -137161.21    
      3800   2591.5384      3782.9093      4378.7942     -137164.43    
      3900   2613.5275     -10892.046      4386.2852     -137166.66    
      4000   2372.7784      3281.8244      4357.6033     -137168.2     
      4100   2441.1119     -3439.4485      4324.0502     -137174.02    
      4200   2292.968       1016.2915      4280.0148     -137163.45    
      4300   2623.5785      20872.72       4250.7618     -137165.26    
      4400   2477.3994     -5376.1551      4327.6802     -137166.3     
      4500   2392.4273      2794.7843      4403.0473     -137166.96    
      4600   2412.1346     -15934          4448.4421     -137164.95    
      4700   2735.1735     -786.45968      4390.0143     -137168.62    
      4800   2482.2236      4696.016       4337.9792     -137161.98    
      4900   2486.8254     -1378.6917      4320.2985     -137168.35    
      5000   2236.7152      7605.5562      4313.8682     -137167.88    
      5100   2477.1328     -9697.8005      4324.2319     -137170.71    
      5200   2731.1954      10089.951      4338.4264     -137171.87    
      5300   2458.1974     -1811.4071      4425.5162     -137165       
      5400   2380.1841      593.8932       4491.134      -137160.44    
      5500   2529.7774      585.85363      4518.5562     -137158.13    
      5600   2709.4064     -10836.561      4512.4331     -137161.06    
      5700   2418.6656     -6006.3148      4450.6415     -137165.69    
      5800   2435.9052      6534.5312      4372.7435     -137167.49    
      5900   2560.2247     -287.25276      4350.4614     -137166.87    
      6000   2550.8637     -2716.6449      4345.8164     -137164.69    
      6100   2556.8777      1886.6515      4352.8715     -137167.4     
      6200   2438.3222     -6653.835       4397.0292     -137169.39    
      6300   2476.1775      2603.3136      4418.8242     -137168.08    
      6400   2795.1658     -1483.0958      4437.0744     -137168.8     
      6500   2484.2655     -7184.7595      4439.8103     -137160.95    
      6600   2549.3863      2156.8462      4392.5065     -137164.05    
      6700   2390.7368      1677.0055      4355.3947     -137164.92    
      6800   2208.8971     -4130.3178      4344.0024     -137167.74    
      6900   2377.389      -9336.6559      4322.6782     -137167.81    
      7000   2555.4314      7431.8917      4261.1831     -137166.09    
      7100   2444.1123      5178.7598      4238.9387     -137163.23    
      7200   2532.8264      3454.9659      4267.1795     -137170.18    
      7300   2391.4569     -10228.292      4328.1731     -137173.14    
      7400   2309.8009     -422.79415      4349.7441     -137169.16    
      7500   2713.7036      8091.1321      4386.5576     -137167.99    
      7600   2291.2753     -1315.0124      4480.084      -137158.7     
      7700   2402.3254     -13016.208      4532.9399     -137161.36    
      7800   2504.0139     -3666.1569      4477.3579     -137159       
      7900   2687.6749     -1770.5268      4367.3313     -137163.7     
      8000   2457.6633      6683.4006      4263.0719     -137167.63    
      8100   2450.523       17922.722      4210.5657     -137169.24    
      8200   2635.2067     -3863.8611      4263.0906     -137173.24    
      8300   2557.3904     -2539.9713      4355.3093     -137167.91    
      8400   2774.8012     -2879.5311      4457.2219     -137166.43    
      8500   2726.7858     -14219.158      4559.9505     -137162.26    
      8600   2388.7673     -21263.054      4588.6917     -137159.66    
      8700   2407.2841     -8370.6471      4481.9186     -137164.83    
      8800   2701.7971      6593.775       4339.6103     -137166.88    
      8900   2658.6755      5732.4206      4273.2278     -137165.06    
      9000   2509.2118      9116.7097      4272.8161     -137165.77    
      9100   2452.5742      8403.8652      4307.7659     -137168.18    
      9200   2290.6203     -4090.3127      4395.798      -137163.94    
      9300   2543.4181     -3109.774       4468.3563     -137162.07    
      9400   2508.5329     -8298.1047      4499.2394     -137157.76    
      9500   2520.1105      4526.968       4491.2017     -137157.75    
      9600   2513.283       4117.1554      4492.237      -137160.41    
      9700   2218.1089     -439.9131       4504.4957     -137157.37    
      9800   2496.4913     -11672.264      4485.5282     -137166.77    
      9900   2641.8321     -12701.6        4414.067      -137164.81    
     10000   2984.6244      4094.3305      4305.3157     -137172.59    
     10100   2522.5183      11486.985      4262.7342     -137168.98    
     10200   2456.9695      4064.3585      4297.043      -137170.83    
     10300   2381.0748     -7089.5564      4351.3391     -137169.65    
     10400   2511.6267     -13280.067      4360.3654     -137169.42    
     10500   2516.2726      6095.1539      4332.3187     -137161.34    
     10600   2707.1219     -1889.7956      4327.7688     -137166.69    
     10700   2474.0421      5375.2469      4321.2271     -137168.84    
     10800   2316.7479     -2346.7454      4335.3482     -137164.15    
     10900   2595.9971      1965.2811      4334.5258     -137166.44    
     11000   2391.4907     -111.36205      4364.1072     -137158.74    
     11100   2664.767      -1074.4504      4397.911      -137164.48    
     11200   2417.8987     -2660.1216      4401.3996     -137163.12    
     11300   2362.8852      2279.2496      4365.9201     -137167.71    
     11400   2334.2049     -7817.3202      4340.2735     -137165.86    
     11500   2715.5254      10347.649      4303.7714     -137167.91    
     11600   2696.0294      7970.0854      4317.1706     -137166.94    
     11700   2494.9442     -656.67584      4391.9275     -137165.85    
     11800   2312.7963     -11292.877      4469.6028     -137161.29    
     11900   2519.0041      4138.6578      4488.7667     -137161.35    
     12000   2544.2494     -4115.8953      4504.1916     -137157.81    
     12100   2505.1156      11462.879      4500.8629     -137157.57    
     12200   2533.4522     -10302.255      4530.483      -137164.57    
     12300   2282.3413     -14279.18       4494.6548     -137166.78    
     12400   2469.0461     -5097.1322      4361.7289     -137168.12    
     12500   2668.0741      18766.756      4219.6814     -137167.44    
     12600   2647.1459      10011.636      4196.1165     -137170.77    
     12700   2399.9011      946.39413      4266.0093     -137170.6     
     12800   2325.6655     -9094.8887      4345.3869     -137167.15    
     12900   2552.8356     -1314.0215      4388.4921     -137166.48    
     13000   2497.334       4261.9001      4419.9631     -137164.86    
     13100   2583.9087      707.87514      4447.4871     -137168.71    
     13200   2572.7701     -4017.3823      4452.8895     -137165.3     
     13300   2767.8195      11750.63       4444.3847     -137161.53    
     13400   2597.0258     -11895.265      4457.1146     -137160.73    
     13500   2605.2987     -10581.641      4414.6982     -137168.74    
     13600   2455.4618     -2106.3358      4357.6864     -137166.63    
     13700   2462.6204      2394.4355      4309.106      -137165.22    
     13800   2652.5541      11788.735      4292.9172     -137165.64    
     13900   2610.5061      11782.615      4335.9045     -137160.86    
     14000   2491.3134     -12445.458      4400.8345     -137166.11    
     14100   2342.1904      3450.6192      4393.5876     -137166.18    
     14200   2425.5584     -6262.995       4373.4464     -137166.3     
     14300   2586.9763      8799.2546      4349.9852     -137164.19    
     14400   2650.8467      5466.2681      4392.0354     -137161.15    
     14500   2391.1198     -5.4920638      4480.8651     -137160.21    
     14600   2193.3482     -4229.7269      4539.7126     -137164       
     14700   2286.7757     -13558.474      4507.9697     -137162.25    
     14800   2652.6245     -3758.6014      4395.6836     -137164.66    
     14900   2541.5134      12276.713      4295.5776     -137161.88    
     15000   2431.2065      6571.522       4265.7236     -137165.81    
     15100   2516.9669      5056.0299      4296.0471     -137170.47    
     15200   2582.8436      259.40817      4356.1737     -137170.07    
     15300   2557.4447     -4784.1158      4400.8942     -137166.71    
     15400   2682.6099      10809.448      4432.5365     -137163.34    
     15500   2708.4739     -8962.5738      4519.3138     -137159.55    
     15600   2500.1633     -11748.103      4564.2741     -137155.18    
     15700   2609.2972     -3451.5887      4523.2898     -137164.88    
     15800   2310.4107     -1350.0936      4478.2471     -137163.02    
     15900   2428.6583      14342.86       4437.4234     -137164.32    
     16000   2455.415      -517.55831      4430.3083     -137162.67    
     16100   2599.9804     -1263.9281      4425.0577     -137162.18    
     16200   2721.4149      6570.6602      4409.1208     -137156.96    
     16300   2813.8726      3807.1487      4410.9318     -137158.65    
     16400   2530.6018     -4706.8186      4439.8114     -137161.31    
     16500   2573.3688     -7890.6524      4443.1364     -137165.58    
     16600   2367.604      -5488.2701      4410.6483     -137164.42    
     16700   2407.7835      4964.9682      4337.6101     -137165.75    
     16800   2755.9349      11980.166      4261.8282     -137167.22    
     16900   2597.462       23970.139      4232.4561     -137162.91    
     17000   2474.3119     -1248.3769      4308.8214     -137170.7     
     17100   2360.374      -8769.2383      4401.4536     -137166.89    
     17200   2454.5326     -6538.5681      4443.0245     -137162.9     
     17300   2523.0926      4104.5138      4444.4026     -137160.59    
     17400   2494.1819      1848.5902      4464.6359     -137160.32    
     17500   2237.5343     -15768.666      4482.1088     -137159.61    
     17600   2292.8825     -5750.8358      4417.2592     -137167.33    
     17700   2516.5028      4573.9216      4334.9326     -137168.47    
     17800   2715.0265      5684.43        4288.9302     -137166.82    
     17900   2545.9812      6341.7123      4293.8567     -137165.58    
     18000   2475.0223      2212.8074      4347.8015     -137168.95    
     18100   2318.6487     -7315.5081      4401.8848     -137166.48    
     18200   2462.9488      6244.8859      4410.1323     -137163.71    
     18300   2617.9526      1424.3548      4432.7812     -137161.31    
     18400   2618.8221     -877.36227      4455.4904     -137163.49    
     18500   2503.5974     -9107.1638      4463.254      -137163.79    
     18600   2346.3381      945.24998      4432.9646     -137159.82    
     18700   2605.3041      6658.788       4390.977      -137160.47    
     18800   2535.751       20719.906      4388.0792     -137155.13    
     18900   2190.8562      4633.0691      4455.1818     -137151.83    
     19000   2360.0692     -10763.688      4514.222      -137160.63    
     19100   2490.3709     -431.90958      4502.1255     -137163.59    
     19200   2662.3485      5901.7126      4479.9117     -137160.15    
     19300   2801.6151     -3990.8639      4493.035      -137164.64    
     19400   2430.009      -13045.943      4496.4737     -137163.77    
     19500   2398.2234     -11949.647      4394.1746     -137166.26    
     19600   2583.1931      22700.54       4221.6227     -137168       
     19700   2419.7102      23377.772      4159.7907     -137165.63    
     19800   2457.1903      6361.8967      4221.5002     -137177.14    
     19900   2282.8068     -13091.027      4344.9906     -137171.22    
     20000   2455.9974     -2013.28        4427.3616     -137168.35    
     20100   2476.6348     -10563.074      4480.5857     -137162.74    
     20200   2709.8202     -1829.4569      4459.5231     -137166.66    
     20300   2411.295      -3549.1594      4408.1766     -137162.17    
     20400   2540.0623     -2360.0943      4334.6974     -137171.55    
     20500   2421.3853      6473.8686      4277.4271     -137175.33    
     20600   2143.6258      12126.246      4267.9322     -137166.87    
     20700   2423.9719      7196.8766      4283.3582     -137163.81    
     20800   2483.665       12180.501      4304.5068     -137165.28    
     20900   2469.4462     -12163.907      4356.7584     -137168.24    
     21000   2350.9875     -147.19406      4364.2617     -137166.2     
     21100   2562.887      -10771.54       4382.2529     -137166.01    
     21200   2704.9742      12480.521      4387.1823     -137163.39    
     21300   2382.2617     -5972.7854      4438.6592     -137157.14    
     21400   2283.9927      694.01763      4458.638      -137163.91    
     21500   2232.0162     -5505.6656      4459.5431     -137163.79    
     21600   2409.8821     -1662.8779      4419.4251     -137163.82    
     21700   2517.6836      6642.3435      4368.1302     -137163.86    
     21800   2557.0861     -1043.7402      4347.9948     -137165.9     
     21900   2432.1189     -8275.2643      4350.7474     -137167.32    
     22000   2256.5366      6036.1661      4325.9746     -137168.71    
     22100   2216.3559      2655.3432      4311.231      -137170.81    
     22200   2445.3269      5148.4199      4312.5875     -137166.59    
     22300   2547.7672      10346.006      4319.1183     -137165.55    
     22400   2493.2069     -3254.3249      4359.3046     -137166.96    
     22500   2404.4535     -5049.0434      4405.3191     -137167.71    
     22600   2404.2208      3760.971       4442.6904     -137161.08    
     22700   2690.1901     -12396.611      4475.3243     -137161.36    
     22800   2655.63       -1080.7496      4463.9137     -137162.77    
     22900   2503.7724     -2977.5675      4439.7714     -137166.43    
     23000   2336.4892     -3190.473       4414.2713     -137165.18    
     23100   2464.4123     -7648.3361      4361.9379     -137166.33    
     23200   2649.6648      9470.5706      4283.1704     -137168.02    
     23300   2495.601       10261.321      4267.7511     -137169.63    
     23400   2130.3741     -1129.6237      4283.4196     -137168.63    
     23500   2392.9675      6879.1908      4292.025      -137169.02    
     23600   2450.879       11655.852      4341.4893     -137164.29    
     23700   2582.0534     -2697.8875      4414.9775     -137163.85    
     23800   2493.8776     -1900.0503      4458.9411     -137161.66    
     23900   2274.9144     -3827.5876      4469.2743     -137159.52    
     24000   2408.0297     -1336.8284      4425.9565     -137163.72    
     24100   2831.003      -4199.4078      4382.8064     -137168.7     
     24200   2725.0694      2449.9514      4356.0678     -137166.48    
     24300   2242.6795      10637.813      4364.2741     -137161.85    
     24400   2511.9707     -14176.015      4396.4443     -137167.94    
     24500   2526.6388      4306.5105      4390.7124     -137165.72    
     24600   2583.0733     -45.545617      4404.3627     -137167.97    
     24700   2445.6703     -7023.7906      4421.701      -137164.89    
     24800   2535.1421      876.64473      4413.0307     -137163.13    
     24900   2709.7277     -6454.4323      4406.593      -137163.2     
     25000   2586.9403      10236.615      4390.9787     -137160.73    
     25100   2361.1399     -1704.6627      4409.6886     -137163.07    
     25200   2581.6929     -3480.4279      4420.8375     -137170.13    
     25300   2496.7845      1377.6906      4429.9891     -137166.31    
     25400   2455.9211      861.73165      4434.4184     -137163.73    
     25500   2690.9382     -4823.9347      4444.8698     -137161.95    
     25600   2632.0984      1153.9282      4446.9523     -137160.07    
     25700   2437.0228     -9078.3426      4459.4463     -137162.18    
     25800   2520.8212     -9762.5032      4425.042      -137168.33    
     25900   2495.6347      1355.2182      4334.0601     -137169.72    
     26000   2469.1448      13361.363      4249.3059     -137170.94    
     26100   2137.6812      2374.48        4218.3888     -137171.39    
     26200   2231.3817     -2324.0596      4205.6345     -137171.54    
     26300   2475.6007      8718.8645      4213.6634     -137170.68    
     26400   2573.7426     -1984.4306      4278.8057     -137170.96    
     26500   2487.8206      3198.7728      4367.3591     -137166.19    
     26600   2511.5378      1301.2189      4469.2738     -137160.71    
     26700   2856.2044     -8328.8232      4563.1567     -137161.78    
     26800   2476.8731     -17711.743      4617.8261     -137152.18    
     26900   2599.5355      2105.7116      4559.4344     -137157.86    
     27000   2554.273      -11244.278      4481.7573     -137162.92    
     27100   2336.445       10076.852      4390.4923     -137161.89    
     27200   2452.9985      12379.421      4349.0482     -137164.6     
     27300   2466.5934      1211.7565      4352.567      -137163.3     
     27400   2557.1882     -1333.6095      4355.9212     -137165.21    
     27500   2528.9118     -3400.3671      4343.3733     -137167.19    
     27600   2578.84        2886.6563      4324.3453     -137169.26    
     27700   2581.28        400.46633      4335.9463     -137169.16    
     27800   2511.693      -4603.4786      4382.1224     -137167.92    
     27900   2390.0948     -6765.8759      4419.6048     -137164.23    
     28000   2621.9362     -3205.7892      4411.0505     -137164.07    
     28100   2486.6795      10385.757      4379.998      -137156.85    
     28200   2511.6893      2818.0684      4391.5828     -137163.96    
     28300   2370.4678     -4446.8085      4426.6866     -137167       
     28400   2314.8926     -6986.3786      4430.0374     -137161.7     
     28500   2597.0327      591.55695      4366.8928     -137164.88    
     28600   2609.2989      10648.742      4306.4686     -137166.39    
     28700   2456.004      -312.30435      4292.711      -137170.08    
     28800   2423.0767      4098.182       4304.7784     -137170.92    
     28900   2402.547      -178.17127      4360.3878     -137167.72    
     29000   2370.0489      1445.8263      4413.2101     -137162.5     
     29100   2530.4389     -9851.1964      4476.2846     -137161.25    
     29200   2659.5997     -9747.565       4532.888      -137162.81    
     29300   2456.7699      922.17161      4552.7106     -137159.11    
     29400   2362.3444     -18730.764      4523.7709     -137159.31    
     29500   2559.587       7589.3068      4408.8169     -137170.34    
     29600   2354.9642      13323.884      4362.0966     -137169.07    
     29700   2286.4207      2051.8354      4385.2076     -137164.66    
     29800   2560.495      -6492.7396      4399.9589     -137163.07    
     29900   2709.2129     -6606.403       4391.1285     -137165.7     
     30000   2421.1309      3112.4755      4381.711      -137162.92    
     30100   2325.7061      12634.917      4386.1803     -137163.44    
     30200   2628.7937     -1458.7512      4424.9889     -137166.03    
     30300   2915.3506     -2871.0939      4475.2823     -137164.62    
     30400   2481.8849     -1208.3154      4546.2724     -137156.63    
     30500   2472.097      -13659.517      4570.131      -137160.1     
     30600   2475.6485     -6288.4891      4509.7831     -137161.32    
     30700   2609.785      -4328.9404      4416.9754     -137166.9     
     30800   2241.1705     -4212.168       4328.0934     -137163.68    
     30900   2091.4884      2081.7737      4239.2293     -137167.99    
     31000   2481.0314      7659.2905      4185.6731     -137174.34    
     31100   2538.6893      13028.457      4223.6229     -137166.62    
     31200   2475.9251     -6825.5185      4327.9673     -137164.18    
     31300   2427.2832     -7635.9987      4405.2717     -137160.19    
     31400   2687.2277      6094.7675      4448.0471     -137160.22    
     31500   2442.5625      507.30206      4490.4942     -137157.82    
     31600   2412.8301     -4630.0137      4520.3624     -137164       
     31700   2404.9817     -10737.563      4504.1709     -137161.66    
     31800   2663.9225      1689.3534      4428.9076     -137164.55    
     31900   2445.9074      3535.6938      4369.515      -137158.57    
     32000   2621.6595      6482.6489      4341.1243     -137168.49    
     32100   2268.4407     -3010.7744      4359.1558     -137166.3     
     32200   2539.3056     -9462.6986      4341.4727     -137171.09    
     32300   2764.4269      5617.9279      4302.6416     -137172.02    
     32400   2602.7602      979.91696      4346.1066     -137167.23    
     32500   2439.2631     -8393.9081      4384.3756     -137163.37    
     32600   2566.5738      594.19045      4392.4939     -137166.1     
     32700   2546.5598     -13612.629      4411.5416     -137167.79    
     32800   2294.9089     -5655.199       4358.6299     -137167.33    
     32900   2289.5242      14225.687      4275.075      -137169.86    
     33000   2604.4852     -831.41361      4264.9772     -137171.97    
     33100   2638.6022      2457.9531      4283.0703     -137168.13    
     33200   2419.1282      7673.2267      4328.7092     -137165.78    
     33300   2229.92       -9811.926       4396.3555     -137165.47    
     33400   2306.876      -8959.1264      4395.3873     -137167.08    
     33500   2540.2353      6684.7876      4333.5802     -137163.67    
     33600   2661.5916      13639.041      4302.9087     -137166.21    
     33700   2449.3741     -118.58203      4343.0673     -137166.76    
     33800   2426.0744     -8853.7249      4393.3046     -137170.05    
     33900   2315.3323     -2583.4465      4399.8139     -137162.92    
     34000   2431.2159      8638.3943      4361.457      -137158.94    
     34100   2638.7852      88.486855      4335.5194     -137165.91    
     34200   2490.2538      6904.9921      4338.5394     -137166.89    
     34300   2343.3034      6363.4136      4377.2106     -137166.59    
     34400   2535.2669     -7634.0035      4433.5014     -137168.49    
     34500   2552.2274     -2194.4662      4450.1377     -137160.04    
     34600   2807.8835      708.52961      4426.632      -137165.63    
     34700   2670.2303     -7750.8298      4403.0606     -137167.68    
     34800   2560.0985     -1841.3322      4359.827      -137167.69    
     34900   2598.2485     -12600.187      4321.7736     -137172       
     35000   2289.1139     -1090.004       4261.4118     -137166.95    
     35100   2619.8157      7371.8949      4209.9756     -137170.45    
     35200   2715.0901      15131.865      4225.4619     -137166.65    
     35300   2429.3727     -5408.8898      4329.3785     -137163.28    
     35400   2408.0966     -2464.6333      4415.7768     -137165.04    
     35500   2504.6987     -11379.574      4473.3145     -137165.74    
     35600   2497.2119     -8451.1507      4475.5282     -137163.2     
     35700   2565.6743     -5038.0373      4411.4924     -137164.83    
     35800   2724.1528      8640.4399      4350.3813     -137171.25    
     35900   2419.3579      724.33822      4364.8835     -137168.13    
     36000   2402.187      -5474.294       4408.9377     -137166.09    
     36100   2773.506       377.61247      4428.3951     -137162.78    
     36200   2592.3138     -6266.8678      4454.4953     -137158.85    
     36300   2517.7903     -8126.9464      4448.6695     -137164.61    
     36400   2265.1146     -6287.9746      4407.9273     -137162.52    
     36500   2492.4046      3280.3488      4334.8749     -137166.94    
     36600   2590.647       9584.4616      4269.902      -137165.61    
     36700   2817.894       9174.1825      4259.3222     -137168.7     
     36800   2514.9051     -978.87419      4327.4919     -137168.09    
     36900   2187.8022     -9796.7363      4397.9873     -137162.22    
     37000   2488.1998      8921.1092      4405.9422     -137164.24    
     37100   2553.6642      1031.8284      4433.3754     -137162.61    
     37200   2631.5413     -4652.8642      4466.9348     -137165.88    
     37300   2447.3601     -5052.8859      4468.3835     -137163.54    
     37400   2545.8948     -1610.3655      4422.492      -137166.41    
     37500   2502.8984      16727.909      4373.8499     -137165.93    
     37600   2533.1228     -5239.1105      4401.4481     -137169.09    
     37700   2301.9123      643.42474      4415.2066     -137166.29    
     37800   2101.9048     -10773.522      4400.7105     -137166.99    
     37900   2367.1148      5053.9574      4329.1425     -137168.36    
     38000   2721.6964      12548.291      4302.5926     -137170.21    
     38100   2492.9249     -524.20173      4344.5936     -137165.48    
     38200   2394.7162      7746.9147      4380.8077     -137166.04    
     38300   2490.4395     -3087.7174      4436.1177     -137169.78    
     38400   2483.5187     -476.69916      4484.1159     -137163.95    
     38500   2630.9206      1213.9892      4532.8995     -137160.48    
     38600   2423.9203     -6848.3381      4565.4316     -137153.77    
     38700   2538.5014     -4152.5651      4528.3201     -137161.68    
     38800   2360.0921     -7044.7682      4458.6306     -137166.19    
     38900   2536.1031     -1061.743       4364.8426     -137171.31    
     39000   2447.7147      8681.8279      4294.6875     -137165.99    
     39100   2667.1122     -5155.2651      4251.3075     -137168.63    
     39200   2424.5046      14500.847      4211.2973     -137168.03    
     39300   2446.658      -3094.2223      4231.6072     -137176.69    
     39400   2426.3426      2701.5919      4263.2343     -137173.13    
     39500   2530.1339     -3723.5591      4313.3572     -137169.25    
     39600   2561.6678      1000.5981      4345.355      -137167.34    
     39700   2418.7169     -12862.617      4397.4452     -137162.37    
     39800   2748.3466     -1533.9888      4406.8446     -137163.96    
     39900   2673.9807      1019.1764      4400.0377     -137160.33    
     40000   2501.9465     -5183.8711      4408.3491     -137163.19    
     40100   2523.2232     -4915.0995      4393.0921     -137166.14    
     40200   2442.7348      17928.233      4351.6651     -137163.46    
     40300   2392.5062      2184.4614      4381.2916     -137160.67    
     40400   2528.1589     -4018.9613      4421.456      -137162.76    
     40500   2722.3876     -3961.5872      4436.4555     -137161.58    
     40600   2677.5603      4231.1008      4452.0229     -137157.72    
     40700   2466.0165     -9602.9358      4471.1573     -137163.17    
     40800   2361.4397     -4366.1367      4427.8191     -137163.9     
     40900   2482.094       10332.077      4362.619      -137165.62    
     41000   2536.3633      6158.3342      4358.7238     -137161.72    
     41100   2684.9894      1296.9528      4383.5172     -137160.65    
     41200   2467.0385      2132.5673      4418.778      -137161.07    
     41300   2378.0499     -21725.377      4442.7419     -137164.35    
     41400   2510.0039      5365.2872      4368.2481     -137165.58    
     41500   2677.1417     -621.60431      4316.2602     -137167.54    
     41600   2555.037      -7565.799       4281.4906     -137170.53    
     41700   2500.5837      5901.5131      4258.6494     -137176.81    
     41800   2294.5147      1067.9387      4274.7893     -137170.28    
     41900   2695.8301      4938.1112      4297.1628     -137174.37    
     42000   2426.5795      3296.9896      4362.3196     -137166.39    
     42100   2387.2278     -126.13152      4447.9094     -137163.38    
     42200   2492.7044     -12384.477      4493.9344     -137163       
     42300   2663.6058     -3649.1776      4446.6138     -137165.09    
     42400   2674.5978      2795.7884      4386.1421     -137165.85    
     42500   2414.0701      17209.046      4351.2389     -137165.18    
     42600   2269.6865     -2702.9544      4369.9698     -137167.78    
     42700   2431.2102     -5848.5717      4373.5862     -137170.67    
     42800   2445.27        9051.5055      4355.0952     -137168.7     
     42900   2524.1399      4758.0488      4371.4922     -137168.12    
     43000   2421.6037     -2377.0694      4403.7976     -137164.8     
     43100   2565.28       -9999.1248      4417.192      -137165.8     
     43200   2568.0716      2496.3557      4397.7799     -137159.78    
     43300   2930.5684     -3241.9827      4386.4366     -137167.92    
     43400   2378.9676     -1812.8449      4403.2615     -137163.84    
     43500   2423.5443     -8401.5592      4410.2677     -137166.21    
     43600   2588.1702      988.44545      4403.1957     -137165.56    
     43700   2695.2956     -21537.344      4417.1728     -137164.5     
     43800   2681.6168      8380.5782      4369.3687     -137167.65    
     43900   2310.4194      7518.408       4349.5835     -137167.31    
     44000   2330.7267     -4054.1106      4350.2343     -137164.51    
     44100   2666.4843      2485.3293      4336.0885     -137167.22    
     44200   2463.4484      7791.3459      4356.1732     -137162.35    
     44300   2425.3759     -5994.859       4412.2854     -137165.08    
     44400   2152.8572     -6334.345       4432.1576     -137165.66    
     44500   2394.1869     -5573.5604      4378.9491     -137169.52    
     44600   2566.9799     -1240.4311      4282.2736     -137166.6     
     44700   2721.1481      16186.421      4181.7864     -137171.83    
     44800   2422.1404      3151.2618      4188.1273     -137171.04    
     44900   2289.8751      3468.0223      4264.2344     -137169.45    
     45000   2348.6105      249.79461      4378.0567     -137164.25    
     45100   2456.4615     -9024.0573      4509.0501     -137162.19    
     45200   2491.5259     -12134.559      4595.475      -137159.2     
     45300   2578.9185     -7952.6151      4585.4245     -137157.16    
     45400   2586.2715     -8370.58        4487.4845     -137160.09    
     45500   2456.6793      6369.9293      4354.2814     -137166.69    
     45600   2570.7963      3629.3942      4278.7068     -137171.38    
     45700   2457.2423      10869.744      4242.079      -137169.31    
     45800   2510.5499      11758.689      4267.7507     -137170.16    
     45900   2448.8766      7535.3434      4367.0584     -137160.98    
     46000   2669.0483     -6977.4009      4504.1953     -137160.34    
     46100   2632.9258     -15983.775      4589.4061     -137160.78    
     46200   2324.4134     -12697.71       4565.4947     -137159.56    
     46300   2571.0252     -8256.7215      4472.1914     -137166.25    
     46400   2459.91        1460.5652      4371.9625     -137162.01    
     46500   2619.0123      9591.082       4295.3934     -137167.04    
     46600   2322.4681      4850.5564      4254.694      -137168.18    
     46700   2462.1658      7329.4023      4247.4676     -137173.7     
     46800   2520.611       1486.3926      4290.1607     -137171.39    
     46900   2393.7368      3876.1154      4342.1253     -137162.11    
     47000   2614.1945     -5663.9376      4371.9979     -137164.81    
     47100   2567.7849     -5239.7157      4363.022      -137167.83    
     47200   2552.9172      4415.0475      4348.6085     -137170.52    
     47300   2281.4821     -124.05814      4365.6329     -137164.41    
     47400   2392.0062      6433.7595      4375.1935     -137164.35    
     47500   2481.3829     -9886.1361      4397.519      -137163.66    
     47600   2474.3035      5329.4001      4390.6403     -137162.06    
     47700   2597.6523     -2651.3979      4388.5671     -137164.96    
     47800   2397.6641     -4495.625       4381.4879     -137164.94    
     47900   2373.3859     -2315.7928      4375.5286     -137169.44    
     48000   2451.5929     -4532.1027      4373.6457     -137168.27    
     48100   2552.2758      584.27517      4349.4162     -137164.03    
     48200   2576.72        18471.785      4335.2794     -137163.58    
     48300   2593.9634     -5568.8784      4409.0865     -137171.35    
     48400   2170.8809     -5863.8778      4478.0289     -137163.34    
     48500   2445.4731     -5232.2373      4511.9825     -137165.12    
     48600   2619.3082     -15768.013      4531.1627     -137165.62    
     48700   2489.9516     -6584.4944      4487.7478     -137161.13    
     48800   2654.3963      4885.2779      4394.7237     -137166.56    
     48900   2435.3886     -8821.3489      4301.0443     -137170.64    
     49000   2497.5258      16224.722      4196.8144     -137174.63    
     49100   2422.1484      8794.5215      4188.2916     -137172.68    
     49200   2599.1198      5620.5654      4271.3242     -137171.54    
     49300   2604.3834     -4959.7585      4379.1495     -137164.01    
     49400   2595.8606     -9031.7122      4424.091      -137164.08    
     49500   2620.7957     -1384.8046      4415.1796     -137167.01    
     49600   2189.6357     -4344.472       4416.7914     -137164.19    
     49700   2314.9387     -4357.8202      4401.9447     -137167.45    
     49800   2717.9057      10823.051      4367.7134     -137169.49    
     49900   2271.5352      6395.9199      4400.579      -137160.77    
     50000   2603.2604     -4790.9196      4458.9826     -137171.41    
     50100   2492.8735     -17635.08       4484.2792     -137166.3     
     50200   2604.206       9345.2172      4421.8695     -137161.69    
     50300   2686.0129      4431.1067      4384.007      -137164.08    
     50400   2429.3386     -8461.4967      4389.4148     -137164.31    
     50500   2406.2269     -7281.1028      4367.8403     -137166.38    
     50600   2600.2696      6001.3291      4319.1092     -137170.07    
     50700   2635.0356      7522.6968      4302.5674     -137172.5     
     50800   2369.06        3960.7435      4322.6937     -137171.22    
     50900   2492.6924     -7086.9873      4340.8066     -137172.92    
     51000   2764.1953      2357.5191      4325.0346     -137169.96    
     51100   2536.0249     -4821.6032      4324.5389     -137165.36    
     51200   2535.6405     -5138.9313      4318.1447     -137168.43    
     51300   2483.2357      896.26453      4306.8124     -137169.68    
     51400   2464.0011      1168.7         4324.9297     -137167.79    
     51500   2516.3748     -1999.8038      4358.0605     -137160.02    
     51600   2587.7623      3056.432       4377.0851     -137160.13    
     51700   2391.8067     -15400.273      4383.8167     -137161.83    
     51800   2367.6616      2425.8567      4323.3832     -137165.33    
     51900   2372.4842      10019.691      4277.5012     -137164.74    
     52000   2628.1036      9794.5693      4284.1359     -137169.87    
     52100   2535.0998     -12442.816      4324.0371     -137168.38    
     52200   2391.2227      11654.315      4334.7763     -137162.77    
     52300   2464.6835      1864.8292      4368.5738     -137161.89    
     52400   2728.708      -2604.6755      4424.719      -137164.77    
     52500   2863.8334     -2189.8438      4485.3614     -137159.73    
     52600   2592.753      -7335.2039      4514.0036     -137158.36    
     52700   2424.1429     -3678.2883      4495.9043     -137160.28    
     52800   2551.9281     -6539.6902      4432.0989     -137165.79    
     52900   2452.155       6314.0527      4339.236      -137167.06    
     53000   2314.4489      4036.0715      4287.0856     -137169.93    
     53100   2313.8384      1371.4441      4261.0927     -137174.73    
     53200   2402.8835      4424.6549      4256.3401     -137167.37    
     53300   2571.6612      11021.431      4298.1415     -137166.61    
     53400   2352.357       5184.9004      4404.3755     -137163.51    
     53500   2367.0172     -10321.098      4523.3923     -137160.59    
     53600   2592.5331     -8248.6568      4561.9439     -137157.43    
     53700   2618.4596     -6243.1605      4516.4464     -137158.42    
     53800   2610.3714      2391.0208      4438.7827     -137165.41    
     53900   2358.0788      1459.0396      4402.6816     -137163.05    
     54000   2629.0298     -7405.5342      4381.7065     -137168.62    
     54100   2690.276       5686.3613      4347.4789     -137170.41    
     54200   2257.0122      6032.7698      4356.8786     -137163.91    
     54300   2174.0876      1649.9749      4385.3576     -137165.9     
     54400   2485.3215      2872.4471      4391.9279     -137166.63    
     54500   2504.1857      4181.3497      4391.3035     -137162.58    
     54600   2666.5701     -7506.3743      4405.6779     -137169.11    
     54700   2318.651       3860.2139      4406.6243     -137165       
     54800   2316.2871     -1836.0266      4402.9188     -137163.71    
     54900   2582.5793      4309.4891      4382.1032     -137164.77    
     55000   2782.3465      11421.851      4372.3687     -137157.5     
     55100   2734.7679      2783.5561      4384.6115     -137159.07    
     55200   2348.5521      10793.03       4399.6088     -137156.74    
     55300   2602.2597     -1800.0698      4445.995      -137164.46    
     55400   2487.7028     -12621.515      4456.9022     -137163.16    
     55500   2469.3313      11389.338      4399.0136     -137162.38    
     55600   2582.6849      823.89778      4378.9334     -137162.49    
     55700   2523.673       3847.4531      4388.8417     -137158.89    
     55800   2531.0311      4565.2229      4417.7003     -137161.38    
     55900   2378.9325     -9075.7883      4449.5517     -137165.66    
     56000   2252.8973     -2891.7407      4417.1001     -137163.4     
     56100   2595.1356      5458.3582      4371.0676     -137167.15    
     56200   2559.1983      3612.6778      4373.5841     -137167.76    
     56300   2486.119      -3613.1133      4405.0618     -137168.29    
     56400   2452.3879      4038.2314      4415.9963     -137167.28    
     56500   2335.9569     -4893.495       4424.0426     -137162.6     
     56600   2529.8916     -12178.908      4403.2938     -137164.96    
     56700   2589.6855      1541.4178      4340.4741     -137165.61    
     56800   2616.8826      1818.2821      4311.3683     -137165.78    
     56900   2509.9508      6627.2362      4311.3577     -137167.36    
     57000   2321.0055     -4840.924       4328.3727     -137168.29    
     57100   2532.1448      7468.6007      4330.1195     -137169.97    
     57200   2542.0217     -2168.6742      4368.9091     -137162.46    
     57300   2823.579      -1388.0047      4412.7407     -137161.13    
     57400   3017.6954     -253.98348      4457.1142     -137158.01    
     57500   2546.2559     -1570.3575      4483.5132     -137158.59    
     57600   2511.3031     -13152.462      4451.0044     -137162.25    
     57700   2634.3254     -1624.6114      4334.2875     -137168.96    
     57800   2453.0204      22222.607      4221.9287     -137170.09    
     57900   2285.6916      29970.316      4241.0555     -137168.86    
     58000   2348.8862     -6517.7705      4393.5325     -137165.79    
     58100   2488.7478     -7479.7312      4529.7958     -137160.31    
     58200   2442.7196     -21444.194      4594.8305     -137158.22    
     58300   2395.4261     -4677.1079      4510.9277     -137159.49    
     58400   2470.3244      6645.8274      4398.8251     -137163.68    
     58500   2300.6601     -2241.2737      4340.6731     -137164.02    
     58600   2435.0505      438.67492      4283.1734     -137169.39    
     58700   2542.7299      12331.792      4280.1602     -137167.13    
     58800   2745.42       -1459.2533      4338.8079     -137167.08    
     58900   2585.0399     -1275.2398      4385.3987     -137162.87    
     59000   2326.1775     -4527.7332      4407.0892     -137164.08    
     59100   2355.5539      5794.6045      4378.9767     -137167.34    
     59200   2520.0934      809.83613      4354.2761     -137166.69    
     59300   2659.0476      3942.0062      4360.4452     -137163.27    
     59400   2623.5598      484.81909      4394.1795     -137164.4     
     59500   2413.0955      3267.6287      4421.6164     -137161.83    
     59600   2435.483      -5307.9798      4431.7762     -137162.67    
     59700   2564.35        651.76478      4399.6959     -137163.47    
     59800   2764.8415      7742.0158      4368.3987     -137166.11    
     59900   2399.1498      4574.6897      4386.6448     -137165.44    
     60000   2293.9492     -9087.032       4429.711      -137166.13    
     60100   2523.9729     -8339.8811      4436.3327     -137168.49    
     60200   2504.5444     -1555.2026      4394.909      -137163.4     
     60300   2569.0887      2948.0519      4324.3616     -137165.83    
     60400   2299.2957      8893.3699      4274.9767     -137171.54    
     60500   2419.3094      3544.1845      4265.6354     -137172.78    
     60600   2734.506       5975.1518      4290.6008     -137173.63    
     60700   2635.8857     -11482.687      4358.4995     -137167.82    
     60800   2542.9936     -10965.581      4410.5927     -137162.16    
     60900   2687.7714     -6686.2745      4420.3472     -137160.62    
     61000   2673.6904      14518.819      4399.3766     -137156.69    
     61100   2487.158       4302.9175      4422.8382     -137162.69    
     61200   2519.3646     -11641.572      4442.1676     -137167.36    
     61300   2588.7072     -2659.8158      4394.4876     -137168.46    
     61400   2534.3544      1357.6372      4344.8481     -137165.94    
     61500   2478.647       4276.8823      4316.5876     -137166.97    
     61600   2355.6568      3444.0442      4311.7131     -137167.26    
     61700   2421.0934      5000.4284      4319.2701     -137169.46    
     61800   2594.6919      4828.6491      4357.5516     -137166.45    
     61900   2531.9317     -2133.9342      4453.3718     -137159.61    
     62000   2559.255      -11569.242      4532.6212     -137161.13    
     62100   2423.9422     -12032.869      4536.1087     -137159.48    
     62200   2522.6094      11025.642      4451.1963     -137166.81    
     62300   2374.0185     -7250.3162      4389.8277     -137168.77    
     62400   2372.6241     -3081.5764      4311.5477     -137166.84    
     62500   2511.0334      19052.435      4251.6555     -137163.33    
     62600   2469.465       5038.4897      4279.4952     -137159.82    
     62700   2758.2541      1828.3843      4341.383      -137168.82    
     62800   2407.2531     -6652.9239      4421.0874     -137169.11    
     62900   2356.234      -11056.742      4470.5721     -137168.75    
     63000   2417.4976     -3921.5803      4466.6809     -137162.35    
     63100   2396.4888      1214.2851      4413.6934     -137158.36    
     63200   2465.7247      10771.788      4341.4511     -137160.54    
     63300   2552.7941     -8151.4093      4299.8281     -137167.09    
     63400   2484.9027     -8598.3253      4244.0958     -137174.2     
     63500   2441.5903      17730.763      4203.5297     -137174.24    
     63600   2474.8746     -595.30921      4263.1582     -137172.24    
     63700   2596.6679     -16304.209      4343.2345     -137172.49    
     63800   2555.7474      3524.0495      4365.9274     -137169.87    
     63900   2467.895      -3467.1191      4385.4059     -137166.74    
     64000   2759.4956      5513.3183      4387.1882     -137166.66    
     64100   2699.1552     -6036.4113      4410.7769     -137162.3     
     64200   2329.499      -5587.636       4401.5834     -137163.53    
     64300   2461.3612     -1396.1878      4377.6512     -137167.45    
     64400   2536.2607      241.12743      4365.8982     -137165.62    
     64500   2542.1166      8745.9606      4361.3784     -137163.84    
     64600   2394.1893     -5669.7464      4386.0467     -137166.75    
     64700   2295.4412     -3135.8542      4389.2975     -137168.49    
     64800   2591.8169      7518.766       4354.414      -137166.99    
     64900   2744.2774      1914.1486      4362.5103     -137167.33    
     65000   2422.628       4284.0491      4399.8564     -137163.63    
     65100   2335.9056     -4628.622       4447.9854     -137164.4     
     65200   2586.2394     -3201.6867      4448.3974     -137166.68    
     65300   2808.2817      849.88114      4416.5526     -137164.76    
     65400   2577.589       4750.2987      4399.7797     -137160.69    
     65500   2417.7345     -1261.4467      4402.9076     -137167.15    
     65600   2458.9582     -1854.8507      4404.7735     -137169.23    
     65700   2525.9385     -3077.7227      4367.3661     -137168.67    
     65800   2781.0776      8900.4899      4326.6113     -137168.68    
     65900   2863.8294     -6160.1697      4349.9558     -137166.85    
     66000   2500.4734     -8190.4326      4366.0317     -137165       
     66100   2459.1128     -1088.2269      4350.0455     -137169.47    
     66200   2508.0779      2949.858       4330.78       -137166.89    
     66300   2462.8403      10325.933      4319.0925     -137161.45    
     66400   2719.4375     -4465.4176      4372.0936     -137167.28    
     66500   2521.4918     -11376.229      4421.0367     -137164.83    
     66600   2308.4817     -5892.0021      4393.7149     -137163.98    
     66700   2499.4457      1473.9651      4335.6549     -137165.21    
     66800   2742.5129      2830.9981      4313.9989     -137165.66    
     66900   2576.8016      6348.4133      4314.9424     -137164.29    
     67000   2465.9297      4668.8423      4344.4949     -137166.83    
     67100   2469.575      -8973.1522      4400.1431     -137168.9     
     67200   2321.2033     -8336.8211      4416.3748     -137162.58    
     67300   2599.4811     -4488.9518      4376.7553     -137165.29    
     67400   2675.7613     -991.30853      4325.9196     -137164.93    
     67500   2485.7688      2515.2203      4284.2094     -137164.46    
     67600   2428.5999      5157.7666      4261.4185     -137172.49    
     67700   2334.2447      5385.7143      4283.3942     -137169.54    
     67800   2550.3097     -5245.9509      4345.8926     -137170.34    
     67900   2646.1412      2223.8878      4401.0347     -137169.54    
     68000   2459.0268     -3883.7369      4465.0986     -137166.34    
     68100   2257.2592     -9219.263       4497.6453     -137166.52    
     68200   2289.4409     -8369.1405      4452.0256     -137164.96    
     68300   2688.0888      3393.6784      4357.4252     -137167.13    
     68400   2695.9522      3056.1748      4302.2212     -137170.88    
     68500   2346.3679      13532.281      4292.454      -137168.03    
     68600   2321.0018      313.98206      4341.3412     -137166.5     
     68700   2470.8498      450.52326      4390.2897     -137163.88    
     68800   2403.9062      3895.4645      4427.2048     -137157.47    
     68900   2798.1811     -10066.452      4450.3119     -137167.53    
     69000   2485.527      -1775.563       4445.536      -137166.23    
     69100   2375.3346     -7292.398       4415.9215     -137165.93    
     69200   2565.613       6427.6063      4339.7486     -137167.12    
     69300   2501.3547      13686.299      4311.7571     -137161.8     
     69400   2642.4973     -84.625754      4359.848      -137166.9     
     69500   2471.2453     -10617.393      4426.7484     -137165.85    
     69600   2321.0835      1539.8163      4468.8846     -137163.46    
     69700   2486.5741     -5691.7448      4482.8184     -137164.29    
     69800   2638.4594      6808.4689      4466.8253     -137158.66    
     69900   2550.3207     -10959.586      4462.6176     -137159.9     
     70000   2531.9513     -8143.7075      4388.8359     -137163.68    
     70100   2427.0811      10657.824      4294.0856     -137164.02    
     70200   2464.9033      10641.967      4252.3883     -137166.63    
     70300   2554.1037      6161.5817      4265.4181     -137169.81    
     70400   2409.3263      2345.4263      4323.4521     -137166.66    
     70500   2558.1983     -7968.0314      4401.0051     -137168.4     
     70600   2492.3279     -11811.283      4453.5021     -137162.73    
     70700   2509.5217      4160.9227      4429.8691     -137160.21    
     70800   2647.9571      6020.7424      4381.298      -137163.88    
     70900   2487.9766      4745.5448      4341.5799     -137166.61    
     71000   2391.2953      7714.2375      4328.8985     -137168.08    
     71100   2467.3192     -1531.1917      4362.3121     -137168.06    
     71200   2678.8861     -2268.1243      4395.7805     -137166.73    
     71300   2610.2106     -4238.5468      4406.2488     -137164.04    
     71400   2460.7482     -1670.0622      4392.0929     -137166.25    
     71500   2305.7947      535.65567      4358.3446     -137170.25    
     71600   2253.1878      11885.473      4296.3128     -137165.93    
     71700   2615.9929      4876.0879      4256.1593     -137172.52    
     71800   2674.411      -1358.4021      4263.3627     -137174.32    
     71900   2359.8684     -2497.5092      4297.5873     -137169.03    
     72000   2209.7719     -1794.7853      4330.5452     -137168.81    
     72100   2286.7568      2385.8346      4360.5615     -137165.02    
     72200   2652.4048     -4117.4971      4410.4715     -137167.06    
     72300   2493.8618     -3867.6643      4464.1806     -137161.49    
     72400   2469.2097     -11319.87       4478.0929     -137163.5     
     72500   2378.5579      6871.627       4406.9527     -137164.98    
     72600   2602.9273      1746.1202      4348.0341     -137171.44    
     72700   2439.8419      3134.6032      4324.2085     -137167.26    
     72800   2435.5038      2601.3516      4311.0727     -137165.06    
     72900   2690.059       3060.7573      4324.1599     -137165.99    
     73000   2700.6469      4411.3184      4399.3413     -137166.13    
     73100   2403.0306     -16558.926      4510.906      -137163.99    
     73200   2229.8314     -9590.7812      4519.2641     -137162.59    
     73300   2719.8014      577.14712      4464.0803     -137165.7     
     73400   2590.464      -111.60579      4414.8005     -137161.53    
     73500   2575.6932      485.93057      4363.9691     -137165.9     
     73600   2453.9711      8563.5751      4304.9643     -137168.39    
     73700   2379.5612      9930.2101      4278.7852     -137168.88    
     73800   2435.5043      4561.3621      4293.1498     -137167.85    
     73900   2645.1956      8895.369       4357.4567     -137162.03    
     74000   2594.7331      2401.3141      4461.304      -137160.07    
     74100   2351.5543     -7835.6852      4528.5316     -137159.09    
     74200   2614.9789     -5120.6579      4528.5704     -137167.45    
     74300   2557.6363     -4958.3577      4505.8018     -137164.72    
     74400   2671.6489     -4326.3398      4468.3293     -137163.97    
     74500   2522.2012      12254.287      4406.7886     -137160.11    
     74600   2516.2337      5782.7424      4408.8047     -137163.52    
     74700   2349.5112     -6122.3896      4450.8212     -137165.49    
     74800   2344.5803     -11779.325      4427.8738     -137166.37    
     74900   2573.9219      662.76491      4324.5636     -137163.37    
     75000   2665.4857      23145.079      4230.7318     -137165.49    
     75100   2499.9365      6832.5311      4262.9606     -137166.83    
     75200   2409.6575     -884.77909      4345.9346     -137167.05    
     75300   2279.8526      1009.2529      4416.4552     -137162.68    
     75400   2564.4871     -1720.5343      4445.4522     -137159.71    
     75500   2684.1981     -21.164331      4450.6235     -137160.4     
     75600   2484.949      -19863.679      4432.6377     -137162.27    
     75700   2581.8559     -1890.0042      4353.4596     -137168.25    
     75800   2422.3975      3385.9536      4307.943      -137166.58    
     75900   2319.8079      7632.6634      4286.1893     -137168.79    
     76000   2301.7852      6005.7327      4285.565      -137174.63    
     76100   2366.1434     -4938.7628      4332.055      -137173.51    
     76200   2313.1317     -1079.6878      4383.2459     -137163.2     
     76300   2490.4533      6604.9506      4422.9619     -137163.33    
     76400   2515.2272     -9547.212       4470.8297     -137161.37    
     76500   2586.9463      7085.9642      4483.3001     -137160.16    
     76600   2716.3315     -19360.753      4503.6417     -137161.13    
     76700   2525.8145     -2522.0573      4446.8938     -137164.1     
     76800   2376.591      -657.98777      4374.5868     -137167.25    
     76900   2421.3454     -3653.7837      4292.4843     -137169.19    
     77000   2528.637       9453.0163      4233.6044     -137168.3     
     77100   2762.9972      12097.808      4266.6862     -137166.11    
     77200   2557.3637     -2094.1748      4372.0471     -137160.88    
     77300   2423.8398     -14047.244      4434.7624     -137168.65    
     77400   2367.6719     -6701.2909      4414.5004     -137168.51    
     77500   2566.4136     -1291.6829      4373.8023     -137168.85    
     77600   2544.962      -1693.0546      4346.0186     -137163.81    
     77700   2601.5145      3168.8383      4337.8451     -137168.34    
     77800   2469.9283     -4354.5686      4361.112      -137167.81    
     77900   2385.445       5737.0946      4376.7276     -137164.39    
     78000   2517.2687     -10529.771      4413.9565     -137165.1     
     78100   2607.3782     -1654.4007      4430.61       -137163.98    
     78200   2556.0427      2942.0926      4430.6135     -137161.26    
     78300   2377.2419     -5034.7143      4415.8133     -137163.06    
     78400   2475.1774     -1561.6672      4354.0101     -137171.95    
     78500   2395.4283     -3153.985       4275.4337     -137168.8     
     78600   2725.6599      16006.431      4203.9114     -137170.3     
     78700   2573.5129      10303.31       4240.5771     -137165.98    
     78800   2118.8746     -9665.3113      4355.4788     -137164.8     
     78900   2212.1212     -7721.3711      4412.662      -137164.5     
     79000   2466.9701      12036.372      4417.3497     -137164.66    
     79100   2651.5374     -8864.777       4469.5923     -137165.33    
     79200   2410.1798     -2767.7287      4469.0447     -137159.48    
     79300   2405.3742      4518.8744      4403.5889     -137161.69    
     79400   2393.5961     -1157.8039      4350.0888     -137167.27    
     79500   2357.7732      6158.4147      4319.3027     -137168.46    
     79600   2570.5724      3853.1969      4318.425      -137167.53    
     79700   2606.4236     -825.90505      4349.5593     -137164.71    
     79800   2540.4929     -9211.5276      4395.2445     -137166.9     
     79900   2329.2159     -3734.6099      4418.8382     -137169.37    
     80000   2284.5752     -885.28461      4408.2692     -137166.16    
     80100   2490.4795     -9875.0251      4363.8702     -137165.26    
     80200   2496.5183      13835.301      4279.742      -137165.22    
     80300   2567.9467      5289.5713      4252.4282     -137169.35    
     80400   2129.8087      13279.175      4269.7902     -137163.07    
     80500   2439.0407     -3760.6546      4328.5121     -137166.44    
     80600   2722.6877      2581.4781      4382.5109     -137163.16    
     80700   2632.889      -83.228161      4456.545      -137163.92    
     80800   2363.4071     -11484.261      4508.4728     -137161.79    
     80900   2373.0353     -4446.8636      4486.0569     -137162.05    
     81000   2779.172      -7109.2902      4434.1724     -137164.74    
     81100   2704.8971      14814.066      4370.0638     -137164.05    
     81200   2537.9335      7259.3957      4398.4136     -137164.53    
     81300   2436.3696     -20634.89       4453.9495     -137165.52    
     81400   2416.7378     -2520.7652      4408.0176     -137164.33    
     81500   2834.2671      4529.7491      4360.0029     -137168.26    
     81600   2717.2482      6915.341       4372.2658     -137160.5     
     81700   2439.675      -6621.4582      4388.4431     -137164.76    
     81800   2497.7919     -8170.0113      4368.1213     -137168.77    
     81900   2528.1586      7661.2437      4336.5135     -137167.37    
     82000   2514.9577     -2225.9988      4333.6213     -137164.62    
     82100   2633.0728      5028.3443      4333.4465     -137166.22    
     82200   2408.392       5786.4322      4350.8025     -137163.83    
     82300   2275.4304      4758.7239      4371.1463     -137164.36    
     82400   2530.2768      699.37379      4391.7099     -137167.9     
     82500   2719.2256     -9997.9582      4417.8503     -137164.88    
     82600   2683.4018      7893.1533      4413.7718     -137162.87    
     82700   2269.918       843.73427      4442.6257     -137160.51    
     82800   2390.6879     -1196.7196      4458.5322     -137167.87    
     82900   2294.2677      1483.61        4456.2274     -137162.35    
     83000   2593.5251     -262.70986      4444.9618     -137163.78    
     83100   2571.0802      1358.1817      4423.4957     -137161.32    
     83200   2355.9356     -2335.2704      4416.0571     -137160.76    
     83300   2370.9123      4857.7668      4394.1118     -137166.19    
     83400   2296.7756     -1713.1755      4384.3058     -137165.33    
     83500   2593.0548     -4171.6037      4367.2793     -137164.67    
     83600   2532.2018      12132.85       4349.0116     -137159.9     
     83700   2409.4294     -5442.0215      4367.1325     -137162.16    
     83800   2314.1641      6137.5443      4377.1547     -137163.38    
     83900   2584.475      -4078.2968      4414.7631     -137168.49    
     84000   2736.9106     -7115.3335      4448.9545     -137162.07    
     84100   2648.7808     -6365.9276      4463.2685     -137158.33    
     84200   2493.6337      6597.0817      4436.7627     -137161.37    
     84300   2377.3657     -602.08173      4398.3277     -137161.65    
     84400   2687.3473      2671.5272      4346.3841     -137167.99    
     84500   2561.7753      8353.3972      4308.1253     -137169.97    
     84600   2355.7162     -364.95516      4324.8631     -137169.89    
     84700   2486.9075     -1723.1337      4340.6272     -137170.78    
     84800   2508.873       4930.174       4354.9761     -137167.13    
     84900   2548.2833     -6293.8788      4401.7877     -137165.87    
     85000   2353.4085      2020.8103      4431.724      -137160.11    
     85100   2714.4843     -8925.1301      4449.0522     -137163.38    
     85200   2677.7364     -1229.6415      4412.8712     -137157       
     85300   2525.984       12851.079      4362.33       -137160.94    
     85400   2500.6364      7124.9208      4371.4225     -137166.9     
     85500   2412.2005      2356.9721      4400.4362     -137166.16    
     85600   2398.6317     -3017.5929      4427.2815     -137163.57    
     85700   2645.3469     -3947.4115      4429.7764     -137162.64    
     85800   2598.6746     -4163.9581      4411.9        -137161.18    
     85900   2256.6323      892.29418      4379.0787     -137163.01    
     86000   2328.4314      1313.8475      4315.5372     -137166.1     
     86100   2541.8598      19839.383      4243.6714     -137167.42    
     86200   2607.5397      12437.607      4253.2289     -137167.99    
     86300   2298.2455     -2981.6265      4335.2145     -137168.13    
     86400   2280.6391     -12579.033      4417.9915     -137167.64    
     86500   2380.706      -8874.3214      4435.3131     -137165.26    
     86600   2583.1116     -2564.2341      4400.2643     -137166.9     
     86700   2604.7096      6678.2055      4343.4653     -137165.98    
     86800   2359.1352      10804.598      4310.7176     -137164.29    
     86900   2399.0762      642.49223      4297.1402     -137172.35    
     87000   2400.6574     -359.25125      4287.7756     -137172.01    
     87100   2542.5151      10977.522      4304.3046     -137168.06    
     87200   2707.1193     -7957.1665      4398.9231     -137164.37    
     87300   2828.6168     -3958.6006      4487.8293     -137159.61    
     87400   2816.2126     -6679.4943      4535.5682     -137153.06    
     87500   2581.7667     -6530.1039      4536.2193     -137157.48    
     87600   2560.5678     -3821.0402      4491.5649     -137164.27    
     87700   2346.9384     -2143.3411      4418.0923     -137163.95    
     87800   2396.809       2350.4715      4322.7533     -137166.68    
     87900   2549.5833      12110.608      4232.7865     -137169.44    
     88000   2802.7554      9515.435       4225.0785     -137172.26    
     88100   2363.2674      8915.3863      4333.5272     -137161.55    
     88200   2496.1874     -10274.758      4469.0936     -137167.33    
     88300   2344.2782     -18210.814      4522.4632     -137163.34    
     88400   2584.6978     -8976.4122      4480.2556     -137161.72    
     88500   2825.1177      12713.897      4422.886      -137166.49    
     88600   2395.8932     -10894.616      4423.5614     -137160.71    
     88700   2511.3761     -10495.275      4377.6468     -137164.96    
     88800   2588.1917      12269.444      4306.8977     -137165.55    
     88900   2747.6199      5044.1199      4308.3309     -137166       
     89000   2786.2747     -543.03271      4359.7943     -137167.43    
     89100   2518.8398     -15425.58       4426.3308     -137169.82    
     89200   2234.8618     -7331.1583      4424.9597     -137163.48    
     89300   2543.756       6941.6574      4339.936      -137165.65    
     89400   2657.4356      12468.216      4287.4795     -137165.41    
     89500   2630.5762     -698.10075      4312.5341     -137170.28    
     89600   2417.8458      6666.8767      4345.6975     -137167.65    
     89700   2446.2775     -6069.3951      4380.2535     -137168.28    
     89800   2435.8647     -72.626533      4375.7787     -137166.18    
     89900   2659.7253      3946.6697      4352.0863     -137163.76    
     90000   2686.5949      276.14814      4344.781      -137162.87    
     90100   2464.3724     -179.51292      4348.2918     -137166.99    
     90200   2539.7047     -3815.1755      4361.2601     -137170.52    
     90300   2569.9268     -5290.5744      4364.7946     -137168.98    
     90400   2451.5793      2856.0666      4348.868      -137165.74    
     90500   2473.8174      4435.5656      4366.992      -137169.37    
     90600   2288.5824     -843.42322      4408.1244     -137170.42    
     90700   2311.3583     -9264.6128      4434.0723     -137167.7     
     90800   2493.2433     -3106.141       4404.0203     -137164.65    
     90900   2574.7774     -7286.6187      4373.733      -137164.55    
     91000   2487.6233      3526.9864      4314.9451     -137165.41    
     91100   2413.4153      12151.616      4265.4866     -137170.51    
     91200   2389.8807      7944.622       4289.2999     -137173.03    
     91300   2452.2151      2344.442       4351.4161     -137168.39    
     91400   2662.8343     -7283.8031      4428.4135     -137164.31    
     91500   2420.208      -4262.6991      4477.4676     -137160.36    
     91600   2463.7506     -8182.3045      4472.6272     -137164.05    
     91700   2406.8196     -595.04241      4407.0287     -137165.27    
     91800   2464.4224      2425.1055      4328.0524     -137168.69    
     91900   2324.3049      12130.71       4260.6691     -137163.72    
     92000   2490.7364      12686.757      4239.7474     -137162.41    
     92100   2776.3762      8681.8688      4282.9732     -137168.51    
     92200   2365.4516     -7873.3231      4379.1408     -137165.91    
     92300   2391.0299     -15953.702      4447.2431     -137168.62    
     92400   2450.9892     -7333.6199      4445.0245     -137166.04    
     92500   2469.268      -1874.1645      4412.2022     -137162.37    
     92600   2547.6129      2269.502       4359.3318     -137164.88    
     92700   2510.7679     -1057.5814      4323.7328     -137169.14    
     92800   2380.3214      9870.8522      4325.2179     -137169.66    
     92900   2344.3145     -9924.0274      4376.6797     -137167.4     
     93000   2406.212      -358.48213      4379.3055     -137162.26    
     93100   2533.1159      5270.7281      4365.2749     -137164.09    
     93200   2485.632       4148.4937      4383.6306     -137164.43    
     93300   2545.8053     -5211.1966      4430.783      -137169.12    
     93400   2478.257      -14947.348      4456.0601     -137168.1     
     93500   2589.2352     -800.71987      4380.3277     -137165.14    
     93600   2668.9123      12873.741      4293.0826     -137163.45    
     93700   2291.5705      11963.959      4294.5061     -137162.92    
     93800   2305.6936     -1800.6282      4344.219      -137165.73    
     93900   2549.0157     -2137.6928      4348.0772     -137168.61    
     94000   2516.0693      5803.8172      4343.1919     -137166.34    
     94100   2282.6468     -1060.6406      4381.5824     -137160.92    
     94200   2254.3296      336.31787      4412.1164     -137159.64    
     94300   2597.2098     -2310.4132      4434.5481     -137165.15    
     94400   2694.7999     -6112.8486      4443.9875     -137165.52    
     94500   2382.5548      3395.1742      4444.2948     -137162.36    
     94600   2388.1414     -13886.932      4443.7817     -137168.85    
     94700   2473.8369      5001.2894      4361.6259     -137170.42    
     94800   2583.0213      9382.1028      4298.3047     -137162.52    
     94900   2633.6037      2915.3764      4267.0271     -137165.09    
     95000   2569.5856      8132.2124      4258.4474     -137170.14    
     95100   2400.2042     -4885.0196      4301.7948     -137169.27    
     95200   2455.0017     -383.36508      4318.088      -137167.95    
     95300   2623.9852      9076.8208      4323.7312     -137168.42    
     95400   2357.6581     -4755.2747      4388.0812     -137163.29    
     95500   2227.0096     -6262.0317      4441.5127     -137169.29    
     95600   2338.9171     -8368.3692      4434.3473     -137169.47    
     95700   2562.2002      6475.3348      4390.2894     -137168.07    
     95800   2431.0134      4667.7689      4383.4519     -137161.66    
     95900   2555.0897      1980.8083      4406.4626     -137163.44    
     96000   2296.8212     -2053.5248      4439.2558     -137160.59    
     96100   2323.8646     -3502.7261      4446.2862     -137165.49    
     96200   2447.0002      8010.2172      4413.5124     -137166.93    
     96300   2513.4385     -8647.8009      4399.9864     -137160.84    
     96400   2709.584       2923.0668      4376.9618     -137165.83    
     96500   2431.0795      6701.5998      4402.6179     -137164.56    
     96600   2252.5996      1394.4995      4445.2147     -137159.73    
     96700   2611.9704     -3947.8557      4459.5031     -137165.34    
     96800   2367.9684      3508.5628      4449.939      -137157.56    
     96900   2568.5591     -3035.1777      4433.9985     -137159.68    
     97000   2785.5123      12630.361      4412.1801     -137160.25    
     97100   2648.4754      2590.2021      4455.3377     -137160.11    
     97200   2448.149      -4955.5101      4515.9818     -137163.78    
     97300   2396.5965     -14351.446      4537.2229     -137164.8     
     97400   2426.727      -2314.2295      4479.1236     -137161.23    
     97500   2728.8081      1605.779       4382.0539     -137163.77    
     97600   2791.0994      10414.055      4299.6441     -137169.12    
     97700   2585.6177      2481.615       4292.228      -137169.07    
     97800   2500.5519      874.96762      4321.6949     -137169.18    
     97900   2316.4774      1538.9659      4356.5909     -137163.18    
     98000   2751.5473      5184.7034      4384.2127     -137168.24    
     98100   2734.9008      5838.9273      4443.8487     -137165.89    
     98200   2339.3302     -18658.935      4541.7448     -137164.25    
     98300   2402.7911     -9677.3318      4530.0609     -137167.46    
     98400   2463.2866     -4362.0978      4442.6414     -137164.62    
     98500   2657.1457      850.92491      4360.8106     -137167.27    
     98600   2484.5821      3675.8011      4316.0583     -137164.76    
     98700   2478.8901      14930.76       4274.2067     -137166.44    
     98800   2481.7289      542.39852      4267.4212     -137169.75    
     98900   2430.1447     -4506.9089      4288.9226     -137168.58    
     99000   2645.8482     -1757.7128      4311.1579     -137171.44    
     99100   2577.5468     -5464.5402      4353.637      -137170.92    
     99200   2260.5355     -13012.795      4373.7046     -137172.39    
     99300   2328.7059      1710.8783      4339.8166     -137168.78    
     99400   2456.6072      5827.8208      4321.9099     -137165.44    
     99500   2595.9931      174.09422      4327.9563     -137165.89    
     99600   2496.864       4796.3475      4346.0172     -137164.33    
     99700   2316.8883     -6645.8347      4367.0952     -137166.38    
     99800   2418.6906     -4760.0325      4343.7445     -137168.5     
     99900   2744.141       7296.002       4310.562      -137167.62    
    100000   2445.4338      11820.445      4327.8096     -137160.67    
    100100   2540.7171     -9024.4811      4373.9723     -137165.65    
    100200   2466.5511     -12542.166      4393.0292     -137164.62    
    100300   2436.0504      5182.4539      4345.9597     -137164.72    
    100400   2656.2702      7862.7187      4310.7531     -137169.32    
    100500   2528.3423      895.8069       4311.4695     -137166.92    
    100600   2435.8018      2192.66        4295.1607     -137169.74    
    100700   2408.9555     -1517.3853      4261.0781     -137172.26    
    100800   2402.066       16001.43       4247.589      -137168.26    
    100900   2759.0062     -914.24837      4307.9909     -137168.3     
    101000   2704.7009     -12807.699      4407.738      -137166.06    
    101100   2410.603      -2439.2421      4470.7684     -137160.96    
    101200   2368.9976     -6831.6764      4485.9847     -137158.39    
    101300   2491.0409     -8004.4228      4432.2221     -137157.7     
    101400   2561.2856      8574.9751      4331.6419     -137160.15    
    101500   2592.8953      17859.941      4288.4279     -137166.07    
    101600   2418.9583     -919.61215      4352.9859     -137167.96    
    101700   2344.6888     -9149.245       4426.154      -137165.1     
    101800   2656.9512      1401.3634      4429.5505     -137167.06    
    101900   2595.6972      2128.8769      4401.3483     -137165.56    
    102000   2480.3934     -1988.2872      4402.3975     -137164.2     
    102100   2724.1552     -7943.1263      4404.8429     -137171.71    
    102200   2388.5789      2900.4817      4377.2036     -137167.67    
    102300   2339.3013     -2119.1261      4365.5249     -137166.52    
    102400   2652.8232     -5843.6288      4365.5666     -137166.77    
    102500   2580.9391      7998.4619      4365.6642     -137163.25    
    102600   2548.1281     -3226.6248      4403.1935     -137163.98    
    102700   2529.6659     -8522.8779      4400.0315     -137167.6     
    102800   2314.439       4211.2992      4351.6412     -137165.01    
    102900   2362.9399      1229.4712      4319.1299     -137170.45    
    103000   2297.6374      224.00213      4296.8374     -137168.59    
    103100   2531.9258      2184.6717      4278.3626     -137166.94    
    103200   2612.5588      9268.9771      4299.1881     -137165.59    
    103300   2503.9312      1682.8152      4393.085      -137164.03    
    103400   2390.6577     -13490.539      4485.8584     -137167.88    
    103500   2310.2335     -14343.159      4504.2717     -137168.99    
    103600   2550.8432     -6743.0826      4437.6807     -137165.45    
    103700   2696.8287     -39.860371      4343.4242     -137168.07    
    103800   2590.4361      3359.2149      4291.3399     -137168.36    
    103900   2558.3162     -4331.5686      4281.2025     -137173.6     
    104000   2447.9776      2508.4783      4281.1958     -137172.15    
    104100   2514.4919     -2938.6948      4287.4507     -137171.01    
    104200   2573.974       9047.388       4293.1985     -137163.72    
    104300   2593.0065      7742.973       4358.222      -137162.54    
    104400   2400.1091     -10430.956      4465.5603     -137162.51    
    104500   2376.722      -8094.4596      4510.3651     -137165.53    
    104600   2531.7236     -16825.842      4486.6992     -137167.08    
    104700   2552.083       4731.2874      4397.4068     -137159.58    
    104800   2832.9533      1775.3867      4348.2156     -137166.86    
    104900   2428.8148      2881.1816      4365.1731     -137164.72    
    105000   2419.4208     -8762.7739      4399.0442     -137166.36    
    105100   2479.0059     -5360.7514      4364.5965     -137164.51    
    105200   2679.2821      8056.6947      4291.965      -137166.76    
    105300   2469.0387      4497.9857      4272.8407     -137166.42    
    105400   2188.7529      2273.1892      4274.1164     -137167.46    
    105500   2409.5815      659.05007      4282.4911     -137168.74    
    105600   2388.0167      3166.1568      4299.191      -137162.92    
    105700   2709.8661      445.73889      4312.8952     -137170.2     
    105800   2416.5812     -8164.4058      4346.6118     -137167.96    
    105900   2376.9272     -6587.5136      4339.023      -137168.11    
    106000   2835.1842      5818.3982      4296.4628     -137169.66    
    106100   2866.0362      4650.8933      4303.8418     -137169.05    
    106200   2423.3218      5645.6546      4353.2721     -137165.53    
    106300   2493.6739     -14114.562      4423.1071     -137168       
    106400   2461.9448      474.20947      4443.7829     -137164.07    
    106500   2613.4785     -10856.793      4457.6378     -137165.84    
    106600   2598.6053     -2810.6897      4434.8255     -137164.88    
    106700   2463.0406      2451.6129      4391.2428     -137166.52    
    106800   2386.7046     -7250.1298      4354.6995     -137168.74    
    106900   2479.8756     -1651.5885      4315.5368     -137166.86    
    107000   2504.5153      9021.5871      4296.0963     -137161.31    
    107100   2576.2595      7370.8005      4317.7293     -137163.98    
    107200   2563.4149      1498.1855      4380.3756     -137165.94    
    107300   2211.6214     -1732.888       4443.893      -137164.29    
    107400   2134.067      -5516.612       4450.3761     -137164.85    
    107500   2526.4486     -4462.9169      4401.8021     -137169.61    
    107600   2521.4148      1771.0719      4342.8781     -137166.57    
    107700   2747.5138      7733.3613      4309.1934     -137171.29    
    107800   2475.691      -402.92276      4332.868      -137169.31    
    107900   2283.267      -4667.9853      4364.0164     -137168.52    
    108000   2550.9892      4281.4775      4377.5886     -137166.45    
    108100   2524.8673     -4816.0538      4397.258      -137161.73    
    108200   2464.3373      12018.591      4410.6436     -137160.49    
    108300   2437.2995     -995.47789      4480.2793     -137161.26    
    108400   2472.6841     -13005.057      4533.0971     -137164.69    
    108500   2302.6261     -4433.3072      4510.6329     -137162.85    
    108600   2675.8952     -8788.8044      4464.06       -137169.04    
    108700   2604.0006      159.91127      4381.39       -137163.78    
    108800   2508.7761      12282.963      4289.481      -137165.87    
    108900   2371.3425      4267.2509      4260.7818     -137171.53    
    109000   2157.5094      2292.2663      4261.3076     -137165.51    
    109100   2431.6954      9883.5666      4258.0672     -137168.21    
    109200   2482.6673      8025.9611      4287.9846     -137166.63    
    109300   2540.6206     -5650.1362      4366.8457     -137167       
    109400   2370.4176     -1486.345       4451.361      -137160.31    
    109500   2619.2443     -6856.1992      4519.8087     -137161.25    
    109600   2514.9896     -6346.0684      4553.0334     -137159.77    
    109700   2401.1957     -2967.3243      4525.2772     -137161.61    
    109800   2303.3315     -3606.022       4452.875      -137163.43    
    109900   2486.3142     -1673.8395      4365.8319     -137171.8     
    110000   2491.6739      10069.395      4271.3272     -137174.7     
    110100   2410.271       9066.2143      4223.3036     -137170.17    
    110200   2609.2405      13840.794      4247.4103     -137169.3     
    110300   2481.0494      3660.3221      4340.8961     -137163.22    
    110400   2492.5292     -2435.2451      4447.0631     -137158.5     
    110500   2813.8454     -6462.5068      4504.7611     -137158.56    
    110600   2436.7586      3325.0819      4526.2234     -137153.27    
    110700   2551.2815     -1957.001       4526.7848     -137160.41    
    110800   2455.9389     -6260.4034      4493.2008     -137159.02    
    110900   2490.2169      9741.6512      4450.456      -137158.74    
    111000   2581.2373     -478.09575      4441.5759     -137162.35    
    111100   2519.4986     -5114.9082      4431.0589     -137171.64    
    111200   2218.3391      2288.3206      4395.3976     -137166.75    
    111300   2418.3421      6693.0528      4365.5704     -137168.1     
    111400   2602.006      -3001.2595      4389.9107     -137167.52    
    111500   2675.4556     -12660.478      4418.0564     -137163.73    
    111600   2824.1792     -715.05035      4395.4245     -137163.18    
    111700   2617.5521      5055.1696      4379.7365     -137166.85    
    111800   2296.1304     -8555.6983      4382.0061     -137165.3     
    111900   2542.1502      9483.0689      4354.927      -137169.88    
    112000   2475.3307      1409.7111      4370.2233     -137164.27    
    112100   2638.5654      3750.3287      4391.2957     -137161.61    
    112200   2580.7543     -928.16259      4425.1303     -137157.98    
    112300   2332.9946     -3275.0012      4454.2901     -137161       
    112400   2343.1802     -8074.7825      4431.2618     -137165.88    
    112500   2569.7526     -1849.1389      4370.0793     -137168.94    
    112600   2571.9059      5254.3709      4341.6388     -137165.49    
    112700   2756.52       -5018.1735      4359.4862     -137169.65    
    112800   2418.8047     -3463.3178      4380.9175     -137165.69    
    112900   2223.8621      7712.3847      4378.1911     -137164.05    
    113000   2454.425       654.04189      4401.4081     -137164.59    
    113100   2545.2006      826.67382      4446.4469     -137162.47    
    113200   2535.3112     -11340.125      4500.871      -137164.59    
    113300   2488.1139     -1355.1695      4509.5721     -137165.23    
    113400   2423.0556     -15221.2        4517.5602     -137161.19    
    113500   2556.0574     -5143.1377      4456.0342     -137163.86    
    113600   2551.0185      2354.3809      4382.749      -137164.3     
    113700   2520.6805      6706.0088      4349.6152     -137164.95    
    113800   2310.3383      6620.365       4346.4021     -137166.57    
    113900   2412.8473     -9396.0728      4379.3237     -137172.05    
    114000   2277.324      -121.36686      4380.017      -137160.34    
    114100   2739.2256      2496.4297      4345.4021     -137171.95    
    114200   2530.0702     -7857.1355      4336.7434     -137169.67    
    114300   2404.7469      1716.14        4341.4771     -137165.55    
    114400   2701.2792      2008.6667      4349.8558     -137168.44    
    114500   2707.976       3504.4598      4366.2685     -137164.02    
    114600   2380.683      -2218.1201      4413.4474     -137158.29    
    114700   2479.1716     -10653.648      4439.1553     -137168.13    
    114800   2387.4937     -11904.151      4415.985      -137166.11    
    114900   2657.2918      2293.3514      4338.8564     -137165.93    
    115000   2652.8218      5077.2631      4279.9525     -137162.62    
    115100   2429.8592      4647.9928      4267.5972     -137167.59    
    115200   2414.5291     -3597.8268      4288.5642     -137167.73    
    115300   2445.5644     -1675.1122      4306.3488     -137166.32    
    115400   2715.7502      2856.7093      4304.6235     -137169.34    
    115500   2514.9737      8254.4362      4340.5149     -137161.9     
    115600   2395.5149     -6328.4484      4418.0032     -137160.65    
    115700   2384.2099     -6586.6716      4451.6099     -137166.04    
    115800   2248.0112     -7169.4483      4434.8718     -137165.5     
    115900   2566.6539     -1853.9551      4362.3298     -137165.37    
    116000   2829.8654      14874.362      4304.1982     -137170.64    
    116100   2599.0798     -980.69262      4336.001      -137171.14    
    116200   2235.9236     -7025.3262      4380.1047     -137165.27    
    116300   2411.4547     -12151.636      4403.4013     -137164.53    
    116400   2460.4288     -2655.7294      4368.5043     -137161.73    
    116500   2769.5569     -2832.1707      4332.5419     -137170.74    
    116600   2372.9767     -2940.8144      4319.0702     -137166.06    
    116700   2206.7467     -6665.3694      4285.2395     -137163.3     
    116800   2426.9663      18830.341      4222.898      -137165.79    
    116900   2644.8266      10176.815      4262.4751     -137170.5     
    117000   2333.6369     -9264.886       4381.2599     -137162.2     
    117100   2410.6605     -2740.2589      4452.695      -137162.24    
    117200   2705.3636     -7275.5707      4478.1838     -137162.82    
    117300   2649.5775     -1986.3752      4440.4772     -137160.37    
    117400   2541.357       1032.7544      4386.2749     -137168.47    
    117500   2497.6622      3179.922       4336.5138     -137171.12    
    117600   2459.7611      6154.4791      4330.5367     -137167.38    
    117700   2704.7541      12327.868      4378.116      -137168.53    
    117800   2492.7792     -5345.4072      4477.1478     -137164.01    
    117900   2281.4241     -19345.261      4523.5515     -137166.6     
    118000   2239.0361     -8383.7193      4439.0335     -137164.75    
    118100   2434.5265      21263.536      4293.7328     -137162.82    
    118200   2752.5743      8147.8242      4240.2157     -137170.84    
    118300   2623.6867      6696.6266      4289.1287     -137174.67    
    118400   2300.1381     -10164.797      4360.7397     -137168.24    
    118500   2403.7468     -2771.2798      4366.3917     -137165.7     
    118600   2580.9186      2085.1864      4361.8386     -137165.92    
    118700   2554.1881      2594.7562      4349.5074     -137166.82    
    118800   2493.9715      2429.1063      4351.5232     -137169.78    
    118900   2259.7705     -3733.1706      4362.4426     -137167.4     
    119000   2359.3138      8809.7303      4330.2433     -137160.86    
    119100   2757.9585     -8551.0456      4307.149      -137166.81    
    119200   2513.215       16558.15       4286.8624     -137164.22    
    119300   2405.5124      921.46901      4339.5861     -137167.32    
    119400   2307.1173     -9824.1521      4383.6052     -137168.53    
    119500   2505.5803      172.2253       4364.0175     -137167.76    
    119600   2625.0757      3545.4241      4333.9339     -137163.63    
    119700   2514.7495      4173.1599      4324.0662     -137165.21    
    119800   2360.8761     -1946.7099      4319.9551     -137166.04    
    119900   2315.1541      7170.735       4293.353      -137164.94    
    120000   2792.5966      2145.9952      4283.9959     -137170.5     
    120100   2620.9259      2488.4242      4306.0057     -137165.58    
    120200   2240.7691     -4163.687       4375.7957     -137165.07    
    120300   2295.46        2433.307       4414.2167     -137163.35    
    120400   2522.6225     -5042.3265      4420.7223     -137163.53    
    120500   2565.0362     -2244.0175      4392.3379     -137164.57    
    120600   2401.9302      9313.3257      4343.8191     -137162.37    
    120700   2406.4396     -1008.9387      4328.6124     -137169.16    
    120800   2194.8919     -2248.4151      4323.3056     -137169.68    
    120900   2435.418       1501.667       4298.1679     -137171.86    
    121000   2319.6804      2095.2145      4284.9648     -137164.83    
    121100   2578.0617      1500.6973      4277.8767     -137168.84    
    121200   2535.047       7462.761       4323.6987     -137168.27    
    121300   2547.73       -4392.4209      4425.8054     -137168.98    
    121400   2347.6717     -7024.6594      4513.4824     -137165.49    
    121500   2464.8824     -17140.888      4551.1265     -137163.43    
    121600   2701.2031     -2955.463       4479.3269     -137163.56    
    121700   2661.4648      4718.1666      4391.995      -137166.35    
    121800   2335.8341      13476.645      4350.4492     -137165.37    
    121900   2288.9004      7232.38        4364.2816     -137163.76    
    122000   2505.664       2063.0137      4426.9624     -137163.59    
    122100   2396.1356     -7947.0897      4506.3453     -137157.03    
    122200   2447.7249     -14190.912      4503.8291     -137157.6     
    122300   2634.2072      10524.711      4402.3865     -137165.74    
    122400   2358.1609     -6508.9696      4351.0376     -137163.29    
    122500   2534.9251      2930.9907      4295.0685     -137168.02    
    122600   2570.1393      15816.355      4252.3638     -137169.54    
    122700   2384.1956     -2587.1865      4287.9339     -137169.12    
    122800   2456.1852     -4144.0158      4337.5085     -137171.11    
    122900   2768.7935     -3039.8192      4380.1313     -137170.15    
    123000   2529.0539     -3151.4256      4450.6691     -137160.85    
    123100   2429.4566     -7686.596       4524.6489     -137159.21    
    123200   2391.9029     -13783.621      4532.8838     -137158.32    
    123300   2688.549       4542.7907      4437.45       -137159.97    
    123400   2641.6695     -704.88636      4337.9387     -137162.88    
    123500   2708.5568     -64.764793      4278.7459     -137173.31    
    123600   2572.3399      9771.5998      4257.6653     -137173.79    
    123700   2367.5752      1991.5362      4283.3258     -137170.42    
    123800   2325.9554      5504.4026      4340.3703     -137162.99    
    123900   2545.818      -1333.2444      4413.4577     -137161.58    
    124000   2602.6754     -5799.8724      4457.7938     -137164.31    
    124100   2478.1018     -5655.552       4449.4645     -137166.21    
    124200   2462.3738      6237.3607      4409.3714     -137169.25    
    124300   2293.3587      1190.0542      4381.7405     -137166.86    
    124400   2501.5731     -7530.6715      4338.0766     -137170.3     
    124500   2634.0229      4452.3948      4269.3355     -137166.35    
    124600   2664.2441      12605.956      4249.5199     -137167.06    
    124700   2382.3438      38.67885       4313.8611     -137167.27    
    124800   2443.8022     -8123.535       4373.2924     -137169.85    
    124900   2497.8036     -4882.3307      4418.635      -137167.64    
    125000   2495.0215     -4684.9521      4462          -137164.35    
    125100   2589.512      -13590.736      4466.2901     -137166.33    
    125200   2308.4605      10133.788      4414.1907     -137160.24    
    125300   2483.9587     -968.7699       4376.5466     -137167.77    
    125400   2306.4751     -1665.2179      4340.7585     -137167.2     
    125500   2384.8085      290.96653      4296.1325     -137166.27    
    125600   2627.0359      17737.603      4272.1791     -137166.05    
    125700   2453.0895      2966.7839      4345.6167     -137163.59    
    125800   2340.5802     -8026.4782      4431.5474     -137161.77    
    125900   2537.716      -2345.6523      4456.8761     -137161.07    
    126000   2739.1143      448.14882      4459.6358     -137160.13    
    126100   2537.8565     -565.7567       4441.8786     -137160.14    
    126200   2485.8273      488.717        4421.3902     -137164.72    
    126300   2348.3976     -3842.079       4396.1168     -137161.68    
    126400   2693.291      -744.99333      4324.7977     -137168.06    
    126500   2556.4505      11629.707      4266.6422     -137167.6     
    126600   2606.7378      441.28306      4291.539      -137170.97    
    126700   2475.0994     -5528.8096      4376.4        -137168.42    
    126800   2472.7825     -14281.087      4432.6421     -137165.85    
    126900   2727.2309     -15970.483      4404.7919     -137164.87    
    127000   2702.3442      2297.7515      4317.5044     -137163.49    
    127100   2607.8399      7211.4476      4245.6277     -137168.51    
    127200   2507.1343      10299.884      4219.8225     -137168.02    
    127300   2690.1709      1383.2863      4243.9833     -137172.49    
    127400   2549.6134     -7451.5056      4325.8282     -137170.54    
    127500   2156.1393      2161.2487      4403.0093     -137158.78    
    127600   2631.5215     -1259.5427      4454.5603     -137162.18    
    127700   2658.9789     -6908.1851      4472.9469     -137162.58    
    127800   2406.9379      1918.266       4433.1021     -137160.46    
    127900   2398.6814      1909.026       4373.1243     -137164.21    
    128000   2383.9871      4213.5354      4313.3814     -137171.17    
    128100   2104.7335      1640.0795      4262.7347     -137170.1     
    128200   2482.7683      4479.4354      4233.2439     -137173.87    
    128300   2514.8144      3667.1089      4256.2139     -137171.23    
    128400   2457.0898     -4972.5672      4315.1021     -137167.08    
    128500   2550.9816      6023.1272      4372.6437     -137164.3     
    128600   2801.1599     -9204.9877      4458.3476     -137165.35    
    128700   2867.7342     -8881.8939      4517.4644     -137159.77    
    128800   2679.1812     -683.51674      4539.9983     -137159.12    
    128900   2572.7983     -14150.899      4524.4496     -137164.76    
    129000   2367.5503      2676.874       4437.347      -137160.75    
    129100   2547.7331     -7051.467       4326.0796     -137166.03    
    129200   2617.3667      16349.958      4196.739      -137167.71    
    129300   2453.3306      3097.5727      4157.2706     -137173.22    
    129400   2376.9196      14337.297      4175.3152     -137173.5     
    129500   2474.2943      174.68642      4249.3172     -137172.56    
    129600   2526.7813     -3396.9257      4341.1954     -137165.91    
    129700   2439.0669      1092.6355      4433.2654     -137161.65    
    129800   2631.5219     -8519.1634      4501.0915     -137167.22    
    129900   2522.9698     -2089.2305      4529.3394     -137165.2     
    130000   2246.6468     -15927.517      4506.5528     -137163.36    
    130100   2416.0681     -14.196321      4395.2908     -137165.16    
    130200   2660.5952      18686.899      4312.5878     -137163.53    
    130300   2664.937       2276.5944      4355.2887     -137167.68    
    130400   2420.2287     -4751.8022      4436.0352     -137164.33    
    130500   2505.4793     -14279.848      4466.7878     -137166.79    
    130600   2463.9095     -3769.9482      4444.3728     -137162.65    
    130700   2603.4918      8074.5143      4413.6086     -137164       
    130800   2599.8935     -1151.6128      4407.4094     -137167.7     
    130900   2404.7096      2748.7626      4402.0415     -137164.96    
    131000   2499.3185      4412.8662      4392.5357     -137164.61    
    131100   2793.3553     -8092.7645      4395.6717     -137164.77    
    131200   2611.2294      6480.8733      4412.3835     -137158.6     
    131300   2467.2326     -8103.207       4463.3234     -137167.88    
    131400   2272.09        4297.8493      4468.6384     -137163.71    
    131500   2498.7584      2222.9897      4457.5667     -137162.64    
    131600   2557.8806     -4797.413       4465.1526     -137159.15    
    131700   2660.7976     -9665.3596      4452.6924     -137163.51    
    131800   2498.3978     -9546.0146      4401.7974     -137166.41    
    131900   2324.631       6621.1649      4290.3223     -137166.65    
    132000   2519.7905      20972.945      4205.453      -137170.75    
    132100   2568.5912      10853.609      4240.018      -137172.81    
    132200   2434.4218     -8002.515       4322.3745     -137168.63    
    132300   2404.4129      3689.7949      4372.5097     -137165.13    
    132400   2654.709      -7316.9198      4421.3777     -137162.76    
    132500   2727.4613     -8602.8263      4435.8458     -137161.87    
    132600   2478.3457     -5782.4862      4440.4641     -137160.83    
    132700   2230.6304     -9484.9063      4431.4499     -137162.74    
    132800   2392.2554      2606.5728      4386.1888     -137165.53    
    132900   2620.2896      2236.8588      4348.3967     -137168.66    
    133000   2598.7965     -2900.4219      4363.3059     -137164.87    
    133100   2373.218      -5584.4084      4379.1344     -137161.3     
    133200   2350.1307     -2361.4598      4365.021      -137168.48    
    133300   2425.1517     -573.77369      4356.9252     -137170.45    
    133400   2539.8688     -2550.1065      4365.0841     -137164.31    
    133500   2486.0884      1250.3426      4361.5748     -137160.74    
    133600   2541.0525     -1101.6166      4353.869      -137164.97    
    133700   2415.9685     -7542.2759      4356.3386     -137164.23    
    133800   2442.9213      6788.7014      4344.5217     -137160.94    
    133900   2851.8284      7546.7937      4365.0873     -137163.86    
    134000   2617.1129     -4425.7794      4414.6246     -137164.74    
    134100   2382.4239     -12466.212      4439.3491     -137162.78    
    134200   2428.411       1779.7228      4379.5289     -137165.54    
    134300   2355.1694      11017.274      4317.9042     -137164.72    
    134400   2389.4821      6802.2965      4313.501      -137163.97    
    134500   2599.1774      8093.6635      4349.6734     -137162.98    
    134600   2522.6078     -2583.7915      4414.9081     -137161.44    
    134700   2473.1817      1828.9112      4462.3714     -137166.2     
    134800   2378.3299     -14748.537      4501.0654     -137168.88    
    134900   2467.4058     -1543.3779      4452.5306     -137166.87    
    135000   2470.5797      6184.649       4386.1509     -137158.48    
    135100   2545.9211      8546.2464      4355.2707     -137163.65    
    135200   2461.0369     -7714.8501      4381.4392     -137168.02    
    135300   2259.9432     -4805.8125      4381.1239     -137163.68    
    135400   2471.9008      3504.2725      4366.7103     -137162.45    
    135500   2694.4138     -822.74299      4384.7339     -137166.7     
    135600   2405.0556      2275.3067      4420.4047     -137159.73    
    135700   2462.8711     -950.01092      4442.3366     -137159.2     
    135800   2697.2146      195.70965      4428.5354     -137163.86    
    135900   2397.2344     -8422.344       4413.4423     -137165.37    
    136000   2592.7616     -8188.4422      4343.271      -137176.17    
    136100   2417.9294      1342.1148      4240.266      -137173.91    
    136200   2478.6566      16027.365      4177.5882     -137170.52    
    136300   2735.6807      14535.038      4230.4492     -137170.01    
    136400   2512.0284     -907.10655      4392.419      -137166.98    
    136500   2327.7708     -13637.919      4527.0298     -137159.53    
    136600   2466.8847      382.27562      4527.0853     -137160.77    
    136700   2679.1031     -14877.955      4491.9825     -137164.32    
    136800   2827.7637     -2644.7376      4394.8046     -137166.64    
    136900   2593.6931      5735.2482      4304.1528     -137163.43    
    137000   2406.6253      18023.791      4275.4481     -137166.13    
    137100   2390.1881      1159.8718      4326.6813     -137169.04    
    137200   2392.7144     -2285.0354      4394.8244     -137165.47    
    137300   2481.4452      3681.2181      4457.3999     -137159.17    
    137400   2539.6605     -8314.3098      4492.2287     -137159.93    
    137500   2466.2242     -7685.9222      4448.1162     -137160.59    
    137600   2459.985       10071.901      4349.0878     -137163.59    
    137700   2359.2263      9443.6937      4288.5573     -137169.52    
    137800   2268.3111      5072.9448      4283.6854     -137169.15    
    137900   2554.0595     -3301.8946      4298.0871     -137171.24    
    138000   2594.1513      853.31059      4279.374      -137170.59    
    138100   2458.5299      10412.265      4295.289      -137167.62    
    138200   2373.282      -12479.418      4364.7414     -137166.69    
    138300   2709.578      -849.72313      4381.7037     -137170.27    
    138400   2717.5081     -10466.187      4401.7163     -137164.63    
    138500   2609.1333     -2852.2918      4402.3183     -137165.08    
    138600   2373.088       372.4002       4394.683      -137165.24    
    138700   2363.0892     -205.45444      4384.5726     -137162.81    
    138800   2629.9373     -4123.3077      4369.8186     -137168.09    
    138900   2501.9835      815.09513      4350.397      -137166.82    
    139000   2478.9063      5766.5467      4331.0898     -137168.74    
    139100   2308.7897      4765.1984      4321.0064     -137167.43    
    139200   2588.3308      649.18987      4309.5399     -137172.58    
    139300   2603.1516      11906.262      4319.4651     -137167.37    
    139400   2535.05        287.51026      4376.5516     -137167.15    
    139500   2211.184      -8256.5631      4433.9012     -137164.06    
    139600   2412.5492     -5765.0054      4430.2274     -137166.23    
    139700   2617.0408     -6802.7381      4386.8285     -137164.25    
    139800   2618.0259      341.12188      4323.5979     -137166.85    
    139900   2601.9474      4970.9466      4267.012      -137170.94    
    140000   2426.4214      7723.5741      4243.6651     -137168.74    
    140100   2451.9888      17925.745      4258.2827     -137168.61    
    140200   2536.6329      93.613366      4335.1026     -137171.91    
    140300   2331.6517      1283.5176      4411.7571     -137165.9     
    140400   2626.9275     -1217.0675      4479.2489     -137167.32    
    140500   2699.7622     -2351.7017      4540.6696     -137158.76    
    140600   2696.631      -12055.336      4549.0755     -137160.94    
    140700   2724.7934     -10003.234      4473.2514     -137166.8     
    140800   2654.8742      482.5125       4356.1278     -137170.43    
    140900   2519.9232     -1678.4717      4265.6625     -137173.3     
    141000   2366.5265      10773.68       4208.1341     -137170.69    
    141100   2491.9939      6801.9304      4211.5458     -137170.37    
    141200   2530.5732      18242.749      4271.4693     -137165.64    
    141300   2793.0631      5191.0333      4405.536      -137163.38    
    141400   2507.146      -13978.102      4563.7568     -137159.91    
    141500   2445.8239     -15628.034      4604.7629     -137161.1     
    141600   2513.2166     -4505.544       4555.6414     -137161.23    
    141700   2672.0349      1790.5122      4496.5548     -137165.4     
    141800   2396.2327     -5713.7741      4451.3302     -137163.36    
    141900   2174.21       -1540.879       4358.3159     -137164.03    
    142000   2574.4857      7879.2438      4252.468      -137168.92    
    142100   2741.0747      8796.8028      4241.1425     -137165.99    
    142200   2606.4846     -8012.7511      4293.8027     -137168.12    
    142300   2493.9794     -5103.072       4322.6279     -137168.94    
    142400   2557.983      -2256.1114      4338.7277     -137169.97    
    142500   2557.6603      5079.8029      4356.2277     -137162.95    
    142600   2833.5684     -1365.6321      4392.8771     -137165.28    
    142700   2614.2014     -6251.9165      4435.5489     -137165.05    
    142800   2465.3796     -8342.8295      4443.8496     -137164.68    
    142900   2537.9598     -13922.99       4405.095      -137169.03    
    143000   2406.9657      11954.78       4321.0798     -137164.93    
    143100   2720.3131      10582.027      4300.2432     -137165.58    
    143200   2592.71        6456.8999      4344.8781     -137168.6     
    143300   2244.2441     -8023.6898      4420.9693     -137164.18    
    143400   2384.2841      899.2298       4465.0868     -137162.58    
    143500   2430.5365     -1746.4535      4480.9639     -137159.38    
    143600   2571.6693     -6925.1261      4451.9157     -137161.89    
    143700   2824.9694     -12472.893      4391.755      -137170.39    
    143800   2448.9497     -3395.5508      4316.5849     -137169.82    
    143900   2378.1861      5191.8266      4244.2886     -137169.2     
    144000   2609.7299      16269.623      4216.3591     -137169.21    
    144100   2523.8573      16779.189      4294.4132     -137165.87    
    144200   2364.1707     -14337.026      4434.4766     -137163.41    
    144300   2569.4331     -10547.786      4481.7488     -137161.3     
    144400   2736.6962     -1488.9136      4464.2608     -137158.4     
    144500   2415.7573      3301.5774      4441.7058     -137155.62    
    144600   2551.2377     -30.272823      4410.6025     -137166.04    
    144700   2389.512      -3812.6428      4380.5634     -137164.89    
    144800   2298.4123      9155.6888      4340.6664     -137161.85    
    144900   2827.3461      5527.2552      4325.0989     -137169.93    
    145000   2604.9218      666.85395      4363.0234     -137160.55    
    145100   2499.4435     -6806.3995      4408.3407     -137162.26    
    145200   2366.4417     -5936.666       4411.6646     -137166.18    
    145300   2432.6225     -5030.1647      4370.2022     -137167.77    
    145400   2591.3702      7667.7077      4319.1692     -137166.95    
    145500   2536.1919     -860.49645      4319.2532     -137161.07    
    145600   3003.0161      19437.034      4332.3188     -137163.07    
    145700   2648.1988      5019.4296      4443.5819     -137162.8     
    145800   2324.9542     -14354.262      4560.341      -137159.01    
    145900   2366.9814     -13237.607      4562.8606     -137157.01    
    146000   2535.9992      15345.401      4489.6494     -137155.39    
    146100   2803.1111     -9494.0226      4458.6273     -137165.54    
    146200   2353.7346      2943.1085      4405.3567     -137160.76    
    146300   2443.7288     -842.11157      4346.1098     -137163.36    
    146400   2702.2218      9944.7355      4310.0783     -137170.41    
    146500   2358.992      -1402.0301      4352.7573     -137167.96    
    146600   2267.4003     -10542.698      4397.7757     -137167.48    
    146700   2686.679      -4021.1004      4388.1122     -137167.49    
    146800   2737.5654      6503.9665      4378.0792     -137167.76    
    146900   2413.174      -8370.4539      4411.8548     -137163.61    
    147000   2263.6806     -1385.1527      4426.8992     -137159.77    
    147100   2534.3853      4284.6752      4429.7638     -137159.13    
    147200   2598.0095     -2990.5998      4449.0368     -137158.42    
    147300   2547.2672     -7024.1075      4445.9059     -137161.77    
    147400   2648.3705      4302.7766      4406.3683     -137167.53    
    147500   2389.9131      2634.4813      4392.049      -137161.78    
    147600   2535.9651      4845.8552      4381.4285     -137161.43    
    147700   2704.6101      2336.1301      4385.2056     -137163.33    
    147800   2411.0941     -5116.5082      4410.2653     -137164.28    
    147900   2344.6938      2823.7283      4398.5307     -137165.95    
    148000   2374.5046      330.54056      4358.5461     -137164.03    
    148100   2649.7891      6425.5026      4322.1589     -137165.12    
    148200   2639.4053      5365.5232      4331.3623     -137165.02    
    148300   2336.3506     -13564.526      4391.5302     -137166.82    
    148400   2245.6352     -7662.6844      4412.0005     -137165.97    
    148500   2474.9984     -4135.7576      4368.2612     -137166.14    
    148600   2623.9889      12685.492      4303.7472     -137166.26    
    148700   2525.8269     -890.87908      4314.5841     -137165.88    
    148800   2318.1588     -124.17824      4336.1817     -137163       
    148900   2507.8039      7026.9291      4352.9519     -137167.75    
    149000   2388.0928      1014.8992      4413.7717     -137161.66    
    149100   2692.6742     -4750.754       4478.2806     -137164.56    
    149200   2522.0396     -10517.318      4510.8657     -137155.42    
    149300   3082.9763      6051.3334      4461.0887     -137160.95    
    149400   2812.4348     -4394.4651      4407.4567     -137163.78    
    149500   2630.8804     -9128.524       4359.9666     -137165.94    
    149600   2455.0817      3068.7687      4303.3348     -137166.98    
    149700   2459.8468      8610.3209      4257.6342     -137170.05    
    149800   2406.5865      10467.885      4273.0755     -137169.46    
    149900   2288.2413     -7777.7325      4348.6928     -137163.88    
    150000   2535.9955      1629.5979      4396.5183     -137161.81    
    150100   2489.8793     -9703.3463      4449.3579     -137162.2     
    150200   2315.6712     -1197.7928      4492.5961     -137160.36    
    150300   2654.5788     -510.94189      4518.6387     -137162.02    
    150400   2629.0239     -4817.7283      4526.8337     -137155.55    
    150500   2630.1788     -4720.971       4513.1211     -137159.68    
    150600   2514.3145     -5206.9694      4457.3482     -137162.7     
    150700   2467.0365      8278.1883      4343.9562     -137164.01    
    150800   2533.3159      7747.3108      4259.7605     -137168.35    
    150900   2366.1608      12416.343      4243.9225     -137167.29    
    151000   2372.3413     -585.98504      4291.5861     -137166.32    
    151100   2384.3869      7339.1459      4351.2043     -137165.13    
    151200   2390.5635     -9636.8034      4420.4621     -137161       
    151300   2568.4732      8216.5221      4427.7339     -137159.67    
    151400   2674.0005      6272.6225      4492.0045     -137161.58    
    151500   2347.2347     -17950.109      4615.7562     -137159.1     
    151600   2218.3294     -18488.527      4641.0513     -137159.92    
    151700   2473.8989     -9122.7412      4508.6815     -137159.52    
    151800   2850.5079      8306.0165      4326.6929     -137164.9     
    151900   2697.2021      11726.238      4232.6138     -137169.34    
    152000   2559.9012      6627.2155      4251.4294     -137172.73    
    152100   2273.737       5782.7621      4339.3472     -137166.69    
    152200   2450.2073     -9840.4566      4421.3752     -137165.38    
    152300   2739.8392      261.8799       4446.4257     -137166.85    
    152400   2511.2973     -7243.1897      4483.0911     -137160.77    
    152500   2573.0881     -7964.4416      4500.8847     -137163.6     
    152600   2504.8433     -9335.8439      4498.03       -137163.21    
    152700   2609.7108     -11577.838      4465.3585     -137165.46    
    152800   2456.2139      13332.772      4391.1259     -137161.24    
    152900   2350.3541      4781.3273      4359.5598     -137164.13    
    153000   2247.3318     -6435.9996      4353.7449     -137168.14    
    153100   2499.7821      8649.1742      4308.1462     -137169.36    
    153200   2391.5432      11732.948      4295.9872     -137162.78    
    153300   2584.9612      8468.02        4332.9447     -137167.88    
    153400   2515.9013     -8719.454       4403.99       -137167.04    
    153500   2348.94       -9964.9006      4447.4403     -137165.58    
    153600   2383.1047     -1719.2461      4448.956      -137162.87    
    153700   2587.26       -1446.3949      4424.1929     -137162.4     
    153800   2553.6759      1901.2473      4408.8705     -137162.16    
    153900   2321.3839     -8393.327       4411.5567     -137162.59    
    154000   2462.5478      7227.7558      4361.4364     -137168.79    
    154100   2709.7487      2923.6248      4333.1442     -137166.94    
    154200   2771.5932      8810.1412      4340.6163     -137165.46    
    154300   2539.5812      2532.3319      4387.998      -137166.33    
    154400   2402.8104     -19021.244      4443.5465     -137166.6     
    154500   2439.4223     -3802.7548      4415.0414     -137164.36    
    154600   2478.3946      9822.3968      4352.5114     -137163.85    
    154700   2463.9309     -1372.2348      4350.8368     -137163.01    
    154800   2626.4846     -603.79084      4352.5278     -137166.08    
    154900   2449.1513      4632.8711      4375.1881     -137169.16    
    155000   2252.1364     -15474.378      4431.4823     -137168.75    
    155100   2449.0053     -9904.4515      4398.4693     -137167.65    
    155200   2645.0966      13814.989      4333.518      -137166.41    
    155300   2592.6136      7164.0249      4356.5675     -137165.52    
    155400   2516.7534     -3080.6448      4442.6866     -137165.21    
    155500   2555.4997     -12119.47       4526.4561     -137163.5     
    155600   2596.4905     -2375.6845      4537.5497     -137156.73    
    155700   2641.0197     -15220.625      4485.7703     -137158.86    
    155800   2604.5351     -3723.0838      4372.4437     -137164.76    
    155900   2603.8242      6450.0442      4275.8637     -137172.44    
    156000   2488.8459      5781.5705      4256.5919     -137171.61    
    156100   2669.4749     -3835.6793      4287.9003     -137173.21    
    156200   2464.6533      15291.024      4322.7706     -137164.64    
    156300   2428.7151     -481.56912      4400.5175     -137161.82    
    156400   2652.6032     -3747.6185      4457.0539     -137162.3     
    156500   2771.9428     -9829.0964      4490.1595     -137161.81    
    156600   2625.2234     -11793.553      4464.3319     -137163.82    
    156700   2416.644      -3051.4173      4375.0154     -137166.05    
    156800   2450.3254      6425.3674      4270.5531     -137168.85    
    156900   2453.2167      14501.146      4205.6925     -137168       
    157000   2512.5188      8271.1295      4224.9398     -137169.86    
    157100   2327.9751      4602.8819      4317.0644     -137168.19    
    157200   2398.1711      1474.7759      4416.9611     -137166.26    
    157300   2639.7423     -10344.356      4485.9537     -137164.37    
    157400   2571.1324     -9431.1654      4487.927      -137159.32    
    157500   2650.7845     -4404.667       4416.9691     -137163.66    
    157600   2428.4281      9094.0851      4337.4756     -137167.19    
    157700   2465.8114      4577.9706      4308.738      -137170.02    
    157800   2536.7146      261.16233      4317.3814     -137169.73    
    157900   2542.3177      7795.8175      4354.8345     -137165.51    
    158000   2494.4636     -3541.2552      4435.3714     -137163.05    
    158100   2367.2755     -7979.317       4487.3693     -137161.23    
    158200   2361.6254     -20506.607      4473.7077     -137160.24    
    158300   2759.4227      3856.8345      4368.302      -137164.07    
    158400   2792.977       7607.3132      4287.5575     -137170.66    
    158500   2463.8606     -2698.1522      4268.3602     -137168.1     
    158600   2382.9609      11410.561      4264.0518     -137166.5     
    158700   2747.4206     -3804.0601      4316.256      -137172.65    
    158800   2598.2095     -4247.1884      4365.5471     -137168.87    
    158900   2182.6531     -1394.0129      4397.6985     -137163.9     
    159000   2320.705      -3960.8777      4399.6699     -137166.89    
    159100   2478.3877     -8581.8186      4366.3096     -137163.25    
    159200   2653.7116      5933.3882      4283.5381     -137167.79    
    159300   2522.1998      15935.99       4215.9011     -137171.23    
    159400   2367.719       9507.727       4232.1969     -137170.83    
    159500   2407.5977     -1731.3726      4295.2413     -137169.18    
    159600   2534.1789      1299.7691      4346.8825     -137168.47    
    159700   2380.5283     -3015.6288      4408.1318     -137161.65    
    159800   2454.1488      8163.6031      4438.4263     -137162.16    
    159900   2566.5018     -8231.1531      4458.7732     -137164.89    
    160000   2471.5751     -6065.2697      4422.2431     -137162.09    
    160100   2589.6012      4848.1587      4344.8864     -137160.79    
    160200   2939.3493      13665.196      4304.3245     -137165.66    
    160300   2503.1943      4916.2554      4360.5104     -137164.92    
    160400   2284.3876      936.18605      4439.4547     -137161.59    
    160500   2376.6512      12285.789      4499.2025     -137161.15    
    160600   2522.9613      731.42785      4574.126      -137159.01    
    160700   2392.5713     -1682.226       4605.7512     -137152       
    160800   2750.184      -1829.8515      4591.3116     -137156.22    
    160900   2857.1384     -4695.1112      4559.2673     -137157.94    
    161000   2464.6031     -2513.5372      4512.9056     -137157.62    
    161100   2495.4918     -3964.897       4446.2298     -137161.15    
    161200   2578.0679      2606.5052      4379.8066     -137165.63    
    161300   2329.4685      4561.9516      4333.8276     -137166.66    
    161400   2287.0035     -232.4486       4307.1193     -137165.74    
    161500   2552.9827      7633.4536      4303.3747     -137168.47    
    161600   2437.2812      2452.4769      4361.0674     -137162.34    
    161700   2504.1604      160.30782      4421.7495     -137160.2     
    161800   2719.715      -3245.8985      4458.7262     -137164.51    
    161900   2360.0104     -14675.84       4460.0812     -137162.37    
    162000   2327.6056     -5668.6282      4388.4066     -137166.43    
    162100   2599.5856      8341.3199      4323.495      -137170.31    
    162200   2561.1179     -2716.901       4326.9123     -137168.34    
    162300   2381.3929      1645.9247      4352.3955     -137163.87    
    162400   2448.2908      1727.2403      4363.1639     -137162.4     
    162500   2798.6275      9855.0989      4379.259      -137161.27    
    162600   2752.2569      5745.5379      4448.6431     -137157.57    
    162700   2658.9847     -11448.834      4516.4811     -137162.73    
    162800   2435.71       -12896.425      4531.0777     -137161.04    
    162900   2444.428      -5418.8429      4491.4259     -137161.16    
    163000   2544.0852      1011.6916      4434.8167     -137160.5     
    163100   2581.6508      423.92006      4402.4704     -137156.7     
    163200   2602.4948      9876.7777      4373.5575     -137159.3     
    163300   2558.3114     -1794.9729      4378.335      -137168.17    
    163400   2384.8584     -3064.3859      4390.4739     -137164.43    
    163500   2576.9125     -1972.1383      4395.2662     -137164.28    
    163600   2560.5535      6062.7068      4390.7217     -137161.39    
    163700   2394.1104     -3798.3439      4416.5621     -137164.07    
    163800   2054.2702     -4623.1835      4450.4576     -137160.28    
    163900   2368.8447     -637.08558      4441.1349     -137162.45    
    164000   2580.9879     -855.77889      4406.407      -137165.64    
    164100   2413.4036      9892.3893      4389.3356     -137163.52    
    164200   2413.5082     -1508.3488      4406.7616     -137167.8     
    164300   2407.872      -5957.9618      4417.5499     -137171.31    
    164400   2541.1306     -9053.6784      4386.1636     -137172.66    
    164500   2532.0163      7726.0395      4332.7295     -137164.62    
    164600   2496.5376      1643.4283      4327.4498     -137161.02    
    164700   2442.213      -2394.0081      4344.8463     -137162.41    
    164800   2316.6039     -3034.1734      4348.693      -137169.17    
    164900   2441.2187     -16461.119      4330.4527     -137172.85    
    165000   2412.9435      9482.8616      4258.7902     -137166.91    
    165100   2651.1895      6479.854       4230.1098     -137170.24    
    165200   2539.8184      9252.333       4262.2664     -137170       
    165300   2489.0657      1052.147       4357.4075     -137171.84    
    165400   2375.053      -14198.16       4464.5258     -137165.94    
    165500   2752.9366     -3829.9011      4528.2502     -137164.57    
    165600   2578.8791     -22209.076      4565.2576     -137158.53    
    165700   2544.1278      5720.9761      4485.5124     -137158.8     
    165800   2418.6207     -3120.5574      4393.9198     -137160.9     
    165900   2455.1928      3081.9842      4265.1222     -137167.5     
    166000   2470.3321      21317.093      4176.5926     -137170.87    
    166100   2344.0483      8966.7194      4216.2769     -137174.94    
    166200   2189.2271      1971.7775      4342.1378     -137174.26    
    166300   2405.9974     -14352.157      4460.6638     -137169.46    
    166400   2593.8085     -7054.5674      4489.7781     -137168.66    
    166500   2691.8427     -5631.9982      4477.4893     -137166.15    
    166600   2496.5419     -4524.6247      4436.3493     -137163.6     
    166700   2395.5539     -2584.5556      4376.5984     -137166.79    
    166800   2290.5591      11999.07       4328.682      -137164.57    
    166900   2611.4085      8740.2883      4339.3249     -137164.16    
    167000   2755.308       400.53321      4382.4947     -137163.65    
    167100   2512.3825      4849.2072      4409.3095     -137164.35    
    167200   2372.898      -7384.2301      4438.1215     -137163.33    
    167300   2534.3761     -5428.7443      4420.0544     -137166.92    
    167400   2674.5648      2958.2885      4370.0144     -137164.19    
    167500   2871.1845      9020.1702      4340.9088     -137162.95    
    167600   2770.2132     -3432.372       4378.1282     -137168.93    
    167700   2453.8338     -6456.8369      4412.9261     -137163.46    
    167800   2389.9763     -10894.799      4418.871      -137161.37    
    167900   2496.5551     -3937.3121      4370.2964     -137160.69    
    168000   2813.1577      3340.234       4300.2329     -137166.84    
    168100   2435.7305      11680.138      4281.9073     -137165.24    
    168200   2430.3823      4827.3159      4315.0371     -137170.05    
    168300   2332.6095     -7326.0317      4358.1343     -137166.19    
    168400   2570.0215     -1553.9253      4362.6508     -137165.22    
    168500   2625.7684      7302.2984      4367.412      -137165.29    
    168600   2438.634      -7807.3648      4394.4131     -137161.99    
    168700   2438.6145     -4204.4617      4379.1484     -137162.38    
    168800   2485.3108      3369.0128      4349.4432     -137163.67    
    168900   2523.6842      3279.7768      4329.7888     -137174.39    
    169000   2240.4564     -4264.6185      4318.6685     -137169.42    
    169100   2530.7524     -1890.2734      4284.8628     -137169.05    
    169200   2652.9419      13154.355      4255.1709     -137168.2     
    169300   2566.5542      2639.5491      4291.2122     -137170.85    
    169400   2302.7728     -3697.1514      4360.2591     -137167       
    169500   2528.9116     -9904.4404      4410.7341     -137166.99    
    169600   2519.0851     -8905.7849      4400.6677     -137164.02    
    169700   2493.9811      1743.4106      4352.8534     -137162.71    
    169800   2652.75        628.71425      4312.1159     -137167.67    
    169900   2408.1861      583.61442      4293.1867     -137168.96    
    170000   2345.1716     -4864.3756      4283.3475     -137171.26    
    170100   2521.5882     -285.03377      4289.7852     -137172.09    
    170200   2528.1015      1664.278       4329.2682     -137169.4     
    170300   2560.6691     -7475.7015      4390.7388     -137168.4     
    170400   2509.0407     -6134.6308      4424.7581     -137165.45    
    170500   2594.6279     -9443.3327      4440.3207     -137164.54    
    170600   2872.9453      3045.2646      4441.8486     -137161.48    
    170700   2820.3628     -2510.7547      4443.8708     -137159.25    
    170800   2622.7984     -7982.6538      4430.8545     -137162.92    
    170900   2488.342       1379.3748      4368.1678     -137163.87    
    171000   2399.3939      12561.047      4275.893      -137165.65    
    171100   2447.6874      23438.248      4239.2487     -137169.75    
    171200   2185.5432     -1729.2733      4318.0593     -137167.3     
    171300   2283.7909     -9398.6956      4405.4334     -137167.65    
    171400   2572.7158     -13842.073      4448.5033     -137164.9     
    171500   2526.8205      2876.1778      4428.5199     -137161.31    
    171600   2458.1448      2687.5437      4401.9557     -137162.18    
    171700   2361.1815      8673.274       4382.2456     -137164.61    
    171800   2408.7359     -2447.6455      4408.3389     -137170.92    
    171900   2392.3173     -2770.1521      4439.1568     -137167.73    
    172000   2581.6267      6598.7213      4452.6943     -137163.12    
    172100   2572.9398     -6531.6197      4489.654      -137163.12    
    172200   2501.1142     -18183.31       4502.2778     -137165.92    
    172300   2285.1764     -3868.5851      4434.5531     -137163.91    
    172400   2641.522       8962.5984      4334.5018     -137167.41    
    172500   2814.5049      13597.526      4275.5607     -137166.2     
    172600   2477.5059      370.24219      4317.9044     -137164.6     
    172700   2371.2464     -11330.038      4408.7211     -137162.49    
    172800   2491.9304     -1232.5249      4459.5905     -137162.44    
    172900   2392.3918     -6587.4587      4465.9116     -137158.2     
    173000   2496.697       13008.486      4429.3155     -137155.22    
    173100   2835.1532      4293.7299      4436.6161     -137158.77    
    173200   2534.7321     -15775.593      4479.969      -137162.1     
    173300   2534.7021     -3378.9511      4450.9235     -137165.39    
    173400   2441.2377      15329.928      4412.6213     -137162.49    
    173500   2396.26        7280.2815      4434.1758     -137162.09    
    173600   2302.348      -4295.3332      4458.5183     -137160.49    
    173700   2649.0127      1353.8874      4449.0272     -137163.19    
    173800   2678.9236     -7121.6391      4444.3144     -137162.45    
    173900   2367.1266     -3558.7211      4416.9908     -137161.72    
    174000   2502.5329     -7460.6705      4375.1293     -137167.53    
    174100   2551.6927      1962.9396      4323.5958     -137167.29    
    174200   2482.1811      3970.3163      4286.7315     -137165.84    
    174300   2503.2075      7950.8801      4262.5336     -137168.7     
    174400   2445.0519      1617.3531      4292.2305     -137167.66    
    174500   2460.8107      11185.227      4355.3247     -137161.62    
    174600   2696.9716      6539.8341      4462.0275     -137162.57    
    174700   2531.2069     -19397.564      4581.1031     -137161.78    
    174800   2356.7242     -6750.4009      4601.916      -137160.97    
    174900   2384.3926     -10866.744      4553.456      -137162.82    
    175000   2608.8533      1723.4937      4442.5651     -137164.1     
    175100   2603.2881      2611.9122      4325.932      -137162.77    
    175200   2521.1327      13021.908      4266.5623     -137166.33    
    175300   2389.3034      3094.9673      4301.0059     -137168.87    
    175400   2497.3075      3830.9916      4357.8569     -137171.32    
    175500   2546.5183     -9783.2327      4419.5896     -137168.39    
    175600   2651.4709     -3853.5616      4421.9387     -137168.98    
    175700   2473.1052     -412.41859      4396.4859     -137163.97    
    175800   2375.2065      11874.334      4382.4489     -137160.82    
    175900   2574.0985     -6939.4413      4400.5571     -137165.51    
    176000   2614.2206      2371.7483      4391.1714     -137163.75    
    176100   2651.1413     -1178.3451      4392.2432     -137162.55    
    176200   2532.8975     -251.85981      4404.1002     -137164.99    
    176300   2388.6432     -16411.166      4397.8545     -137166.18    
    176400   2468.0748      15062.151      4335.0885     -137165.26    
    176500   2756.252       2202.2322      4336.6673     -137169.04    
    176600   2498.3401      2359.3783      4371.7547     -137165.93    
    176700   2362.743      -8819.571       4418.3685     -137167.39    
    176800   2347.5781      3143.6048      4416.2076     -137165.04    
    176900   2605.1638     -4339.6721      4402.9224     -137164.37    
    177000   2482.4188      10159.61       4393.4223     -137159.19    
    177100   2564.9591      1180.0054      4433.016      -137163.69    
    177200   2423.1043     -874.52366      4480.747      -137162.87    
    177300   2263.9941     -8523.2115      4487.315      -137162.06    
    177400   2499.5034     -3703.8644      4434.2784     -137169.35    
    177500   2534.2677      10354.676      4371.0026     -137167.21    
    177600   2460.5252      6272.7187      4352.4871     -137166.34    
    177700   2367.3653     -6518.7542      4353.8377     -137166.27    
    177800   2451.4518      6079.1451      4343.1179     -137165.44    
    177900   2581.7168      4431.575       4346.7892     -137161.56    
    178000   2777.8084     -1870.3172      4356.4485     -137166.19    
    178100   2435.4235     -16206.127      4382.2134     -137165.86    
    178200   2386.8108     -1223.7642      4354.5195     -137167.98    
    178300   2379.7784      6016.1102      4311.3186     -137166.72    
    178400   2408.5937      17294.175      4315.0315     -137165.89    
    178500   2522.6854      2657.1202      4397.3378     -137164.28    
    178600   2627.1759      3518.8534      4492.1961     -137159.49    
    178700   2509.5677     -9649.5942      4578.5734     -137157.03    
    178800   2514.4043     -7513.1796      4599.7378     -137158.25    
    178900   2493.2658     -11453.696      4567.2674     -137157.71    
    179000   2688.898      -12058.967      4481.0118     -137164.49    
    179100   2452.4814     -1435.2225      4379.1927     -137165.45    
    179200   2408.0922     -2011.4199      4297.2418     -137169.85    
    179300   2424.7743      8119.8257      4243.6815     -137167.07    
    179400   2476.5543      11661.547      4236.0657     -137165.51    
    179500   2566.7535      4499.8407      4287.4704     -137167.39    
    179600   2442.9563     -3476.3129      4352.2483     -137164.59    
    179700   2506.2309     -4609.3071      4396.4329     -137164.91    
    179800   2468.1253     -7429.4784      4405.4302     -137166.53    
    179900   2365.2422     -2132.2371      4369.9688     -137170.78    
    180000   2338.6705      4066.7225      4333.7049     -137171.38    
    180100   2451.3314     -1736.0012      4295.9162     -137166.18    
    180200   2543.835       18139.641      4246.3633     -137165.79    
    180300   2509.7412      7933.0071      4295.0205     -137170.95    
    180400   2303.6058     -5508.526       4407.5549     -137166.11    
    180500   2427.7791      4783.4421      4480.2333     -137162.1     
    180600   2609.0906     -18593.692      4514.0673     -137163.46    
    180700   2477.9986     -2944.6071      4465.7539     -137160.36    
    180800   2544.6205      6972.1743      4382.0083     -137167.23    
    180900   2398.3326     -1722.923       4339.7206     -137169.57    
    181000   2394.8826      14226.108      4315.7966     -137167.44    
    181100   2559.1848      7467.586       4345.9277     -137169.36    
    181200   2562.5408     -10437.158      4397.4364     -137168.65    
    181300   2543.1856     -3767.7433      4408.9469     -137167.4     
    181400   2617.202       3609.9538      4411.1456     -137164.12    
    181500   2803.3307     -2886.7439      4427.2197     -137165.25    
    181600   2495.8639     -10770.698      4436.3513     -137165.7     
    181700   2354.743       5399.5403      4387.716      -137165.56    
    181800   2511.9749      3191.8646      4349.8785     -137168.18    
    181900   2377.5767      10244.511      4334.8628     -137164.37    
    182000   2447.223      -8842.6312      4346.6159     -137171.66    
    182100   2196.4015      1571.2303      4340.8901     -137169.06    
    182200   2458.38        8385.0862      4329.4706     -137168.44    
    182300   2552.3199     -4599.728       4351.8095     -137166.57    
    182400   2527.829      -5374.7336      4368.3911     -137165.91    
    182500   2644.4011      155.95717      4398.3322     -137165.37    
    182600   2746.1783     -8076.2369      4428.6649     -137161.56    
    182700   2674.5563      231.45867      4436.3653     -137161.56    
    182800   2423.8774     -609.78613      4417.9268     -137165.83    
    182900   2426.87        3948.5133      4371.1696     -137167.45    
    183000   2323.6208      15534.476      4314.8537     -137164.12    
    183100   2608.2519      3830.5227      4302.219      -137165.78    
    183200   2798.4105      6973.6446      4312.0394     -137166       
    183300   2393.171      -5272.747       4375.8684     -137163.6     
    183400   2513.8003     -16957.342      4447.5839     -137171.86    
    183500   2354.6274     -2728.1921      4459.1017     -137164.78    
    183600   2427.4238     -205.28436      4434.6923     -137160.43    
    183700   2616.9006      6188.4201      4393.1923     -137164.14    
    183800   2622.4472      4976.1137      4361.3139     -137165.65    
    183900   2491.9477     -5741.3142      4365.4414     -137162.49    
    184000   2467.4779      755.32031      4352.2263     -137162.88    
    184100   2468.2359      972.99384      4320.4038     -137164.47    
    184200   2662.7362      13770.868      4295.337      -137170.08    
    184300   2333.0037      3677.4915      4333.6451     -137166.55    
    184400   2387.963      -10432.806      4390.4968     -137170.76    
    184500   2478.242      -1205.3426      4379.665      -137162.02    
    184600   2685.7394      11562.557      4331.4488     -137165.5     
    184700   2503.9252     -5360.936       4333.7775     -137166.63    
    184800   2483.5223     -11361.525      4350.1626     -137170.01    
    184900   2376.3073     -158.16611      4347.3545     -137164.65    
    185000   2525.2011      13033.887      4333.0019     -137160.85    
    185100   2711.6176     -3120.6063      4359.607      -137168.18    
    185200   2438.1297     -5407.312       4396.4948     -137164.06    
    185300   2513.474      -7085.525       4418.6444     -137166.5     
    185400   2542.8729     -1747.9752      4406.8718     -137169.58    
    185500   2304.4227     -4371.3834      4391.0144     -137167.02    
    185600   2435.6213      3678.9874      4354.0437     -137170.93    
    185700   2564.6525      386.50289      4328.5184     -137166.12    
    185800   2682.0113      6261.025       4338.2017     -137166.34    
    185900   2522.9973     -12693.168      4385.5645     -137168.77    
    186000   2303.4891     -12213.846      4384.0031     -137163.59    
    186100   2520.7834     -3589.3572      4335.6972     -137164.74    
    186200   2655.6902      2594.0898      4289.6699     -137167.3     
    186300   2623.0903      10702.206      4274.8711     -137168.17    
    186400   2232.0868     -4123.9604      4306.2123     -137165.7     
    186500   2223.9289      12764.84       4315.6403     -137167.84    
    186600   2613.6242     -3970.6812      4352.6006     -137170.5     
    186700   2589.6287     -13332.991      4394.3101     -137164.86    
    186800   2529.4905     -4148.2686      4398.4439     -137163.61    
    186900   2621.4977      3721.6067      4388.303      -137165.91    
    187000   2403.5327     -6714.8072      4399.9868     -137164.18    
    187100   2382.3735     -794.64069      4387.9567     -137165.92    
    187200   2621.0406      1245.3392      4383.7059     -137164.82    
    187300   2686.6335      6454.4301      4403.1594     -137161.53    
    187400   2595.5076     -6073.0002      4460.7239     -137163.5     
    187500   2372.8776     -7900.7284      4540.821      -137159.37    
    187600   2391.7052     -11402.654      4578.3133     -137158.25    
    187700   2484.3718     -3810.3585      4502.1722     -137160.33    
    187800   2768.3848     -1660.5046      4363.2693     -137169.37    
    187900   2374.9807      18944.036      4244.3037     -137163.81    
    188000   2610.1507      17055.031      4223.3868     -137173.16    
    188100   2436.6972     -1251.6246      4294.6785     -137170.18    
    188200   2332.9313      2178.9483      4371.1531     -137163.83    
    188300   2503.3882     -4703.4071      4430.0873     -137162.64    
    188400   2712.8073     -12433.326      4460.8084     -137166.29    
    188500   2629.3455     -3713.9602      4435.7393     -137167.59    
    188600   2237.9831      4796.4442      4382.993      -137160.55    
    188700   2461.6676      6679.201       4330.4809     -137167.66    
    188800   2421.3612      6337.4967      4300.9628     -137167.4     
    188900   2494.7854      3895.8976      4321.5785     -137167.35    
    189000   2690.0931     -3361.3746      4370.2773     -137161.58    
    189100   2581.7674      9153.5235      4397.1567     -137156.81    
    189200   2588.8048      2707.6514      4436.9323     -137163.32    
    189300   2343.9055     -11178.538      4475.6891     -137162.54    
    189400   2377.0568     -1338.0359      4454.2668     -137161.45    
    189500   2459.1183     -4484.7723      4397.4664     -137160.72    
    189600   2768.1383      1255.0567      4320.6595     -137167.51    
    189700   2622.0952      2686.4266      4266.8099     -137171.95    
    189800   2398.8413      5388.4248      4258.674      -137167.76    
    189900   2479.0999      6649.5204      4292.2725     -137167.58    
    190000   2533.7976      8065.7157      4386.0433     -137165.56    
    190100   2641.361      -8380.2862      4503.991      -137162.98    
    190200   2671.6542     -11455.943      4577.6662     -137160.03    
    190300   2488.0012     -10350.86       4569.9302     -137158.98    
    190400   2461.2388     -259.97025      4474.4413     -137165.87    
    190500   2436.8403      3237.3293      4384.6945     -137167.02    
    190600   2322.71       -1843.2586      4306.9766     -137166.07    
    190700   2547.6269      3779.2185      4238.2351     -137168.67    
    190800   2768.9691      5942.011       4210.4793     -137169.33    
    190900   2364.6372      10370.024      4254.5075     -137166.31    
    191000   2385.4823     -9649.8694      4367.0193     -137168.95    
    191100   2424.4552     -11600.989      4430.8328     -137164.81    
    191200   2586.3976      456.24855      4433.6607     -137164.04    
    191300   2619.5235     -4075.5024      4424.6807     -137164.7     
    191400   2612.759      -3055.5998      4411.991      -137167.32    
    191500   2441.1832     -772.08415      4386.5104     -137171.1     
    191600   2426.2788     -7161.3219      4364.6304     -137172.99    
    191700   2451.3161      3301.2673      4330.3831     -137171       
    191800   2522.0699      2261.1268      4310.6594     -137169.37    
    191900   2546.0785      8209.4404      4314.721      -137166.88    
    192000   2557.0482     -10611.391      4350.2912     -137166.26    
    192100   2525.9678     -1878.5453      4362.7786     -137163.63    
    192200   2601.9112      5238.4384      4372.604      -137165.18    
    192300   2420.7174     -6434.6003      4414.7919     -137165.72    
    192400   2376.1277     -3432.6433      4445.947      -137164.42    
    192500   2641.4756      4094.8425      4451.4603     -137163.3     
    192600   2761.4018     -7329.3893      4476.7131     -137163.65    
    192700   2651.194      -9787.452       4489.3162     -137164.09    
    192800   2475.2671      806.87368      4449.6464     -137161.84    
    192900   2534.6249      5882.0491      4392.6963     -137165.71    
    193000   2658.4827     -3410.3573      4376.9859     -137172.94    
    193100   2328.0271     -5130.049       4395.62       -137166.37    
    193200   2659.5145     -10039.079      4388.579      -137165.97    
    193300   2605.5766      13836.566      4354.7278     -137160.99    
    193400   2529.371      -5258.2278      4382.3941     -137164.44    
    193500   2391.4963     -1321.0104      4411.8445     -137163.89    
    193600   2499.7034     -6715.3846      4430.7754     -137160.58    
    193700   2585.6069     -1353.995       4415.742      -137157.24    
    193800   2636.0193      1292.9766      4402.5003     -137161.9     
    193900   2461.4686     -10468.565      4403.7465     -137160.09    
    194000   2392.0885      8520.2377      4369.3126     -137159.85    
    194100   2437.4098     -15075.986      4334.6788     -137167.12    
    194200   2399.2149      4063.4879      4265.8986     -137171.13    
    194300   2310.4401      8874.7937      4229.0785     -137167.26    
    194400   2614.1009      14092.172      4255.2271     -137164.9     
    194500   2600.9066     -8335.3695      4367.9883     -137165.31    
    194600   2320.7892     -11908.901      4460.6966     -137164.56    
    194700   2289.7102     -6566.1827      4465.8769     -137161.5     
    194800   2506.6054     -2250.7405      4391.2548     -137161.49    
    194900   2693.2437      9170.6766      4306.3114     -137166.23    
    195000   2532.8628      4350.6921      4261.3559     -137168.48    
    195100   2502.2663      8061.5424      4259.7017     -137171.15    
    195200   2374.9171     -1230.1816      4314.1455     -137168.45    
    195300   2488.0554      7035.0841      4385.5184     -137166.1     
    195400   2712.0026     -6724.8032      4487.2062     -137163.94    
    195500   2566.107      -7134.2671      4561.2058     -137161.99    
    195600   2535.2095     -23540.587      4573.4134     -137162.78    
    195700   2600.182       1327.6888      4467.4599     -137164.64    
    195800   2588.3706      8857.1861      4347.4063     -137166.89    
    195900   2417.4353      2507.5202      4272.1252     -137171.59    
    196000   2308.3487      20050.378      4247.8872     -137169.94    
    196100   2566.2822     -6591.2811      4319.4082     -137172.94    
    196200   2450.0461      3251.8332      4382.28       -137165.82    
    196300   2474.6242      1362.7661      4459.5837     -137163.1     
    196400   2418.8143     -10520.345      4520.7195     -137159.06    
    196500   2724.9354      18924.014      4521.3995     -137156.72    
    196600   2684.9514      4870.0812      4555.7143     -137151.81    
    196700   2494.1717     -4788.1842      4550.7714     -137152.61    
    196800   2544.1627      1752.654       4500.7972     -137159.79    
    196900   2485.1169      4323.155       4443.2834     -137163.58    
    197000   2546.232       6770.0782      4399.8479     -137169.01    
    197100   2460.703      -1892.1116      4397.7929     -137167.64    
    197200   2607.8222     -2611.3828      4392.2213     -137165.64    
    197300   2764.3476      4448.7128      4374.9981     -137164.43    
    197400   2555.7388      2854.0633      4386.1556     -137165.48    
    197500   2409.9121     -13482.509      4432.1483     -137165.05    
    197600   2452.7699     -1124.4626      4415.9084     -137163.94    
    197700   2531.2987      3308.3363      4361.0202     -137164.27    
    197800   2528.0806     -5882.5804      4313.5633     -137165.67    
    197900   2468.3827      13496.665      4286.9453     -137167.23    
    198000   2207.0713      5416.7006      4323.3865     -137159.25    
    198100   2557.4284      3057.9013      4372.0707     -137163.16    
    198200   2498.157       4418.7098      4428.3208     -137159.82    
    198300   2402.8379     -1424.945       4452.6247     -137162.11    
    198400   2254.0098     -1314.8265      4422.1723     -137165.69    
    198500   2545.1838     -2928.3255      4357.4573     -137173.46    
    198600   2482.9233      7053.1249      4290.763      -137170.05    
    198700   2478.0198      8172.6668      4278.0571     -137168.68    
    198800   2574.495       8005.7615      4320.3779     -137171.43    
    198900   2413.2127     -17686.733      4407.6645     -137169.01    
    199000   2282.993       7881.0314      4410.0047     -137159.62    
    199100   2777.7384      3490.4221      4396.9447     -137166.14    
    199200   2566.4917     -7801.4921      4412.5161     -137163.02    
    199300   2290.5601      963.52553      4392.7659     -137161.53    
    199400   2264.3582      7289.4742      4356.3219     -137159.5     
    199500   2918.197       9584.9966      4328.1246     -137166.62    
    199600   2482.4543      6722.1437      4355.8997     -137159.6     
    199700   2547.4385      3000.2735      4417.1284     -137167.41    
    199800   2352.2739     -10174.952      4474.5142     -137162.46    
    199900   2513.0889     -7626.3966      4459.614      -137160.02    
    200000   2617.9877      12814.875      4420.7302     -137158.56    
    200100   2641.2495     -1226.4015      4425.4718     -137162.44    
    200200   2603.2846     -5186.6561      4435.2163     -137164.47    
    200300   2547.937      -4721.6242      4439.2422     -137165.39    
    200400   2363.3854     -2819.724       4422.284      -137161.41    
    200500   2632.3971      7002.1322      4382.2269     -137162.06    
    200600   2778.4655     -19.960509      4375.3596     -137161.32    
    200700   2575.3775     -8577.6595      4398.627      -137164.96    
    200800   2418.9445      6651.5506      4414.543      -137164.23    
    200900   2384.8286      5536.0426      4459.4038     -137162.36    
    201000   2504.3744     -15353.436      4516.5516     -137159.21    
    201100   2818.6716     -4009.453       4487.9209     -137162.09    
    201200   2660.8308      4383.8753      4438.0727     -137161.64    
    201300   2554.2453      3277.2525      4402.9138     -137163.84    
    201400   2600.7164     -5430.3678      4363.6957     -137169.19    
    201500   2513.1694      15080.203      4310.8595     -137171.18    
    201600   2333.0394     -3153.336       4325.5654     -137168.61    
    201700   2586.2834     -1555.4497      4355.1783     -137165.4     
    201800   2740.0726     -7337.5014      4377.5087     -137166.84    
    201900   2542.5249     -3205.941       4399.6066     -137165.27    
    202000   2352.6569     -6578.9291      4411.8674     -137161.46    
    202100   2745.9671      4577.6053      4397.4856     -137164.11    
    202200   2647.251       9512.1838      4404.356      -137160.84    
    202300   2384.0014     -7270.4012      4444.7891     -137162.28    
    202400   2510.2404     -7841.6418      4449.9589     -137166.51    
    202500   2475.0504      1031.4323      4408.0705     -137165.12    
    202600   2651.5423      5061.354       4368.4983     -137166.44    
    202700   2569.1248     -8101.5247      4372.364      -137163.63    
    202800   2368.9389      3495.557       4386.3824     -137164.86    
    202900   2218.9674     -10270.054      4397.7217     -137164.66    
    203000   2464.9237      6520.224       4355.4501     -137164.92    
    203100   2592.8109      8272.7797      4308.8218     -137165.69    
    203200   2541.7698      3899.9097      4305.4777     -137166.22    
    203300   2492.1569     -4639.5081      4324.3392     -137168.51    
    203400   2331.9322      4403.9977      4329.4493     -137165.52    
    203500   2691.147       10792.455      4352.8959     -137165.68    
    203600   2620.1803      210.45983      4430.2194     -137159.21    
    203700   2497.0788     -12695.402      4529.4877     -137161.36    
    203800   2318.6148     -7104.3028      4567.6218     -137158.42    
    203900   2634.2715      19.382774      4516.5371     -137162.63    
    204000   2772.4402      10009.508      4461.2507     -137159.03    
    204100   2634.9683     -2449.6648      4449.2851     -137160.05    
    204200   2402.9547     -7079.4174      4439.5178     -137163.06    
    204300   2496.0287      1081.0279      4374.1299     -137167.17    
    204400   2561.6037      8762.4438      4301.5512     -137167.86    
    204500   2435.8882      7320.1825      4283.3061     -137169.34    
    204600   2183.5187     -7891.0214      4293.293      -137168.7     
    204700   2499.7426      6312.362       4276.4279     -137174.01    
    204800   2695.4678     -2348.632       4303.1833     -137171.28    
    204900   2587.8532     -5137.3278      4353.5473     -137163.46    
    205000   2538.8312      2645.7984      4394.2708     -137163.64    
    205100   2484.8116     -7425.9721      4452.8262     -137164.36    
    205200   2497.8029     -8158.6871      4477.455      -137164.99    
    205300   2651.534      -732.32361      4444.6611     -137162.82    
    205400   2640.5725      7783.9663      4400.7476     -137157.51    
    205500   2594.5549      1000.7799      4408.6696     -137163.6     
    205600   2398.9365      4218.9027      4452.0394     -137162.97    
    205700   2580.332      -11397.24       4501.2364     -137167.19    
    205800   2493.2092     -8885.8311      4526.1063     -137158.62    
    205900   2726.3948     -12113.958      4517.4613     -137162.39    
    206000   2482.731      -368.06907      4475.1754     -137163.68    
    206100   2310.8792      323.62468      4399.099      -137165.46    
    206200   2503.5419      8472.5531      4300.9216     -137167.45    
    206300   2567.6145      11816.004      4229.3529     -137167.7     
    206400   2349.7742      21680.16       4220.5876     -137167.17    
    206500   2265.0225     -673.78008      4309.557      -137171.6     
    206600   2269.9451     -6944.4021      4396.9819     -137166.8     
    206700   2493.4965     -6057.361       4446.3773     -137164.95    
    206800   2601.1388      5123.5319      4467.7299     -137164.17    
    206900   2434.9131     -2090.7799      4495.4224     -137155.98    
    207000   2768.8735     -22582.47       4503.0528     -137161.64    
    207100   2762.0937      2566.8289      4461.0914     -137162.02    
    207200   2449.82       -4007.6847      4451.6391     -137163.1     
    207300   2345.5322      1782.6855      4442.6386     -137163.9     
    207400   2310.1323      1466.6488      4427.8575     -137159.43    
    207500   2546.4553      10364.538      4393.5596     -137161.09    
    207600   2574.7249     -7071.6404      4401.8449     -137161.92    
    207700   2333.488       6358.859       4378.1616     -137163.6     
    207800   2309.0326     -11330.846      4364.6728     -137169.39    
    207900   2619.7897      1983.6306      4287.6344     -137173.33    
    208000   2545.4445      16093.881      4235.118      -137166.41    
    208100   2359.2068      4245.7468      4269.4247     -137163.43    
    208200   2290.8035     -3326.4239      4333.4303     -137168.3     
    208300   2119.2392     -14713.131      4380.5406     -137167.49    
    208400   2308.5595      6266.1777      4348.0196     -137163.9     
    208500   2514.3822      6214.917       4333.2514     -137165.91    
    208600   2520.8445      1210.1497      4362.397      -137164.98    
    208700   2411.3349      5163.8366      4382.8228     -137161.99    
    208800   2547.6969     -4094.1056      4401.9729     -137167.74    
    208900   2320.873      -604.54405      4403.8567     -137164.98    
    209000   2485.191       4260.1954      4382.1955     -137166.09    
    209100   2732.5865      2945.7162      4369.3431     -137166.75    
    209200   2520.6995      11408.809      4379.047      -137163.17    
    209300   2176.3008     -4783.1825      4412.5413     -137162.82    
    209400   2360.0979     -10380.36       4401.9667     -137167.49    
    209500   2625.7664     -5746.6011      4337.1346     -137169.53    
    209600   2511.9784      13680.589      4271.5418     -137165.51    
    209700   2547.6479      6502.6739      4270.3533     -137166.47    
    209800   2402.3808      2675.4023      4311.9797     -137163.62    
    209900   2368.8658     -2174.0744      4370.5157     -137167.15    
    210000   2204.5135     -2062.6123      4416.8862     -137164.17    
    210100   2434.4815     -2670.6224      4455.8886     -137162.33    
    210200   2623.6544     -4958.2334      4491.0132     -137162.6     
    210300   2629.048      -3995.2154      4493.4585     -137162.23    
    210400   2612.2565      790.28534      4479.6563     -137161.72    
    210500   2523.628      -750.96114      4478.125      -137160.73    
    210600   2510.2448     -3243.7297      4471.2858     -137162.18    
    210700   2417.5319     -1466.3204      4431.0372     -137161.2     
    210800   2644.3613      3134.3679      4378.8538     -137165.3     
    210900   2554.8442     -4177.7973      4363.2059     -137164.51    
    211000   2488.4931      778.07381      4362.2636     -137169.52    
    211100   2204.2574     -198.97974      4372.473      -137163.65    
    211200   2495.735      -2615.0136      4385.8918     -137163.77    
    211300   2563.8853     -5045.8857      4401.3617     -137161.06    
    211400   2638.7541     -3607.3781      4387.9232     -137165.36    
    211500   2553.4159     -4023.6861      4364.692      -137169.2     
    211600   2322.5126      3773.978       4342.622      -137166.3     
    211700   2318.1211      2923.5304      4344.4732     -137161.79    
    211800   2443.8113      1096.611       4352.9666     -137160.71    
    211900   2578.4479     -4764.833       4358.4162     -137164.73    
    212000   2452.1877      5234.6336      4350.0418     -137166.48    
    212100   2524.8827      325.56364      4343.2993     -137172.42    
    212200   2539.079       4529.122       4346.4148     -137171.03    
    212300   2672.6399      463.18509      4385.6092     -137164.01    
    212400   2630.7304     -2444.7608      4430.1931     -137161.37    
    212500   2527.61       -2921.7452      4461.187      -137165.01    
    212600   2375.8421     -6048.9642      4472.5447     -137163.91    
    212700   2483.8182     -6361.5337      4437.2589     -137164.94    
    212800   2518.4251      2153.923       4332.8435     -137166.29    
    212900   2738.7392      12811.469      4254.7429     -137173.69    
    213000   2334.4338      15438.24       4279.4281     -137166.59    
    213100   2451.891      -9134.7306      4367.2574     -137169.08    
    213200   2389.0343     -3133.0106      4408.2291     -137164.41    
    213300   2526.9738     -5421.7893      4403.6334     -137165.78    
    213400   2460.3236      80.024942      4372.5543     -137163.76    
    213500   2526.8335     -1536.9683      4331.9619     -137167.08    
    213600   2353.4154      1440.9996      4302.1227     -137167.34    
    213700   2310.3481      5099.9073      4294.1448     -137173.49    
    213800   2388.0288      1258.5561      4328.2394     -137171.91    
    213900   2619.0246     -6819.7021      4375.364      -137170.14    
    214000   2494.922      -8311.1355      4384.5684     -137165.37    
    214100   2373.5106      8816.761       4359.2317     -137160.2     
    214200   2598.7801     -9594.7193      4362.8519     -137163.8     
    214300   2741.879       8333.3769      4357.1771     -137166.4     
    214400   2398.2518     -6005.8599      4408.5492     -137164.09    
    214500   2327.6456     -12412.157      4442.4723     -137164.19    
    214600   2515.665       4374.9868      4405.2197     -137163.1     
    214700   2549.0125      19829.787      4394.8628     -137159.01    
    214800   2538.5906     -11778.916      4420.6625     -137161.38    
    214900   2435.5684      5409.128       4368.2662     -137160.88    
    215000   2492.2243      16321.403      4306.5594     -137165.08    
    215100   2201.9526      14103.469      4290.4699     -137165.04    
    215200   2318.1417     -1339.3405      4307.7706     -137170.91    
    215300   2413.4432      4066.9463      4288.9123     -137169.66    
    215400   2600.5041      13389.634      4277.8382     -137170.72    
    215500   2550.6439     -6997.5796      4342.3377     -137167.41    
    215600   2593.4282     -1217.5705      4415.0256     -137168.46    
    215700   2454.4982     -10365.544      4473.0203     -137163.14    
    215800   2787.2773     -16759.877      4458.7359     -137166.29    
    215900   2791.1356      1627.8436      4398.6606     -137164.37    
    216000   2559.5931     -6106.2809      4359.4752     -137165.82    
    216100   2630.0491     -9302.4454      4325.555      -137172.63    
    216200   2466.1122      4725.8239      4266.1703     -137168.56    
    216300   2487.8617      11150.33       4248.4558     -137167.92    
    216400   2641.5854      3163.9989      4319.0507     -137167.82    
    216500   2667.2565      3442.1025      4427.2836     -137159.54    
    216600   2585.5876     -9353.504       4502.5196     -137155.32    
    216700   2515.9504     -5494.9268      4484.3645     -137162.42    
    216800   2491.9869     -1318.3552      4430.0452     -137166.08    
    216900   2527.7891     -3467.5885      4355.8237     -137166.32    
    217000   2522.9032      12018.635      4274.0045     -137164.46    
    217100   2461.0984      3828.0581      4246.7887     -137169.15    
    217200   2268.7717      5642.8688      4228.231      -137171.1     
    217300   2479.6843      10356.523      4227.1324     -137174.34    
    217400   2476.6613     -3934.0676      4272.1787     -137169.19    
    217500   2502.1897      1054.0488      4319.6413     -137164.94    
    217600   2380.8724     -477.30014      4369.4196     -137160.6     
    217700   2487.9712     -291.65281      4417.5579     -137164.06    
    217800   2487.0178     -10936.425      4460.0672     -137165.54    
    217900   2441.4943     -12873.632      4443.8938     -137163.92    
    218000   2741.7192      6049.8238      4386.1413     -137164.93    
    218100   2524.4442      10354.04       4385.658      -137163.18    
    218200   2379.1096     -2057.1813      4440.6083     -137165.41    
    218300   2413.7394     -12110.775      4474.3376     -137165.88    
    218400   2440.2066     -5356.8584      4444.0504     -137162.19    
    218500   2544.3339      3282.3724      4373.3758     -137163.14    
    218600   2537.3399      3262.4722      4326.7032     -137165.53    
    218700   2518.2225     -208.34742      4308.6609     -137171.39    
    218800   2415.494      -1415.497       4312.5392     -137169.32    
    218900   2479.7412     -2619.8232      4320.1015     -137167.29    
    219000   2494.6414      5910.0129      4322.2441     -137166.39    
    219100   2386.5606     -272.32418      4365.5407     -137163.88    
    219200   2431.9052     -1744.6384      4425.1151     -137165.87    
    219300   2447.2152     -3862.5254      4465.9352     -137159.95    
    219400   2708.2981     -7275.748       4488.3757     -137159.57    
    219500   2561.3596     -2232.2625      4481.7981     -137160.13    
    219600   2502.0188     -901.83454      4452.4708     -137164.21    
    219700   2386.3849      1701.3399      4414.6619     -137164.2     
    219800   2550.5055      1232.7853      4381.427      -137167.98    
    219900   2541.0131     -3476.714       4337.6138     -137169.62    
    220000   2614.6643      11105.707      4309.1294     -137172.79    
    220100   2354.7012     -6397.734       4359.9769     -137166.06    
    220200   2511.8871      2879.5273      4404.7162     -137165.78    
    220300   2549.6627     -6601.4023      4463.7433     -137161.32    
    220400   2589.2884     -14714.629      4475.1898     -137162.27    
    220500   2560.549       1860.1945      4409.425      -137163.51    
    220600   2390.5362      5695.2382      4344.879      -137162.73    
    220700   2541.4544      980.48156      4292.0482     -137170.59    
    220800   2305.4321      5417.5551      4277.9175     -137171.33    
    220900   2256.3543     -3432.4457      4299.67       -137172.1     
    221000   2486.3479      6131.9502      4326.9528     -137166.19    
    221100   2573.8088      151.57291      4386.7886     -137164.71    
    221200   2577.1573     -5679.3979      4468.78       -137164.44    
    221300   2411.3918     -11304.695      4531.4787     -137158.15    
    221400   2649.7707      9458.2011      4529.9408     -137156.53    
    221500   2589.0686     -8085.8671      4544.1749     -137155.34    
    221600   2489.442       2192.3691      4492.1068     -137160.35    
    221700   2632.0832     -2607.3419      4411.007      -137167.14    
    221800   2410.2449      10387.325      4329.3563     -137162.84    
    221900   2365.7284      10337.053      4285.079      -137165.47    
    222000   2319.7002      7048.6163      4282.544      -137167.82    
    222100   2379.0433      3835.7417      4294.8401     -137167.02    
    222200   2609.9204      9447.6141      4338.7484     -137164.07    
    222300   2521.6189     -8906.9301      4452.701      -137159.69    
    222400   2404.2673     -11844.006      4529.4837     -137157.33    
    222500   2506.6114     -10209.013      4524.4239     -137160.63    
    222600   2501.5829      2420.6579      4465.8674     -137162.19    
    222700   2365.1071      808.58879      4416.0947     -137162.79    
    222800   2459.022       262.59153      4355.5203     -137166.41    
    222900   2570.9351      6439.8984      4299.5186     -137166.16    
    223000   2719.546       10089.456      4278.1288     -137167.15    
    223100   2447.3505      3514.1937      4340.8396     -137163.18    
    223200   2202.0896     -7844.1508      4436.9961     -137161.65    
    223300   2423.1186     -2216.9004      4482.6561     -137164.07    
    223400   2635.958      -12360.413      4481.9252     -137160.29    
    223500   2636.17        4444.597       4423.2763     -137160.99    
    223600   2476.2989      6527.6504      4380.4132     -137163.92    
    223700   2387.8095     -3502.0866      4348.751      -137166.41    
    223800   2354.6388      13637.512      4303.9206     -137164.61    
    223900   2611.4667      1649.044       4307.4162     -137166.25    
    224000   2726.3252      6826.55        4325.78       -137166.48    
    224100   2774.7808     -2584.8371      4379.9721     -137166.29    
    224200   2467.9583     -13872.071      4431.185      -137165.91    
    224300   2336.4238     -6666.5139      4404.7931     -137166.37    
    224400   2466.983       5403.4871      4296.7675     -137168.39    
    224500   2688.2664      20172.688      4209.2919     -137167.79    
    224600   2543.0364      6061.6044      4232.7584     -137167.77    
    224700   2202.1024     -379.65639      4323.2698     -137166.25    
    224800   2377.3134     -8947.2012      4395.7243     -137166.85    
    224900   2586.7404     -3103.3445      4411.1032     -137167.92    
    225000   2680.5419     -2197.3925      4411.6818     -137168.18    
    225100   2422.3632     -871.99034      4386.8317     -137163.52    
    225200   2404.8659     -812.17174      4339.4717     -137169.54    
    225300   2229.2595     -3339.1463      4278.3184     -137172.6     
    225400   2411.1879      5336.4728      4202.3329     -137172.27    
    225500   2425.6638      15710.936      4177.9652     -137167.59    
    225600   2511.9619      3354.4695      4259.9862     -137167.91    
    225700   2437.2694     -3536.8945      4377.903      -137164.33    
    225800   2551.0564     -5814.5969      4466.9569     -137163.24    
    225900   2687.6643     -3641.0292      4508.7899     -137159.57    
    226000   2566.6507     -298.07382      4504.1662     -137159.58    
    226100   2286.212       386.67995      4487.953      -137159.79    
    226200   2286.8073     -992.34975      4449.1579     -137161.42    
    226300   2592.6138      1869.0471      4366.8455     -137168.5     
    226400   2612.6359      3408.5181      4307.8773     -137169.38    
    226500   2467.2672      8834.6283      4296.2083     -137168.93    
    226600   2246.0652     -3276.2704      4343.586      -137171.16    
    226700   2334.8785     -6226.6609      4389.8835     -137172.06    
    226800   2501.2405     -1895.97        4429.6912     -137167.04    
    226900   2483.1383      1833.9618      4454.3559     -137164.33    
    227000   2521.7903      44.478064      4435.7533     -137161.73    
    227100   2619.6721      4599.1283      4384.6755     -137161.16    
    227200   2497.7991      6231.1311      4362.2834     -137164.12    
    227300   2430.9678     -6842.9003      4351.0502     -137170.26    
    227400   2476.2967      5202.3055      4315.3944     -137167.46    
    227500   2639.5502      5777.8389      4295.4752     -137168.94    
    227600   2382.0972      3599.9317      4305.2485     -137165.27    
    227700   2259.9152      0.59890876     4325.9791     -137168.17    
    227800   2051.8068     -2187.7941      4320.439      -137169.54    
    227900   2413.6077      6452.6866      4293.1605     -137170.21    
    228000   2493.8928      5012.5296      4297.6391     -137167.9     
    228100   2401.9627      7815.3156      4331.4707     -137163.51    
    228200   2565.0716      1612.253       4408.0658     -137164.65    
    228300   2626.7988     -7847.0332      4498.244      -137162.82    
    228400   2767.6722     -27490.038      4554.8743     -137160.56    
    228500   2609.6963      1574.0068      4504.4126     -137158.14    
    228600   2550.2911      266.30899      4413.7436     -137168.09    
    228700   2556.373       5248.8179      4314.4255     -137170.39    
    228800   2320.1754      14787.928      4236.3951     -137164.14    
    228900   2481.7928      20655.451      4193.2384     -137163.82    
    229000   2716.2503      11005.112      4249.4651     -137165.42    
    229100   2574.6205     -11592.175      4400.4238     -137164.46    
    229200   2439.7981     -20804.787      4506.09       -137166.4     
    229300   2371.0174     -5027.7894      4495.1757     -137162.66    
    229400   2588.4683      6887.2475      4443.1851     -137160.15    
    229500   2585.5482     -3925.8571      4401.3024     -137161.42    
    229600   2632.9419      15176.522      4350.7569     -137166.03    
    229700   2435.1816     -2770.6348      4379.817      -137163.2     
    229800   2655.3173     -3200.5765      4412.7244     -137169.5     
    229900   2396.2392     -7038.7985      4443.8373     -137163.58    
    230000   2534.4072     -7115.0166      4471.7898     -137164.53    
    230100   2564.1227      3093.8333      4468.8913     -137162.69    
    230200   2530.6996     -8189.262       4460.3972     -137162.77    
    230300   2368.166       2903.9296      4431.8124     -137160.49    
    230400   2586.2193      3453.454       4405.2025     -137164.48    
    230500   2613.8972      296.03339      4378.7272     -137166.16    
    230600   2534.7587     -11552.451      4354.5168     -137170.2     
    230700   2253.2652      2936.4932      4307.6789     -137166.59    
    230800   2665.8568      1959.7482      4292.1358     -137170.03    
    230900   2529.7707      11863.739      4336.7655     -137163.28    
    231000   2351.9463     -13457.913      4451.3251     -137158.24    
    231100   2596.0152     -2248.8971      4503.9899     -137159.2     
    231200   2546.9614     -11757.452      4524.2535     -137155.86    
    231300   2488.9176     -4113.6341      4480.7834     -137163.7     
    231400   2442.8408     -2982.4737      4376.1352     -137169.09    
    231500   2660.1936      11767.3        4253.5578     -137173.64    
    231600   2679.3327      10318.729      4188.2311     -137172.85    
    231700   2393.2592      14042.149      4194.0972     -137170.48    
    231800   2189.5532      2619.3321      4274.3921     -137170.75    
    231900   2414.432      -1854.7554      4371.5413     -137172.08    
    232000   2439.3913     -8743.0112      4435.2023     -137165.2     
    232100   2484.2896     -276.7826       4443.5916     -137163.71    
    232200   2469.1037     -3597.6821      4411.2883     -137162.14    
    232300   2631.9226      10149.238      4354.4277     -137166.36    
    232400   2456.203       1420.256       4321.2051     -137170.17    
    232500   2438.4124     -2637.031       4300.3915     -137172.54    
    232600   2435.8739      2312.6033      4302.8104     -137168.28    
    232700   2348.6124      7452.4368      4345.4817     -137161.35    
    232800   2598.079      -5946.9832      4413.2493     -137168.71    
    232900   2403.6102     -10038.61       4434.4919     -137164.93    
    233000   2516.8824     -8885.0537      4384.8598     -137166.13    
    233100   2741.9342      13444.801      4326.4112     -137164.36    
    233200   2714.0366      14261.545      4354.5546     -137158.12    
    233300   2584.6916     -10644.24       4449.7417     -137163.57    
    233400   2464.8512     -12007.083      4503.9909     -137162.95    
    233500   2549.1078     -12095.816      4521.2432     -137163.03    
    233600   2696.9953     -4755.2572      4499.3294     -137162.15    
    233700   2550.9351     -373.68352      4459.4398     -137160.19    
    233800   2351.9596      1772.3037      4393.9659     -137165.07    
    233900   2466.0472     -792.58178      4303.0237     -137169.35    
    234000   2502.6798      14700.737      4214.6242     -137168.88    
    234100   2472.0756      8265.5248      4207.842      -137168.19    
    234200   2361.4058     -7406.8643      4253.6896     -137171.05    
    234300   2279.069       2132.4201      4280.0476     -137173.03    
    234400   2428.7357     -4712.9984      4322.2071     -137170.86    
    234500   2482.6172      175.54754      4345.6222     -137165.9     
    234600   2389.7318      5435.2212      4369.8399     -137161.48    
    234700   2574.9982     -4880.409       4424.9353     -137165.13    
    234800   2267.6452     -9240.0884      4471.9694     -137158.53    
    234900   2370.0997     -11742.034      4464.9393     -137161.82    
    235000   2585.5789      14463.719      4380.2497     -137162.37    
    235100   2677.0296      10261.066      4322.1579     -137163.83    
    235200   2508.0669      2680.4826      4316.9396     -137169.56    
    235300   2448.9713     -5690.7177      4345.8943     -137170.37    
    235400   2401.3398     -1896.7416      4381.4151     -137165.6     
    235500   2482.3975     -4131.7046      4423.7771     -137161.2     
    235600   2586.6002     -4158.6942      4461.1254     -137162.68    
    235700   2560.9912     -919.85119      4513.2235     -137162.41    
    235800   2515.3532     -7941.2837      4551.4936     -137161.88    
    235900   2444.6824     -3023.2336      4536.9223     -137159.5     
    236000   2577.7326     -5949.2723      4482.6901     -137161.88    
    236100   2665.4557      5256.386       4387.6182     -137166.4     
    236200   2402.8597      8676.3156      4322.4865     -137168.84    
    236300   2275.4778      3160.0362      4287.4213     -137165.97    
    236400   2650.7992     -805.09996      4258.2515     -137171.13    
    236500   2610.5131      6788.0885      4255.3556     -137168.7     
    236600   2430.6713      6241.2648      4325.4049     -137165.86    
    236700   2419.0412     -12093.753      4423.0709     -137165.34    
    236800   2593.5778     -7171.9424      4446.8911     -137162.01    
    236900   2752.4736      1452.1875      4437.1412     -137160.03    
    237000   2451.5326     -2583.8559      4436.077      -137158.56    
    237100   2597.8985     -7190.8665      4396.4348     -137168.26    
    237200   2497.9628      1468.7615      4318.0925     -137169.28    
    237300   2474.5671      4919.3021      4241.3475     -137171.9     
    237400   2254.6863      11510.442      4191.6937     -137171.89    
    237500   2239.3532      10060.83       4200.1575     -137173.16    
    237600   2529.6811      5181.9777      4275.5786     -137172.26    
    237700   2491.9324     -897.40673      4410.3519     -137168.25    
    237800   2447.1456     -11314.067      4552.5487     -137160.65    
    237900   2540.5505     -4379.3293      4604.2894     -137157.64    
    238000   2572.4874     -10258.894      4591.4194     -137158.05    
    238100   2551.5679     -10243.28       4521.0886     -137160.25    
    238200   2376.5957     -1824.705       4410.8442     -137161.95    
    238300   2472.8289     -2056.1579      4318.9374     -137169.82    
    238400   2403.5593      120.92829      4246.6919     -137172.75    
    238500   2477.9484      4463.066       4218.6966     -137171.74    
    238600   2678.9399      3948.7641      4253.0045     -137169.69    
    238700   2409.0442      36.334307      4327.6295     -137162.76    
    238800   2501.3288     -5590.7124      4408.5481     -137161.44    
    238900   2626.4029      15146.409      4461.8772     -137154.99    
    239000   2576.791      -13468.681      4529.3194     -137159.03    
    239100   2461.7382     -6006.6787      4511.5125     -137159.93    
    239200   2387.2869     -2883.3799      4442.061      -137160.45    
    239300   2461.1056      10139.843      4362.281      -137162.53    
    239400   2583.3903      3022.4943      4306.5703     -137166.01    
    239500   2471.6679      6882.7193      4299.1139     -137167.94    
    239600   2285.2646     -470.62584      4337.0499     -137166.59    
    239700   2432.8256      3029.2966      4358.7388     -137165.69    
    239800   2701.2703     -5755.8364      4380.2232     -137164.77    
    239900   2536.1938     -884.25278      4412.8634     -137161.01    
    240000   2551.0269     -8903.1867      4430.8381     -137164.46    
    240100   2407.9763     -330.87042      4395.0652     -137163.37    
    240200   2424.1921      3642.854       4340.6338     -137169.68    
    240300   2375.0999      6088.2547      4294.9041     -137173.95    
    240400   2354.1549      4135.5485      4293.5938     -137169.47    
    240500   2432.4258      4240.1624      4337.7207     -137163.63    
    240600   2599.2717     -5949.0648      4394.0395     -137165.93    
    240700   2536.7266     -4004.2591      4427.0397     -137164.73    
    240800   2424.186      -4611.9915      4422.1647     -137164.38    
    240900   2418.8811     -10539.843      4380.8723     -137168.61    
    241000   2545.7837      10978.527      4312.0209     -137168.48    
    241100   2627.8911      24493.506      4309.0606     -137165.12    
    241200   2554.3017     -4609.6379      4410.1572     -137168.25    
    241300   2339.3606     -13670.031      4483.7171     -137165.63    
    241400   2528.2293     -9898.119       4476.2188     -137167.52    
    241500   2502.6238      225.51592      4417.1992     -137166.54    
    241600   2526.7508      4326.902       4343.4317     -137168.17    
    241700   2556.0079      1785.5715      4279.3601     -137172.21    
    241800   2210.1699      10021.052      4243.702      -137169.4     
    241900   2349.582       3118.3175      4261.5389     -137168.25    
    242000   2472.7172      3026.6518      4313.7881     -137164.78    
    242100   2510.481       3302.1549      4382.1858     -137164.51    
    242200   2490.517      -7405.6477      4437.4261     -137163.37    
    242300   2625.3275     -1414.555       4437.1129     -137163.77    
    242400   2603.0654      8529.7008      4437.8812     -137164.72    
    242500   2191.5129     -3086.7408      4472.9538     -137161.64    
    242600   2457.6591     -11371.439      4475.1136     -137166.05    
    242700   2671.1345     -556.64507      4416.9982     -137165.86    
    242800   2603.1513      4936.3551      4380.4757     -137163.46    
    242900   2568.1555      3380.484       4379.8534     -137163.81    
    243000   2398.7674     -584.93674      4391.3536     -137162.07    
    243100   2305.0111     -13212.526      4402.9996     -137168.15    
    243200   2304.9243      260.62078      4349.9035     -137170.36    
    243300   2448.307       9957.6387      4274.028      -137168.1     
    243400   2612.4148      13432.784      4236.0813     -137169.77    
    243500   2646.9123      8430.9115      4275.4471     -137171.77    
    243600   2359.4857     -4019.4507      4368.535      -137166.28    
    243700   2309.995      -7529.5927      4433.3972     -137160.63    
    243800   2634.4714     -3389.4917      4445.8289     -137160.44    
    243900   2563.0312     -1245.5523      4439.336      -137161.21    
    244000   2565.6314     -4539.4052      4447.0971     -137166.72    
    244100   2391.1633     -7616.8328      4441.469      -137167       
    244200   2466.8802     -1049.7617      4392.6429     -137165.85    
    244300   2594.9502      20667.448      4356.7977     -137163.79    
    244400   2513.7455      2360.0075      4403.7606     -137164.66    
    244500   2379.3413     -12372.299      4458.0784     -137162.75    
    244600   2532.2891     -10568.851      4457.4288     -137160.11    
    244700   2536.0288      9003.5658      4415.4104     -137155.61    
    244800   2610.2251      4915.2815      4414.4216     -137160.98    
    244900   2510.3267      4676.1286      4438.6811     -137163.41    
    245000   2376.3552     -5758.2068      4459.3407     -137161.13    
    245100   2491.1893     -1500.1057      4435.8472     -137161.42    
    245200   2603.6405      4028.2786      4395.9063     -137162.63    
    245300   2377.9981      7573.9565      4368.9129     -137167.44    
    245400   2208.9438      6005.0674      4356.18       -137165.02    
    245500   2535.0704     -1597.3128      4368.3044     -137167.28    
    245600   2668.0782      1770.3884      4383.6017     -137166.27    
    245700   2448.6361     -4368.815       4407.6995     -137159.99    
    245800   2390.5452      3756.9485      4382.9761     -137163.73    
    245900   2477.3505     -1271.0602      4327.422      -137172.79    
    246000   2328.2186      6167.2222      4250.1775     -137167.26    
    246100   2765.9385      11640.887      4213.6073     -137170.56    
    246200   2652.6859      6935.4816      4278.6667     -137168.32    
    246300   2391.0973     -542.32353      4419.5896     -137162.9     
    246400   2491.9589     -9753.8389      4542.5307     -137163.61    
    246500   2457.2087     -10470.299      4582.3618     -137157.62    
    246600   2778.2967      4249.7893      4557.7051     -137158.61    
    246700   2738.5362     -2353.7711      4543.5767     -137161.53    
    246800   2522.0459     -9547.8922      4507.0647     -137160.37    
    246900   2652.0068      1378.8453      4428.7684     -137164.15    
    247000   2677.6728     -396.19762      4392.4479     -137169.15    
    247100   2211.8758     -4164.6421      4388.5993     -137162.46    
    247200   2415.5982     -4375.5701      4348.2262     -137164.05    
    247300   2422.6382      13378.961      4291.9287     -137159.4     
    247400   2563.298       7439.5781      4283.1971     -137164.92    
    247500   2503.087      -7605.2127      4333.7282     -137168.71    
    247600   2343.6759     -1743.1248      4402.9321     -137165.61    
    247700   2530.6899      1930.4465      4447.8804     -137164.46    
    247800   2747.6823     -11025.491      4509.3724     -137161.28    
    247900   2614.994      -2305.1975      4573.3304     -137158.69    
    248000   2392.0968     -7934.2406      4603.2923     -137156.16    
    248100   2540.133      -1638.5714      4565.6217     -137160.9     
    248200   2454.0242     -1800.0506      4466.8035     -137161.53    
    248300   2396.0807      15109.693      4341.2601     -137162.85    
    248400   2262.8603      4736.2662      4288.1142     -137162.01    
    248500   2446.8437      5119.7606      4256.009      -137169.4     
    248600   2485.6554      6128.5447      4283.344      -137170.17    
    248700   2686.8786     -12227.381      4387.6638     -137169.01    
    248800   2591.4596     -11581.393      4477.1342     -137161.03    
    248900   2571.5803     -9624.8693      4517.1531     -137158.25    
    249000   2352.4268      2341.6974      4491.8903     -137154.91    
    249100   2368.6816     -2550.3772      4437.15       -137163.11    
    249200   2454.9522     -3430.6267      4341.5871     -137167.97    
    249300   2617.1558      14686.436      4228.9494     -137167.97    
    249400   2813.7832      10966.593      4205.1083     -137169.4     
    249500   2514.164      -3958.4291      4284.2148     -137171.08    
    249600   2280.4941     -96.235546      4373.2606     -137167.66    
    249700   2389.2422     -11687.755      4440.3394     -137163.92    
    249800   2466.9261      5221.3261      4438.1633     -137160.54    
    249900   2469.1511      2000.7393      4423.826      -137161.18    
    250000   2490.2626     -2827.0054      4400.9121     -137166.13    
    250100   2183.2391     -7543.1461      4349.241      -137166.18    
    250200   2390.588       5270.9282      4242.7218     -137172.24    
    250300   2677.9429      23439.765      4175.2969     -137168.18    
    250400   2681.9478      5082.2298      4240.1175     -137169.93    
    250500   2287.3898     -5180.8101      4355.7431     -137163.86    
    250600   2521.3075     -15953.223      4447.1279     -137167.71    
    250700   2643.7513     -11646.212      4499.8738     -137160.59    
    250800   2558.8235     -2106.9445      4499.1792     -137157.16    
    250900   2598.9732      2065.045       4444.3632     -137164.14    
    251000   2456.6828     -7690.1108      4414.3823     -137164.98    
    251100   2559.8698     -4341.6941      4363.0835     -137167.3     
    251200   2833.0416      4256.178       4304.3529     -137169.5     
    251300   2756.6302      20792.647      4289.2789     -137165.88    
    251400   2298.7915     -5818.6916      4386.4624     -137164       
    251500   2501.5987     -12423.524      4472.4718     -137167.58    
    251600   2598.29       -6416.3297      4489.6418     -137164.18    
    251700   2611.981      -4209.2026      4471.2627     -137160.11    
    251800   2549.0434      8411.5867      4425.3822     -137162.99    
    251900   2397.5689      2310.0637      4385.6745     -137162.85    
    252000   2477.8397      577.52636      4349.0598     -137164.22    
    252100   2562.1929     -1153.9244      4325.2686     -137166.24    
    252200   2447.5359      5317.9426      4302.0585     -137165.97    
    252300   2159.1913      3796.6024      4317.7794     -137163.85    
    252400   2397.9739      5532.4338      4334.0245     -137169.17    
    252500   2364.134       7510.6543      4337.7154     -137159.52    
    252600   2662.2466      2466.5452      4372.0846     -137163.88    
    252700   2415.2904      3323.9729      4435.2399     -137160.39    
    252800   2423.6509     -7116.2641      4472.4507     -137165.03    
    252900   2457.3313     -11038.414      4477.0391     -137169.88    
    253000   2263.6949     -3511.7045      4432.8402     -137165.39    
    253100   2487.3119      3653.8184      4340.1923     -137164.84    
    253200   2725.6551      14433.666      4276.6101     -137167.16    
    253300   2622.3275     -1033.5155      4298.0905     -137170.98    
    253400   2412.2008     -6480.2808      4346.8412     -137168.74    
    253500   2342.2616      2060.0354      4363.7328     -137164.55    
    253600   2658.5255     -5826.3897      4362.8191     -137168.6     
    253700   2522.784       5818.293       4338.9622     -137165.36    
    253800   2402.1521     -1112.2462      4348.3105     -137166.36    
    253900   2213.9519     -4811.0841      4361.8655     -137165.45    
    254000   2464.3505      1962.2692      4327.1784     -137169.35    
    254100   2742.0948      10345.481      4319.0896     -137170.36    
    254200   2492.1313     -6396.1293      4385.3222     -137164.74    
    254300   2389.7534     -1654.693       4428.9754     -137165.87    
    254400   2268.3095     -6776.9058      4444.6377     -137164.64    
    254500   2655.5642     -1418.8107      4408.682      -137166.97    
    254600   2783.2437     -2320.5378      4364.1558     -137168.24    
    254700   2508.8512      6395.6224      4330.3133     -137166.62    
    254800   2508.3209     -483.29458      4310.3744     -137170.47    
    254900   2493.4559      11708.98       4291.1257     -137169.95    
    255000   2361.6037     -865.13164      4346.9138     -137164.88    
    255100   2432.1454     -3004.5217      4401.7864     -137164.24    
    255200   2496.5693     -12489.695      4399.9544     -137164.05    
    255300   2568.5046      12603.579      4355.6523     -137163.65    
    255400   2489.76       -752.05021      4361.6805     -137165.61    
    255500   2404.2463     -6300.7319      4369.6017     -137173.37    
    255600   2443.1516      1173.667       4367.515      -137174.9     
    255700   2321.2124      2455.9876      4380.8036     -137168.71    
    255800   2385.0849     -2128.8866      4404.0474     -137163.9     
    255900   2521.1058      4274.3189      4423.4892     -137161.36    
    256000   2543.1859     -1215.6616      4451.9274     -137160.74    
    256100   2538.0876     -6597.8602      4473.141      -137163.08    
    256200   2454.6795     -10367.865      4461.1001     -137169.54    
    256300   2304.4124     -26.745964      4408.4921     -137167.65    
    256400   2601.3328     -1794.5702      4336.5126     -137170.11    
    256500   2391.8152      14119.801      4269.9587     -137162.36    
    256600   2556.5701      4677.3086      4265.3467     -137166.91    
    256700   2541.1302      5413.6166      4309.1154     -137166.76    
    256800   2379.7627      73.850308      4403.1438     -137162.91    
    256900   2477.2114     -4555.9193      4476.3761     -137159.32    
    257000   2506.8898      2021.7075      4491.6023     -137153.2     
    257100   2829.2729     -4289.069       4494.4933     -137165.98    
    257200   2539.1257     -4462.5726      4497.6257     -137166.38    
    257300   2495.4429     -14913.346      4484.3606     -137165.08    
    257400   2605.9493      10267.34       4398.9373     -137164.83    
    257500   2502.1828      19044.886      4338.3732     -137167.25    
    257600   2541.2147      7691.8315      4348.3984     -137173.8     
    257700   2456.4909      8479.8136      4415.0684     -137170.6     
    257800   2296.2079     -7662.4836      4509.3369     -137160.5     
    257900   2520.573       256.88702      4534.6652     -137159.14    
    258000   2676.6668     -1393.9078      4518.7845     -137164.42    
    258100   2416.8238     -16324.242      4484.2948     -137161.37    
    258200   2669.8297     -1803.0933      4382.3904     -137166.64    
    258300   2675.1399      9201.823       4281.3642     -137166.15    
    258400   2456.224       12843.136      4259.5137     -137167.22    
    258500   2229.8076     -453.18868      4296.9964     -137164.85    
    258600   2583.1829      6158.7733      4335.1138     -137168.53    
    258700   2535.1273      2045.0189      4398.2082     -137163.53    
    258800   2417.0511     -5486.8039      4461.7892     -137158.61    
    258900   2762.2646     -15280.246      4489.2988     -137166.8     
    259000   2594.7073      1642.5183      4455.7824     -137165.95    
    259100   2460.066       10116.127      4424.945      -137166.92    
    259200   2246.1721     -4016.6493      4433.9775     -137162.37    
    259300   2643.5803     -2467.6459      4429.777      -137164.99    
    259400   2691.2707      159.81075      4416.9339     -137162.99    
    259500   2645.6915     -3575.5128      4423.7643     -137164.91    
    259600   2536.2054     -7119.5699      4449.6104     -137164.61    
    259700   2262.9637     -1245.3066      4431.2245     -137156.86    
    259800   2820.3415      10704.38       4385.5428     -137162.46    
    259900   2633.0525      3809.0938      4394.4226     -137161.3     
    260000   2562.3158     -6231.8085      4415.1576     -137166.64    
    260100   2422.8479      8133.3376      4418.7949     -137163.84    
    260200   2596.4045     -6649.1015      4462.0616     -137164.96    
    260300   2442.5827     -2964.2222      4481.8855     -137153.91    
    260400   2713.0172      1772.3191      4474.565      -137159.34    
    260500   2578.1855     -6781.902       4467.0732     -137163.44    
    260600   2325.5732     -3839.1893      4435.1227     -137161       
    260700   2617.2943     -2792.1721      4384.9308     -137166.26    
    260800   2586.5985      4180.2988      4329.5545     -137164.16    
    260900   2561.8773     -1585.741       4293.2089     -137168.23    
    261000   2430.0164      495.42135      4248.5953     -137172.9     
    261100   2479.7894      7500.045       4234.2044     -137173.49    
    261200   2565.3793     -213.9044       4284.0479     -137172.87    
    261300   2484.8998      5189.0826      4341.43       -137165.33    
    261400   2587.9439      6066.6708      4408.0266     -137157.24    
    261500   2605.2455     -12207.033      4476.3401     -137160       
    261600   2542.2025     -3102.551       4473.0403     -137161.5     
    261700   2670.4384     -5019.7668      4446.3135     -137167.2     
    261800   2330.3144     -2871.6596      4419.9956     -137161.26    
    261900   2293.0013      3880.5058      4371.0119     -137168       
    262000   2241.9267     -7955.467       4314.9915     -137167.36    
    262100   2404.9208      22988.793      4248.1467     -137162.96    
    262200   2495.4834      9497.0111      4288.3076     -137164.49    
    262300   2544.1416     -4874.1512      4374.0575     -137167.19    
    262400   2443.0882     -4121.371       4426.5763     -137164.33    
    262500   2724.6618     -8651.4817      4436.8481     -137164.99    
    262600   2757.413       14312.559      4438.4176     -137161.65    
    262700   2482.7327     -5342.2937      4481.9922     -137162.15    
    262800   2475.1012     -8664.7289      4477.7106     -137164.71    
    262900   2382.9666     -1312.1383      4436.1724     -137161.42    
    263000   2705.4631     -6094.6415      4408.6055     -137167.91    
    263100   2608.5107      4141.5157      4387.911      -137163.4     
    263200   2556.3435      1419.1713      4387.7239     -137169.9     
    263300   2392.9549     -7046.6998      4385.9319     -137171.48    
    263400   2442.4067     -1687.252       4365.2949     -137168.61    
    263500   2606.4595      5119.0019      4335.9998     -137168.3     
    263600   2418.0597      3341.784       4349.4244     -137163.34    
    263700   2381.8556      842.7531       4388.8952     -137164.91    
    263800   2480.0552     -3283.2814      4405.6472     -137167.13    
    263900   2476.7268      902.63032      4391.9984     -137163.87    
    264000   2591.6399      8452.1654      4387.8455     -137162.64    
    264100   2613.8315     -12899.628      4420.9737     -137164.09    
    264200   2419.5141      239.64177      4414.0832     -137165.36    
    264300   2257.0669     -2087.0092      4393.7797     -137164.49    
    264400   2604.3021      650.02544      4355.2126     -137166.07    
    264500   2790.6013      4582.6494      4350.1716     -137166.33    
    264600   2468.3459     -5187.2614      4411.1913     -137161.8     
    264700   2449.5605     -9306.1249      4464.6422     -137162.38    
    264800   2442.6371     -1318.7705      4461.128      -137160.03    
    264900   2702.2854      5524.5235      4441.5314     -137158.41    
    265000   2778.093      -5959.3451      4446.6009     -137157.77    
    265100   2606.4876     -11210.582      4450.5245     -137163.5     
    265200   2620.677       857.27198      4420.4108     -137167.45    
    265300   2367.9578     -1491.5495      4383.9232     -137159.27    
    265400   2676.7246      20942.778      4356.4554     -137165.72    
    265500   2352.9117     -14059.799      4426.5245     -137165.49    
    265600   2331.3557     -6844.4196      4440.8414     -137166.48    
    265700   2345.7798      7192.4923      4405.0912     -137161.91    
    265800   2668.6729      4679.6188      4379.0591     -137168.28    
    265900   2441.009       1184.0193      4375.7278     -137163.59    
    266000   2315.8362      12945.386      4361.9573     -137159.34    
    266100   2773.9424      6006.5301      4355.1147     -137165.89    
    266200   2409.2704     -6029.2861      4376.4354     -137159.71    
    266300   2426.9132      716.40545      4372.6069     -137166.68    
    266400   2528.4606      4241.1482      4354.4738     -137170.36    
    266500   2502.1432      2210.3429      4368.7961     -137167.23    
    266600   2634.2867      6937.8207      4392.8698     -137163.39    
    266700   2668.3536     -1223.528       4435.6109     -137161.55    
    266800   2334.7085     -3906.788       4472.8378     -137158.17    
    266900   2244.0077     -2404.9536      4473.1444     -137160.76    
    267000   2368.1468      2944.6447      4427.4626     -137158.1     
    267100   2851.9466     -4042.202       4379.6762     -137165.54    
    267200   2668.8839     -332.49463      4357.8608     -137167.09    
    267300   2445.3763     -9383.5749      4375.2817     -137166.97    
    267400   2411.3683      593.04325      4360.7162     -137166.47    
    267500   2607.2174     -2004.5978      4347.8119     -137165.96    
    267600   2619.4896      24378.653      4376.9805     -137160.18    
    267700   2369.5463     -13084.353      4504.5007     -137158.14    
    267800   2238.7192     -17419.665      4555.8892     -137162.12    
    267900   2320.7356     -3039.6086      4477.8417     -137160.4     
    268000   2688.1906      815.97775      4358.7517     -137166.33    
    268100   2567.8403      13064.176      4280.6798     -137167.03    
    268200   2381.9143     -4987.044       4290.5354     -137166.08    
    268300   2521.5675      8142.5841      4290.9072     -137170.39    
    268400   2350.2953     -1654.8092      4313.1417     -137165.87    
    268500   2610.6878     -3542.1775      4324.4158     -137169.09    
    268600   2648.3554      13879.214      4331.2117     -137164.64    
    268700   2664.6281     -2599.0089      4370.1765     -137166.89    
    268800   2441.3504     -7515.542       4420.1703     -137166.51    
    268900   2321.0789     -15325.419      4420.5004     -137164.74    
    269000   2556.8243      17505.097      4334.0425     -137160.57    
    269100   2760.6225     -459.98964      4314.4195     -137167.88    
    269200   2488.7748      3703.3197      4324.5851     -137168.2     
    269300   2504.5263     -10705.83       4350.3611     -137169.77    
    269400   2588.3559     -151.22864      4356.7539     -137167.51    
    269500   2522.3651      6345.9695      4370.0502     -137159.77    
    269600   2702.1514      2795.7759      4404.7119     -137158.76    
    269700   2586.1142     -4609.7225      4452.6057     -137160.51    
    269800   2219.9034     -4871.0575      4473.9251     -137158.73    
    269900   2331.5854     -1373.449       4411.8446     -137160.33    
    270000   2571.6484      17384.916      4322.2359     -137162.49    
    270100   2615.5849      3496.3668      4327.7848     -137169.05    
    270200   2201.3357     -1931.297       4383.0596     -137166.19    
    270300   2340.0924     -11545.139      4413.8501     -137166.34    
    270400   2624.7551     -2094.4415      4374.5717     -137167.79    
    270500   2648.7321      15080.63       4294.0929     -137167.56    
    270600   2400.5793      10743.155      4276.3092     -137167.18    
    270700   2378.4541      40.324796      4328.7652     -137167.32    
    270800   2426.274      -1493.4549      4409.7949     -137164.38    
    270900   2462.0962     -806.28347      4482.1337     -137162.02    
    271000   2455.9556     -2989.8831      4518.0478     -137160.31    
    271100   2675.1828     -824.47474      4527.0139     -137161.13    
    271200   2768.9187     -2678.6154      4523.6569     -137157.4     
    271300   2542.9945     -434.57475      4491.6582     -137159.85    
    271400   2499.8183      58.251955      4431.3381     -137163.94    
    271500   2351.601      -2260.6516      4353.6389     -137161.8     
    271600   2594.2386      14016.736      4287.8653     -137166.04    
    271700   2609.2791      12993.064      4319.5222     -137164.63    
    271800   2525.9683     -4940.0983      4413.6866     -137162.85    
    271900   2358.8965     -4442.3072      4476.1313     -137160.89    
    272000   2395.2058     -4181.5192      4489.3967     -137160.97    
    272100   2575.8146      5805.6847      4448.3114     -137163.48    
    272200   2647.0147      247.64462      4418.7555     -137165.55    
    272300   2513.7014      562.98869      4400.5659     -137169.37    
    272400   2288.1985     -1602.9324      4385.6861     -137166.05    
    272500   2458.0181      13664.217      4373.5581     -137165.84    
    272600   2762.4676     -11755.331      4439.1512     -137169.25    
    272700   2594.773      -11276.941      4482.2226     -137160.81    
    272800   3029.4492      1655.2807      4448.348      -137161.63    
    272900   2907.8431      2615.7231      4410.771      -137164.56    
    273000   2534.5259     -5005.0969      4393.2271     -137164.08    
    273100   2480.534      -4651.4474      4352.9853     -137168.06    
    273200   2363.7173      9101.5467      4313.2545     -137167.47    
    273300   2535.2106      827.51029      4323.6961     -137169.7     
    273400   2615.2705     -183.30921      4344.2312     -137164.71    
    273500   2550.8851      5709.502       4351.2529     -137160.17    
    273600   2461.2766      6214.8523      4362.8975     -137167.38    
    273700   2357.0538      8287.8927      4396.3343     -137167.31    
    273800   2414.9569     -11691.47       4464.8279     -137165.23    
    273900   2423.6743     -14268.04       4500.3684     -137158.08    
    274000   2455.3703      14733.439      4450.522      -137156.49    
    274100   2504.8436     -6071.9956      4421.0958     -137161.79    
    274200   2431.5848      1842.0532      4359.8605     -137164.83    
    274300   2315.4321      11420.202      4295.0031     -137162.25    
    274400   2606.1422      9342.7562      4292.6469     -137168.82    
    274500   2462.2262      3753.2357      4363.3281     -137164.58    
    274600   2369.7847     -12086.103      4463.9104     -137160.53    
    274700   2683.0957     -3699.6992      4499.6016     -137161.67    
    274800   2759.1699     -5807.5787      4497.2755     -137159.39    
    274900   2366.3359      13578.848      4461.4837     -137156.3     
    275000   2403.64       -1168.0598      4464.2399     -137162.21    
    275100   2467.1732     -1984.7264      4467.6458     -137162.99    
    275200   2510.084       1363.0977      4444.9694     -137161.49    
    275300   2576.9627      258.56899      4408.4385     -137156.5     
    275400   2742.9112     -5937.8711      4341.1724     -137160.98    
    275500   2580.0974      4479.8804      4281.3179     -137168.94    
    275600   2393.5526      2317.2455      4276.6302     -137168.57    
    275700   2383.5439      227.06027      4293.7788     -137167.2     
    275800   2656.2901     -199.61081      4332.8219     -137169.32    
    275900   2557.0241      6855.7276      4414.302      -137163.14    
    276000   2465.737      -9304.1083      4497.9143     -137159.84    
    276100   2534.961      -4271.8391      4544.9811     -137161.41    
    276200   2500.0567     -6465.6316      4567.8566     -137158.97    
    276300   2565.1434     -8290.2196      4509.5407     -137161.97    
    276400   2431.9292      11562.42       4409.8918     -137160.11    
    276500   2637.4274      4126.0566      4358.7504     -137166.42    
    276600   2450.2132     -1440.4277      4361.2861     -137167.66    
    276700   2289.5821      423.96775      4382.7582     -137164.62    
    276800   2532.0293     -9099.8128      4407.6733     -137161.55    
    276900   2671.5094     -4588.2331      4401.6787     -137163.01    
    277000   2640.4429     -726.51657      4385.669      -137166.77    
    277100   2473.0251     -4064.7139      4383.803      -137166.78    
    277200   2445.0634      5515.6799      4357.281      -137167.94    
    277300   2581.1735     -4057.5449      4330.7641     -137173.69    
    277400   2354.7932      7070.7057      4304.7943     -137172.88    
    277500   2375.5377      5342.8999      4306.1655     -137172.85    
    277600   2505.6671     -1596.2352      4317.6592     -137167.8     
    277700   2470.1706      189.47341      4330.5851     -137162.01    
    277800   2592.0682      2044.1705      4348.38       -137165.64    
    277900   2377.661      -3243.6359      4370.134      -137163.94    
    278000   2421.933      -834.72229      4365.4643     -137170.53    
    278100   2263.0728     -2664.3474      4356.0505     -137169.83    
    278200   2504.4859      177.28756      4352.3501     -137169.07    
    278300   2546.2253      5965.1347      4348.7439     -137164.8     
    278400   2606.498      -2534.0801      4345.177      -137167.49    
    278500   2506.2555     -4167.5546      4359.0901     -137168.05    
    278600   2444.1742     -12803.883      4385.925      -137165.99    
    278700   2730.7999      1534.9109      4367.0085     -137166.14    
    278800   2620.6443      2183.385       4350.2753     -137165.57    
    278900   2346.6225     -1259.2224      4353.0997     -137165.69    
    279000   2371.5084     -1275.2627      4350.6658     -137165.48    
    279100   2559.5478      107.6699       4334.861      -137164.61    
    279200   2651.8136      9676.3819      4335.5237     -137166.32    
    279300   2427.5316      813.4393       4402.2031     -137164.59    
    279400   2333.6774     -11446.618      4483.7253     -137165.66    
    279500   2367.2615     -5356.045       4513.7603     -137164.91    
    279600   2554.5135      6281.7729      4500.5464     -137161.89    
    279700   2885.3093     -8432.3817      4488.3113     -137167.63    
    279800   2477.1576      5143.7703      4460.8849     -137160.66    
    279900   2611.7163     -6232.5648      4447.9363     -137171.72    
    280000   2396.7914     -6506.7254      4414.7733     -137169.58    
    280100   2439.2468      5700.2687      4362.6602     -137167.25    
    280200   2667.6508      8823.6999      4335.3488     -137168.13    
    280300   2470.2285     -1267.5225      4379.6222     -137162.25    
    280400   2456.0175      5569.8125      4446.7109     -137161.52    
    280500   2451.3481     -12988.813      4531.79       -137160.52    
    280600   2529.9805     -953.51609      4541.912      -137156.68    
    280700   2816.5264     -9240.4149      4537.8021     -137159.26    
    280800   2626.9632     -3401.5816      4503.9752     -137162.1     
    280900   2554.535      -8101.1276      4438.693      -137166.53    
    281000   2601.7479      2639.0902      4332.5994     -137170.3     
    281100   2397.1936      13589.633      4250.1736     -137166.9     
    281200   2408.3728     -1859.2484      4237.7919     -137170.03    
    281300   2407.7811      3041.5724      4252.414      -137170.83    
    281400   2431.3619      9468.3818      4303.3268     -137164.59    
    281500   2598.4576     -1640.3757      4392.3226     -137165.54    
    281600   2512.1585     -13671.084      4474.5942     -137168.23    
    281700   2383.4179     -138.50806      4475.3607     -137171.32    
    281800   2318.544      -8978.1708      4436.5815     -137167.23    
    281900   2475.8822      7888.6521      4371.9265     -137166.1     
    282000   2650.883      -58.070807      4347.476      -137166.86    
    282100   2577.7122     -4118.8218      4346.0517     -137167.62    
    282200   2238.1625      9842.7781      4350.683      -137164.02    
    282300   2488.4094      2855.8985      4350.9332     -137170.81    
    282400   2639.7149     -9474.7385      4359.4463     -137164.86    
    282500   2594.5673      5537.3822      4380.0027     -137160.96    
    282600   2259.6854     -2948.0489      4424.3289     -137156.82    
    282700   2342.9656      1813.9007      4423.5512     -137160.86    
    282800   2602.1256      5883.447       4414.4534     -137157.8     
    282900   2810.3583     -6289.2981      4455.3508     -137160.53    
    283000   2350.5771      8204.5637      4494.1517     -137155.05    
    283100   2554.6248     -7785.2747      4512.1065     -137163.4     
    283200   2440.269      -16727.433      4451.9481     -137164.24    
    283300   2540.0544      7096.2166      4299.6441     -137168.29    
    283400   2669.6389      15454.926      4205.222      -137169.55    
    283500   2501.0407      4239.7302      4226.6145     -137164.75    
    283600   2269.5714      4647.0278      4289.2758     -137164.37    
    283700   2335.6726     -11220.484      4365.7858     -137165.9     
    283800   2587.4993     -10380.71       4404.6324     -137164.38    
    283900   2473.845       3570.9503      4405.9406     -137160.1     
    284000   2396.0244      9329.2014      4430.2704     -137158.96    
    284100   2471.5613     -11643.431      4472.765      -137159.47    
    284200   2634.0483      200.22006      4441.0958     -137163.42    
    284300   2317.7928     -6221.4548      4396.2238     -137164.64    
    284400   2442.5339     -6558.5244      4335.1868     -137170.55    
    284500   2547.6217     -3101.7104      4273.6198     -137169.48    
    284600   2599.5382      12528.001      4217.2087     -137167.4     
    284700   2498.2586      5423.8255      4219.4408     -137168.43    
    284800   2346.1826      6587.6299      4262.1101     -137172.65    
    284900   2236.7675     -7790.9042      4349.6237     -137167.19    
    285000   2653.9597     -7768.1583      4398.0516     -137171.13    
    285100   2588.6729     -5986.8095      4399.7361     -137167.48    
    285200   2501.4264      10412.235      4408.4513     -137163.45    
    285300   2518.7035      3202.2312      4484.3622     -137158.24    
    285400   2663.06       -13292.948      4569.4019     -137155.08    
    285500   2683.6824     -11476.605      4578.6097     -137159.21    
    285600   2409.8106     -589.00403      4506.1899     -137162.36    
    285700   2420.0029      5103.4256      4414.628      -137163.13    
    285800   2624.1258      5902.775       4338.692      -137167.96    
    285900   2492.5744      11624.555      4304.0912     -137167.6     
    286000   2270.2699     -1011.5431      4334.6613     -137169.2     
    286100   2243.0654     -4540.4829      4377.3599     -137165.41    
    286200   2340.8883     -3099.6486      4399.6503     -137160.59    
    286300   2627.4017      1241.4196      4387.5071     -137165.67    
    286400   2565.2825     -3845.5196      4376.8357     -137165.9     
    286500   2394.9381      1239.5228      4373.535      -137165.25    
    286600   2263.4757      2592.7912      4353.665      -137169.82    
    286700   2342.8245      767.4275       4325.5082     -137171.52    
    286800   2530.5931      12037.178      4312.6383     -137170.75    
    286900   2426.5777     -10217.632      4381.4417     -137166.06    
    287000   2433.5229      832.42677      4424.16       -137161.83    
    287100   2736.8612     -5568.4041      4464.24       -137164.6     
    287200   2676.8316     -12730.631      4482.4716     -137165.67    
    287300   2439.3487      6065.0335      4423.8272     -137164.12    
    287400   2500.9864      1740.0132      4385.1006     -137167.09    
    287500   2451.373       5470.7015      4377.0111     -137165.14    
    287600   2470.0107     -329.48294      4393.4292     -137165.33    
    287700   2547.3784     -8656.8015      4390.3112     -137170.26    
    287800   2295.2432     -1272.6504      4319.8828     -137168.42    
    287900   2539.1407      8259.8526      4247.4809     -137172.83    
    288000   2850.2534      6744.1904      4240.9607     -137174.05    
    288100   2622.9917      11474.518      4315.797      -137168.48    
    288200   2169.758      -13632.068      4481.4293     -137164.53    
    288300   2072.6922     -20592.329      4558.5301     -137158.32    
    288400   2359.2343      997.24775      4476.0284     -137158.03    
    288500   2740.8739      1200.8559      4373.0606     -137165.36    
    288600   2508.2123      11808.758      4304.1526     -137165.77    
    288700   2344.2543      3679.8207      4274.2047     -137167.63    
    288800   2631.9042      11547.114      4264.7331     -137173.47    
    288900   2625.8414     -3420.6435      4304.634      -137171.75    
    289000   2407.9046     -6902.118       4357.3803     -137171.9     
    289100   2247.5283     -7820.6798      4385.6642     -137170.44    
    289200   2608.026       1502.9846      4366.8242     -137171.2     
    289300   2674.8771      1722.5753      4377.787      -137170.06    
    289400   2499.1909     -10887.224      4405.9595     -137166.82    
    289500   2493.4985      5010.3202      4394.2748     -137165.33    
    289600   2586.2836     -3810.5792      4390.8443     -137162.4     
    289700   2802.7344      8274.8204      4381.5216     -137165       
    289800   2474.62       -4479.7803      4403.7133     -137164.95    
    289900   2328.0468      915.87722      4391.3964     -137164.6     
    290000   2448.8763      2150.5245      4353.4181     -137165.52    
    290100   2629.0988     -6653.8096      4334.7424     -137166.06    
    290200   2716.3565      2737.6373      4312.5427     -137167.18    
    290300   2355.4472      5622.7122      4322.9911     -137168.4     
    290400   2294.3327     -659.53677      4364.4367     -137170.25    
    290500   2610.0991     -9611.4959      4393.6301     -137173.58    
    290600   2612.9901     -8383.3202      4405.4598     -137167.63    
    290700   2511.1573     -984.10825      4395.1403     -137163.43    
    290800   2754.8284      7394.2156      4379.0081     -137164.05    
    290900   2803.9829     -5257.4521      4404.4367     -137159.85    
    291000   2543.5476      3102.5503      4436.0639     -137159.9     
    291100   2341.4166     -1104.8545      4479.1604     -137157.08    
    291200   2488.7289     -9149.6849      4496.5059     -137161.45    
    291300   2504.9276     -2147.3654      4454.7755     -137161.09    
    291400   2656.1007      276.02651      4363.0193     -137164.41    
    291500   2572.9429      13854.436      4270.6413     -137167.53    
    291600   2374.658       4512.7311      4254.6853     -137168.85    
    291700   2423.9177      5428.7136      4278.2482     -137167.73    
    291800   2579.5846      6645.6417      4322.8532     -137168.87    
    291900   2571.6598      3364.5575      4414.6831     -137160.77    
    292000   2765.3671     -1970.1296      4530.7475     -137160.18    
    292100   2523.9022     -16338.336      4626.9478     -137157.45    
    292200   2413.5994     -8703.0101      4621.9986     -137157.73    
    292300   2512.3037     -2585.7912      4551.466      -137159.33    
    292400   2921.7586      4.600764       4446.0216     -137162.67    
    292500   2603.2322      10632.695      4361.3507     -137161.77    
    292600   2494.9789      1874.0426      4336.9685     -137166.41    
    292700   2528.6554     -131.45659      4318.0484     -137172.5     
    292800   2356.3989      1093.9398      4307.3035     -137170.37    
    292900   2376.8797      4695.6009      4295.1974     -137164.44    
    293000   2655.589       5228.7922      4294.7641     -137165.37    
    293100   2641.9929      4692.885       4341.046      -137168.63    
    293200   2334.1313     -8863.5659      4441.037      -137161.51    
    293300   2540.6541     -1113.6635      4516.4499     -137161.46    
    293400   2519.5928     -4866.5002      4582.1666     -137155.71    
    293500   2753.2735     -13032.469      4605.001      -137155.91    
    293600   2629.8629     -3521.6672      4558.3066     -137155.33    
    293700   2345.7664      9365.9501      4490.4511     -137157.19    
    293800   2378.8685     -964.73169      4467.9291     -137157.91    
    293900   2582.2607     -4022.9806      4434.2561     -137160.04    
    294000   2670.6508      3316.2233      4389.0221     -137161.57    
    294100   2548.958      -1593.8565      4361.2919     -137168.59    
    294200   2428.9717      3764.0982      4334.8035     -137167.82    
    294300   2561.3819      6977.6193      4329.9682     -137167.24    
    294400   2490.8663     -57.169429      4344.9604     -137161.86    
    294500   2956.2719     -9056.0829      4368.1221     -137168.16    
    294600   2525.7535     -902.33876      4405.8154     -137160.05    
    294700   2227.4716     -3478.8947      4440.3626     -137159.62    
    294800   2390.9882      4897.651       4446.5679     -137160.29    
    294900   2592.0094      598.58861      4443.0473     -137160.53    
    295000   2593.4705      3975.8295      4455.1827     -137162.31    
    295100   2398.1547     -6550.298       4489.289      -137159.56    
    295200   2509.8436     -4983.2631      4481.5893     -137161.64    
    295300   2603.8298     -1218.7521      4452.5934     -137164.07    
    295400   2505.255       3254.8362      4429.7556     -137163       
    295500   2377.1288     -8544.4119      4407.868      -137165.74    
    295600   2282.7878     -2387.8492      4363.1903     -137167.5     
    295700   2541.121      -2521.3588      4289.5006     -137171.47    
    295800   2633.2721      16280.783      4236.7138     -137166.52    
    295900   2551.5546      1987.9758      4280.7248     -137164.9     
    296000   2469.0428     -8335.2619      4356.869      -137167.62    
    296100   2310.421      -10429.944      4388.0721     -137164.33    
    296200   2760.605       3082.5454      4369.6867     -137166.67    
    296300   2606.8688     -141.8077       4378.9416     -137161.71    
    296400   2517.4149      6590.6433      4406.7831     -137164.06    
    296500   2331.9001     -6407.0684      4435.1398     -137164.68    
    296600   2192.8978     -2806.136       4408.1868     -137164.36    
    296700   2492.9658      4504.405       4342.1431     -137166.87    
    296800   2635.9226      9436.2108      4281.3389     -137165.62    
    296900   2401.3962      7902.8882      4283.9487     -137163.47    
    297000   2459.1035     -668.74969      4324.3169     -137170.61    
    297100   2008.5901      9448.9679      4364.3454     -137159       
    297200   2486.9627      3457.7124      4425.0908     -137160.75    
    297300   2669.7771     -15681.316      4473.9135     -137164.58    
    297400   2431.4554     -7896.1996      4419.2055     -137163.4     
    297500   2504.0487      18793.168      4319.0108     -137168.32    
    297600   2404.7446     -9041.1757      4291.8872     -137168.27    
    297700   2370.9685      11407.78       4240.6257     -137169.58    
    297800   2577.9298      3183.4545      4246.1339     -137170.78    
    297900   2679.5583      705.67129      4286.4005     -137170.55    
    298000   2487.6115     -1764.5254      4333.4039     -137171.14    
    298100   2345.1052     -15217.897      4347.7623     -137171.05    
    298200   2572.8197      6204.9199      4304.3206     -137170.33    
    298300   2509.4736      5709.6595      4307.9952     -137163.96    
    298400   2579.2071     -11622.324      4338.7033     -137166.12    
    298500   2532.027       3693.8315      4335.6758     -137166.35    
    298600   2317.9926     -963.28252      4335.4459     -137165.19    
    298700   2348.3289     -234.40373      4320.5117     -137167.48    
    298800   2620.6883     -3362.8281      4282.6689     -137165.95    
    298900   2701.1281      9155.5331      4235.9851     -137167.34    
    299000   2481.6135      8918.1094      4273.4616     -137168.05    
    299100   2416.2376     -5093.0851      4373.6163     -137168.62    
    299200   2276.6097     -1560.9268      4454.6031     -137161.32    
    299300   2420.3883     -10271.509      4500.5728     -137160.82    
    299400   2496.9557     -282.96605      4503.1943     -137160.89    
    299500   2554.6273     -9789.7721      4500.3436     -137165.87    
    299600   2365.1533     -8022.1758      4435.8742     -137166.46    
    299700   2241.5923      10697.791      4319.287      -137169.65    
    299800   2358.9596      10732.409      4254.4071     -137176.13    
    299900   2394.8814      9421.6245      4268.6717     -137167.76    
    300000   2612.5368      5223.7083      4321.4096     -137169.52    
    300100   2259.1766      9551.0261      4389.7173     -137162.14    
    300200   2368.9566     -7589.69        4470.4784     -137162.87    
    300300   2647.3027     -5354.1157      4489.8867     -137161.35    
    300400   2657.0156     -1624.772       4478.6093     -137160.75    
    300500   2597.9323      2803.0772      4451.7281     -137163.26    
    300600   2542.7674     -12221.401      4414.4366     -137168.27    
    300700   2377.1628      9555.7437      4344.15       -137163.98    
    300800   2507.0053      10249.473      4321.2734     -137166.18    
    300900   2427.3942     -2681.8912      4345.2131     -137165.22    
    301000   2266.7294      3346.6083      4355.626      -137166.11    
    301100   2290.0601     -6903.5011      4356.1312     -137169.59    
    301200   2563.659       10990.313      4332.9082     -137168.49    
    301300   2654.2623     -8617.9684      4342.2934     -137167.78    
    301400   2552.7434      11.846393      4333.0567     -137167.48    
    301500   2459.9337     -2805.7402      4344.6327     -137168.26    
    301600   2347.0323     -5815.7587      4382.6925     -137166.75    
    301700   2632.5316     -4587.1915      4428.2559     -137166.94    
    301800   2570.6886     -12585.832      4473.0337     -137159.86    
    301900   2469.9842      2652.7753      4476.1628     -137158.88    
    302000   2416.0234     -5739.0192      4491.8503     -137163.49    
    302100   2254.5542     -11532.367      4484.3637     -137161.74    
    302200   2695.5138      2318.8964      4419.8224     -137164.1     
    302300   2721.3155      11395.234      4348.9632     -137161.52    
    302400   2573.17        5473.2107      4324.9032     -137163.97    
    302500   2583.9631      4598.5195      4335.2729     -137170.32    
    302600   2533.0911     -4863.4456      4365.2189     -137172.47    
    302700   2182.3554      2932.0255      4379.1841     -137163.58    
    302800   2712.6628      290.67044      4397.5887     -137168.58    
    302900   2579.5294     -3125.7589      4423.8788     -137162.3     
    303000   2547.1103     -3742.7926      4434.7534     -137165.18    
    303100   2415.8403      3947.1221      4414.7784     -137166.26    
    303200   2574.9759     -2162.1559      4413.4155     -137170.35    
    303300   2337.5277      2078.7544      4408.012      -137163.4     
    303400   2524.0779     -2070.4376      4374.0629     -137161.75    
    303500   2847.2658      16900.827      4331.485      -137162.56    
    303600   2626.6328      4555.0261      4405.0128     -137163.63    
    303700   2327.3796     -6547.3364      4500.7632     -137159.99    
    303800   2530.8211     -16132.571      4523.3577     -137164.48    
    303900   2452.4388     -7105.7835      4444.8746     -137160.74    
    304000   2557.3155      13817.73       4326.0535     -137160.25    
    304100   2462.6521      10848.659      4268.8608     -137163.67    
    304200   2400.9623      6030.3538      4273.0836     -137168.23    
    304300   2393.8677     -3203.9284      4315.3611     -137167.01    
    304400   2537.3894      9512.9808      4357.2743     -137163.62    
    304500   2575.823      -3467.8812      4421.8496     -137163.85    
    304600   2544.7494     -10709.279      4446.8194     -137165.38    
    304700   2406.5318      271.67323      4407.4453     -137163.41    
    304800   2643.4368      5303.9434      4354.1708     -137169.89    
    304900   2474.4157      499.98601      4336.1176     -137168.39    
    305000   2371.7479     -2508.6261      4319.3126     -137168.14    
    305100   2619.088      -603.25339      4294.0679     -137171.49    
    305200   2655.2767      2334.1951      4308.4802     -137168.52    
    305300   2510.1916      3325.141       4361.3867     -137162.57    
    305400   2568.9969     -288.23719      4400.7684     -137162.99    
    305500   2442.7096     -7180.2364      4402.422      -137164.95    
    305600   2278.8595      4426.2372      4352.3625     -137164.64    
    305700   2549.2107      8058.4074      4325.0773     -137166.78    
    305800   2665.8425      15026.519      4347.9975     -137163.61    
    305900   2331.1369     -7858.6673      4407.6966     -137158.82    
    306000   2298.4088     -1240.631       4433.2733     -137158.37    
    306100   2694.8591     -580.66917      4431.6226     -137167.3     
    306200   2533.4219     -8390.6736      4410.5879     -137164.55    
    306300   2514.9242     -6250.3968      4359.1955     -137168.57    
    306400   2386.0195     -2257.251       4302.7429     -137170.37    
    306500   2385.7792     -4478.6678      4277.2823     -137170.12    
    306600   2669.5125      4376.3586      4271.9863     -137169.83    
    306700   2595.2725      5125.2619      4309.3325     -137164.65    
    306800   2360.3034      2108.066       4397.0396     -137161.64    
    306900   2221.5641     -9206.557       4480.2722     -137165.58    
    307000   2298.8156     -13448.003      4476.2556     -137166.6     
    307100   2497.8023     -3355.4269      4403.7706     -137162.59    
    307200   2511.169       12522.689      4336.4074     -137161.32    
    307300   2663.6167      256.63987      4342.1713     -137167.52    
    307400   2333.2805     -2240.4541      4389.4015     -137163.88    
    307500   2395.4157     -4574.694       4413.5351     -137166.84    
    307600   2498.2416      4717.9651      4400.4155     -137165.47    
    307700   2876.3427     -7034.9964      4413.9532     -137168.89    
    307800   2595.6412     -13576.23       4418.2339     -137165.53    
    307900   2436.9106     -9165.735       4381.6712     -137166.76    
    308000   2428.3915      18188.973      4324.6422     -137166.69    
    308100   2765.8924      2365.681       4341.6853     -137166.99    
    308200   2630.9737      999.29146      4375.0744     -137160.58    
    308300   2509.3111     -4636.5388      4380.772      -137165.62    
    308400   2418.7806      3171.4417      4362.7959     -137166.71    
    308500   2439.2887      4166.0903      4353.9197     -137167.29    
    308600   2520.9994      6080.2054      4361.2802     -137168.17    
    308700   2558.3137      517.87956      4388.413      -137159.48    
    308800   2715.6462      3004.6678      4390.8814     -137159.16    
    308900   2582.7155      2283.8559      4401.5618     -137162.08    
    309000   2547.2248     -10531.096      4447.7214     -137164.93    
    309100   2397.1753     -3704.1406      4434.7631     -137161.45    
    309200   2457.6223      4761.5053      4353.0763     -137164.38    
    309300   2369.6962     -330.29717      4295.7999     -137163.82    
    309400   2566.1125      14552.711      4272.2138     -137170.38    
    309500   2320.0316      480.36978      4314.7209     -137166.81    
    309600   2449.2232      3843.9212      4377.4192     -137170.4     
    309700   2544.4218     -7748.2538      4456.5354     -137165.35    
    309800   2638.3468     -9999.8747      4498.0463     -137163.02    
    309900   2588.1905     -5808.6741      4503.2714     -137161.33    
    310000   2527.5527      1961.2955      4487.5001     -137164.65    
    310100   2264.7324     -17171.118      4465.1785     -137167.37    
    310200   2119.3924      5597.1984      4361.3411     -137163.02    
    310300   2472.5208      20223.692      4289.9607     -137167.72    
    310400   2578.0495     -4786.2067      4330.6729     -137168.54    
    310500   2417.3024     -2247.1381      4389.3399     -137163.02    
    310600   2475.6551     -3031.5975      4450.2755     -137159.48    
    310700   2756.6438      3055.8346      4500.8892     -137162.4     
    310800   2511.4047     -7791.8822      4553.9104     -137161.56    
    310900   2331.3424     -7699.2533      4548.0464     -137162.87    
    311000   2395.0443      1529.8771      4478.5458     -137162.3     
    311100   2750.6501     -3755.9747      4407.8863     -137168.95    
    311200   2435.9313      5548.4884      4339.0023     -137163.49    
    311300   2636.9301      14185.447      4300.0779     -137170.73    
    311400   2444.4003      6234.2016      4327.104      -137167.31    
    311500   2435.1486     -9015.0435      4374.6341     -137167.67    
    311600   2607.3567     -10858.357      4392.3862     -137168.65    
    311700   2581.2112      11212.826      4381.6024     -137160.83    
    311800   2630.5899     -7030.0914      4425.6233     -137162.46    
    311900   2348.5586     -5356.1571      4449.5096     -137162.93    
    312000   2308.8755     -5409.216       4437.1044     -137165.91    
    312100   2614.8956      7174.8776      4393.6712     -137167.87    
    312200   2851.7598     -7587.6658      4376.7632     -137165.8     
    312300   2616.485       10967.607      4349.3083     -137163.39    
    312400   2488.1793     -1333.9829      4357.4192     -137166.01    
    312500   2453.0512     -2229.8288      4358.8625     -137170.85    
    312600   2345.9491     -2881.1118      4351.8354     -137169.77    
    312700   2564.835       2794.7275      4329.1241     -137169.86    
    312800   2578.5693      10814.872      4343.7943     -137163.06    
    312900   2477.975       1997.0913      4428.9989     -137160.25    
    313000   2486.3188     -8277.0364      4497.1232     -137163.11    
    313100   2291.8361     -755.66139      4505.6216     -137160.6     
    313200   2695.4888     -7187.5951      4466.8828     -137169.16    
    313300   2577.307       5659.9219      4389.7814     -137162.7     
    313400   2490.0893      2566.6865      4347.0181     -137164.88    
    313500   2305.0935      11067.452      4333.5135     -137164.95    
    313600   2496.5935     -10511.842      4351.8407     -137167.77    
    313700   2644.0843      9899.5366      4340.3808     -137163.37    
    313800   2609.5567      4634.8906      4371.0699     -137158.92    
    313900   2475.7452     -10659.229      4434.2893     -137163.08    
    314000   2198.8435     -10342.975      4458.3665     -137161.42    
    314100   2517.1085     -7446.1228      4420.2729     -137164.19    
    314200   2763.3487      9438.0126      4355.5518     -137168.03    
    314300   2450.0396      5631.1127      4353.7423     -137165.24    
    314400   2313.2579     -5752.873       4392.079      -137164.11    
    314500   2586.9395      575.57165      4406.2436     -137167.94    
    314600   2808.6139      2810.6607      4430.7774     -137160.49    
    314700   2641.8514      9228.8673      4452.2951     -137161.32    
    314800   2356.0933     -3193.4487      4463.4681     -137160.67    
    314900   2473.6794     -1626.609       4424.7961     -137166.15    
    315000   2365.8273      9037.6416      4348.419      -137164.32    
    315100   2471.6155      5841.7094      4312.2324     -137162.04    
    315200   2749.6955      16345.843      4315.2974     -137163.3     
    315300   2518.5945      3802.4202      4390.5201     -137164.17    
    315400   2280.0302     -8868.2527      4475.0181     -137160.39    
    315500   2381.467      -714.99575      4491.8888     -137158.97    
    315600   2586.6094     -2054.3859      4472.5923     -137162.66    
    315700   2377.8546     -413.00186      4420.1108     -137161.5     
    315800   2371.6423      8046.1302      4353.2234     -137170.06    
    315900   2139.2616      6644.2063      4330.6905     -137168       
    316000   2455.8838     -6773.2997      4322.6857     -137172.08    
    316100   2506.3691      7094.4212      4292.6188     -137169.02    
    316200   2593.7448      13083.134      4296.4215     -137167.83    
    316300   2507.9536      1937.6848      4345.4743     -137165.92    
    316400   2422.5409     -9072.7007      4386.8029     -137166.08    
    316500   2453.1717      1641.5387      4400.0199     -137169.79    
    316600   2513.1459     -9449.5198      4413.8303     -137167.7     
    316700   2580.3806     -3188.9473      4400.2607     -137161.98    
    316800   2611.4946      8132.1544      4394.4882     -137162.57    
    316900   2464.7686      2837.0778      4408.5953     -137164.23    
    317000   2613.7624     -11092.982      4429.9953     -137169.69    
    317100   2478.3319     -354.2735       4417.1794     -137165.75    
    317200   2591.8174     -6151.5031      4387.9336     -137166.66    
    317300   2521.7924      5187.7077      4354.7881     -137162.01    
    317400   2701.0823      13665.614      4335.2012     -137161.54    
    317500   2677.1263     -5051.4667      4395.8292     -137164.1     
    317600   2306.8921     -4710.3765      4480.1812     -137162.79    
    317700   2336.1813     -10783.004      4497.6382     -137161.54    
    317800   2618.1126     -8376.7484      4433.7583     -137163.34    
    317900   2691.7636      4017.2492      4342.5003     -137166.58    
    318000   2625.2451      9999.5586      4268.9668     -137171.44    
    318100   2438.6299      12026.342      4258.9555     -137169.7     
    318200   2455.8594      44.781986      4290.0813     -137171.02    
    318300   2528.3583     -188.14112      4332.3818     -137171.79    
    318400   2630.4237     -4797.1535      4386.7886     -137167.46    
    318500   2621.443      -13795.147      4427.9277     -137160.74    
    318600   2690.9384      1713.7128      4418.1692     -137165.08    
    318700   2335.4682      3619.2173      4407.99       -137160.93    
    318800   2510.0487      4266.2324      4399.1806     -137164.86    
    318900   2479.3332     -5147.9036      4410.7104     -137162.69    
    319000   2653.9899      2724.9446      4399.9081     -137166.18    
    319100   2654.399      -12781.711      4387.0439     -137171.56    
    319200   2367.4086     -13792.366      4342.0406     -137169.49    
    319300   2519.6617      13824.936      4271.7886     -137168.93    
    319400   2767.5648      6981.6626      4289.4399     -137172.11    
    319500   2272.9755     -6556.6507      4386.7784     -137163.95    
    319600   2211.4606     -8997.0795      4463.9961     -137168.12    
    319700   2402.5242     -6534.3297      4478.7151     -137164.4     
    319800   2505.8886      3803.0383      4446.6776     -137160.78    
    319900   2683.785      -407.78606      4414.4278     -137164.48    
    320000   2555.7164     -5767.3122      4392.7838     -137166.43    
    320100   2280.9857      6842.4786      4352.9943     -137165.06    
    320200   2481.6598     -2085.5214      4337.5782     -137169.44    
    320300   2497.7201      3250.324       4342.0378     -137165.22    
    320400   2792.7416      1562.5418      4377.1886     -137162.9     
    320500   2477.5345      692.49951      4450.0889     -137158.63    
    320600   2357.6117      318.31673      4517.8879     -137159.17    
    320700   2423.9214     -6626.0193      4552.6233     -137160.79    
    320800   2612.9646     -3621.3466      4531.2978     -137162.02    
    320900   2757.444      -1434.4018      4465.0482     -137157.7     
    321000   2761.0462      5955.5781      4367.5798     -137159.67    
    321100   2826.4028      1494.4107      4302.0203     -137171.23    
    321200   2468.373       1028.0396      4293.0982     -137167.34    
    321300   2324.6265      5238.5839      4315.9481     -137167.09    
    321400   2423.4757     -4456.0169      4357.7366     -137166.64    
    321500   2619.0962      6321.2033      4368.4712     -137164.86    
    321600   2613.6195     -3136.4731      4398.9267     -137163.62    
    321700   2340.3866     -9688.344       4431.822      -137165.58    
    321800   2539.957      -9785.2713      4403.967      -137174.58    
    321900   2412.7316      10557.647      4343.5787     -137166.68    
    322000   2611.8844      4566.2022      4326.5484     -137168.25    
    322100   2440.3196      7218.9742      4343.9379     -137164.1     
    322200   2450.0886     -10296.164      4396.3561     -137166.65    
    322300   2548.4869     -12617.467      4416.4982     -137165.84    
    322400   2646.537       3075.3038      4367.9572     -137162.19    
    322500   2752.8052      2133.5723      4334.5091     -137166.06    
    322600   2514.8639      4435.0407      4343.7922     -137164.92    
    322700   2353.065      -10713.038      4389.6085     -137164.95    
    322800   2381.1737     -5156.3636      4375.478      -137164.49    
    322900   2746.8048      4340.0541      4317.8005     -137167.25    
    323000   2580.586       5179.9363      4311.9746     -137163.75    
    323100   2440.1939     -5977.3402      4348.7696     -137170.2     
    323200   2410.5724     -8719.8199      4384.5903     -137168.41    
    323300   2621.4795     -789.94123      4388.085      -137167.9     
    323400   2564.0971     -637.53985      4400.3164     -137163.53    
    323500   2450.1575      4844.3844      4425.274      -137159.99    
    323600   2666.3941     -4369.6778      4470.5042     -137163.33    
    323700   2635.0871      142.07661      4515.6593     -137162.41    
    323800   2355.6918     -11263.795      4538.3158     -137161.61    
    323900   2432.8011      1634.0018      4482.4837     -137165.48    
    324000   2602.5516     -4436.9451      4406.465      -137164.72    
    324100   2789.7663      9194.1853      4336.2058     -137163.6     
    324200   2541.7228     -5747.9323      4329.7631     -137166.64    
    324300   2552.492       3094.5285      4332.2839     -137168.95    
    324400   2429.0244     -2903.3286      4351.0045     -137166.35    
    324500   2363.0933      1984.5479      4365.0811     -137163.84    
    324600   2633.1232     -21.303426      4384.6257     -137163.94    
    324700   2628.1237     -1216.855       4424.3976     -137163.48    
    324800   2471.7344     -11799.007      4463.314      -137167.09    
    324900   2309.4993     -11712.803      4425.4185     -137164.65    
    325000   2315.5063      10437.245      4323.6039     -137161.45    
    325100   2693.9762      6665.4432      4257.0101     -137168.21    
    325200   2412.3894      13330.518      4247.4276     -137165.53    
    325300   2329.419       14655.205      4311.3906     -137167.62    
    325400   2425.082      -3731.8726      4427.8939     -137163.46    
    325500   2587.3803     -9182.6314      4526.3285     -137158.93    
    325600   2501.0884     -10862.017      4550.2219     -137156.32    
    325700   2678.2244     -3210.6336      4484.1184     -137163.76    
    325800   2367.7419      7434.8342      4390.3746     -137163.22    
    325900   2558.6317      7087.1685      4339.3111     -137170.27    
    326000   2308.8981      1983.1669      4333.8761     -137164.18    
    326100   2418.7266      5278.1925      4335.1671     -137160.44    
    326200   2755.5864      1277.0092      4354.6717     -137161.68    
    326300   2609.933      -789.48799      4383.1034     -137164.99    
    326400   2463.3994     -1205.9967      4410.3882     -137166.51    
    326500   2392.524       3625.2888      4428.5288     -137165.11    
    326600   2431.0244     -2091.9057      4432.8778     -137162.39    
    326700   2806.2826      3497.8025      4425.6564     -137163.97    
    326800   2526.7317     -1362.3415      4433.6538     -137159.8     
    326900   2605.8851     -421.00055      4436.8375     -137165.79    
    327000   2402.3086      126.76372      4429.6577     -137162.58    
    327100   2591.7233     -3351.1766      4400.4466     -137167.36    
    327200   2527.1111      8949.7761      4363.0998     -137165.58    
    327300   2308.7446     -2664.933       4371.7622     -137161.28    
    327400   2367.0683      1614.1878      4353.9912     -137164.75    
    327500   2589.5415     -1098.3509      4323.085      -137168.56    
    327600   2501.4721      6476.5667      4299.5908     -137165.93    
    327700   2487.7143      357.9253       4333.9958     -137168.03    
    327800   2356.8331      899.11512      4392.2502     -137169.08    
    327900   2537.1935     -15118.927      4448.4592     -137168.09    
    328000   2742.4448     -5851.6436      4445.0784     -137166.62    
    328100   2530.4804     -279.01281      4427.8247     -137162.85    
    328200   2357.8732      6538.9713      4390.3167     -137163.36    
    328300   2321.962       3255.2556      4355.2228     -137164.8     
    328400   2495.2563      12711.597      4331.5712     -137167.98    
    328500   2643.928      -4167.3431      4358.9099     -137165.4     
    328600   2626.6211      1200.4377      4395.6276     -137161.89    
    328700   2546.4813     -5486.8624      4425.8921     -137163.15    
    328800   2245.2986     -2774.1438      4420.3818     -137161.03    
    328900   2575.2889     -9741.5751      4398.6057     -137166.86    
    329000   2862.4097      5392.018       4365.7516     -137164.8     
    329100   2482.3672     -5242.7491      4365.5006     -137158.55    
    329200   2631.7182      198.82007      4345.5951     -137167.57    
    329300   2404.3591      9701.597       4318.4425     -137165.69    
    329400   2373.5848      9908.1768      4281.5893     -137167.24    
    329500   2457.8997      11516.194      4267.7814     -137170.77    
    329600   2318.241      -1426.3847      4319.9067     -137164.46    
    329700   2565.4349      13709.699      4376.1393     -137162.9     
    329800   2364.3429      283.4051       4465.9361     -137157.76    
    329900   2521.5055     -16062.5        4526.9715     -137163.59    
    330000   2574.6279     -757.90619      4509.0446     -137162.12    
    330100   2811.383      -4156.173       4459.8933     -137164.03    
    330200   2397.5991      51.381209      4393.3168     -137160.1     
    330300   2374.2387      7460.4389      4325.8955     -137164.89    
    330400   2344.0291      13692.729      4277.58       -137164       
    330500   2479.3353      3708.1602      4292.7497     -137163.37    
    330600   2574.122       9775.4275      4338.2305     -137158.92    
    330700   2624.7373      1377.5253      4422.6319     -137154.85    
    330800   2339.7216     -11694.518      4501.2632     -137155.76    
    330900   2471.4711     -10920.375      4497.1792     -137164.05    
    331000   2568.4159     -1027.6346      4395.8036     -137165.03    
    331100   2731.0748      14401.795      4301.6447     -137167.81    
    331200   2277.2075     -6011.185       4304.2472     -137165.27    
    331300   2512.8727      5076.6548      4312.7488     -137172.48    
    331400   2458.2161     -256.70917      4337.2009     -137168.97    
    331500   2640.3116     -4678.6585      4352.479      -137168.14    
    331600   2748.3724      7880.8945      4360.9027     -137163.13    
    331700   2767.4396      3769.9318      4406.7703     -137157.07    
    331800   2433.661      -836.63816      4464.623      -137158.23    
    331900   2426.7392     -1861.566       4468.5769     -137163.44    
    332000   2612.9065     -5185.8896      4445.7427     -137167.44    
    332100   2465.8621     -1086.1188      4392.8781     -137163.12    
    332200   2602.8852      7083.4844      4317.2882     -137168.61    
    332300   2412.2683      14677.706      4288.6189     -137171.29    
    332400   2232.999      -738.93014      4332.3759     -137165.79    
    332500   2535.8961      3052.814       4381.914      -137166.94    
    332600   2438.2268     -14567.544      4444.3549     -137161.15    
    332700   2582.5632      312.53805      4454.8403     -137161.7     
    332800   2559.5582     -5672.2899      4464.5302     -137163.65    
    332900   2296.2851     -9833.6556      4439.4613     -137164.38    
    333000   2465.3354      4453.1784      4346.2214     -137167.92    
    333100   2540.7316      6867.4678      4264.5055     -137169.01    
    333200   2402.7335      4074.9414      4253.4919     -137166.81    
    333300   2328.0513      2737.6014      4288.8915     -137169.82    
    333400   2360.632       1714.2169      4331.4535     -137169.81    
    333500   2624.2344     -3624.6999      4380.2488     -137169.37    
    333600   2539.7258     -7300.1213      4423.7507     -137164.02    
    333700   2498.7216     -297.92074      4426.135      -137163.23    
    333800   2483.4274     -7744.8366      4389.6786     -137169.18    
    333900   2388.7756     -1606.3305      4328.5139     -137172.04    
    334000   2402.9866      11363.657      4300.0526     -137169.47    
    334100   2602.1797      713.0065       4321.4104     -137166.33    
    334200   2537.1249      3952.7785      4367.6937     -137165.37    
    334300   2448.9312     -8705.5304      4435.9809     -137166.33    
    334400   2252.7335     -17230.542      4443.4466     -137160.5     
    334500   2683.6513     -857.29471      4366.0396     -137166.26    
    334600   2608.637       9957.7941      4314.1558     -137166.16    
    334700   2405.3555      7149.66        4323.7006     -137164.29    
    334800   2391.9368     -6045.9512      4347.0568     -137164.74    
    334900   2609.6005      7223.4021      4333.7926     -137167.45    
    335000   2686.757       474.73502      4371.4992     -137160.31    
    335100   2733.341       2345.8265      4425.7585     -137162.92    
    335200   2367.4919     -9190.8538      4482.6407     -137158.31    
    335300   2556.7683     -1950.4714      4466.2921     -137164.05    
    335400   2638.6651     -5455.1263      4432.7087     -137163.98    
    335500   2517.9389     -350.73262      4383.0583     -137162.22    
    335600   2417.8471      7339.0115      4332.6924     -137168.74    
    335700   2272.5509      6757.7506      4315.2907     -137165.96    
    335800   2378.6949      6274.2072      4318.7224     -137165.08    
    335900   2693.0341     -324.78403      4350.6607     -137165.46    
    336000   2577.2318     -4049.0899      4410.5808     -137158.17    
    336100   2544.2353     -9304.7018      4456.5343     -137159.02    
    336200   2406.8888      5641.1778      4419.4556     -137160.27    
    336300   2565.1708      1071.741       4364.4238     -137167.84    
    336400   2500.0086      2793.6402      4333.7388     -137168.31    
    336500   2207.4846     -3126.4848      4323.9065     -137164.86    
    336600   2524.023       1705.9725      4298.0905     -137171.2     
    336700   2558.6547      12374.083      4298.9558     -137165.1     
    336800   2587.4565      1285.2766      4362.2224     -137164.59    
    336900   2418.1963     -13180.829      4425.791      -137163.38    
    337000   2178.8722      2624.5876      4419.8784     -137161.89    
    337100   2421.7183      11879.342      4395.4361     -137163.96    
    337200   2610.1951      1710.7083      4384.6759     -137163.29    
    337300   2568.506       4539.2082      4371.9759     -137164.06    
    337400   2275.0758     -2753.0412      4385.6942     -137166.56    
    337500   2391.4792      553.85823      4392.2938     -137167.62    
    337600   2433.1748      1077.0196      4394.113      -137163.03    
    337700   2507.0377      692.11995      4384.77       -137162.67    
    337800   2515.9539      4432.9656      4383.1423     -137164.14    
    337900   2282.3757      2175.0821      4399.7276     -137165.29    
    338000   2197.2804     -2436.1345      4410.0873     -137168.07    
    338100   2549.4133     -1790.0529      4406.0555     -137166.86    
    338200   2577.745       96.906299      4407.3344     -137163.17    
    338300   2605.2518      3151.4861      4412.4732     -137163.07    
    338400   2496.6663      8023.0375      4432.4081     -137160.37    
    338500   2427.2937      523.36464      4446.7891     -137163.62    
    338600   2294.6567     -1962.9998      4438.8471     -137164.67    
    338700   2435.7307      638.6372       4428.3535     -137162.59    
    338800   2460.386       5117.4932      4413.7108     -137158.07    
    338900   2581.6666     -5565.2999      4381.56       -137164.04    
    339000   2397.0274      10209.482      4328.6468     -137163.75    
    339100   2494.9337      7886.7046      4316.0363     -137168.77    
    339200   2216.2233     -5310.8653      4331.6809     -137167.35    
    339300   2246.2485      2722.844       4323.3845     -137169.39    
    339400   2732.6598      1188.9319      4304.7247     -137173.37    
    339500   2546.0607     -367.44176      4320.475      -137167.85    
    339600   2407.3351     -1840.0843      4362.3128     -137166.34    
    339700   2425.2506      1360.5867      4381.5597     -137167.8     
    339800   2486.1594     -2957.9765      4387.2543     -137164.68    
    339900   2612.6772      3752.0096      4374.1798     -137161.25    
    340000   2557.8095      8475.8308      4382.4309     -137163.82    
    340100   2324.3162     -10790.695      4423.7166     -137163.82    
    340200   2469.2657     -1007.4042      4402.3851     -137165.7     
    340300   2434.7665      10863.577      4369.592      -137161.47    
    340400   2595.0864     -584.11423      4375.7043     -137164.32    
    340500   2503.295      -5385.0826      4401.7883     -137163.94    
    340600   2450.943      -7128.8014      4414.3347     -137170.08    
    340700   2274.6017     -14315.086      4403.846      -137169.8     
    340800   2438.9114      10957.754      4316.3272     -137165.8     
    340900   2540.7023      12786.569      4267.144      -137166.25    
    341000   2425.5329      5166.3834      4293.9034     -137167.46    
    341100   2352.6802      4388.3482      4359.2312     -137167.79    
    341200   2464.1478     -4303.0144      4447.1649     -137161.92    
    341300   2552.7346      3325.6102      4494.1822     -137160.68    
    341400   2626.1912     -15505.835      4517.8152     -137162.44    
    341500   2433.2612      4487.3964      4455.3651     -137158.85    
    341600   2470.3844      446.45381      4352.0307     -137168.36    
    341700   2363.8769      7781.4994      4251.401      -137170.84    
    341800   2352.8263      5695.5122      4213.5167     -137168.86    
    341900   2564.3689      5886.9457      4228.2572     -137168.6     
    342000   2735.4294      665.95512      4292.8423     -137167.81    
    342100   2563.5113     -2670.3526      4372.1288     -137165.95    
    342200   2442.408      -9117.0093      4464.1161     -137164.6     
    342300   2304.0991     -8115.6667      4521.709      -137158.47    
    342400   2597.1896     -7495.3481      4506.5987     -137160.48    
    342500   2716.9025     -2103.1066      4430.6997     -137163.87    
    342600   2390.1932      157.91525      4364.9308     -137163.52    
    342700   2448.7764      9939.4442      4329.6849     -137167.64    
    342800   2398.099       1745.4527      4341.0721     -137167.17    
    342900   2568.7825     -9322.39        4364.9052     -137168.74    
    343000   2648.7134      8490.7661      4362.9554     -137162.5     
    343100   2692.8412      5015.5476      4398.0667     -137161.97    
    343200   2514.1392     -17251.544      4421.9701     -137166.46    
    343300   2456.7551      4060.8544      4377.4609     -137168.61    
    343400   2398.6888      4633.2864      4367.4977     -137164.73    
    343500   2497.6934      246.65203      4375.2272     -137160.79    
    343600   2638.7993      8568.8028      4362.9254     -137162.8     
    343700   2517.0626      8483.7939      4369.0636     -137166       
    343800   2411.4895     -4921.782       4432.6354     -137165.01    
    343900   2454.5808     -6962.354       4493.8662     -137162.97    
    344000   2601.897       4778.9561      4510.758      -137163.58    
    344100   2414.8805     -17589.367      4499.2293     -137160.82    
    344200   2304.0657     -1238.5644      4404.0795     -137161.2     
    344300   2525.2878      3993.2988      4290.7161     -137169.48    
    344400   2442.424       12532.281      4205.3513     -137171.55    
    344500   2492.9285      2825.6585      4208.3408     -137175.26    
    344600   2467.4471      3891.8793      4269.6595     -137169.13    
    344700   2591.4858      2444.4857      4354.893      -137164       
    344800   2329.3774     -12052.515      4459.8922     -137156.43    
    344900   2559.6985     -9825.6112      4514.0893     -137161.2     
    345000   2591.1327     -12562.226      4507.8322     -137161.46    
    345100   2665.7741     -3665.4358      4447.8526     -137164.05    
    345200   2464.0235     -6691.8643      4372.9974     -137164.53    
    345300   2566.2038      6027.8999      4281.0554     -137171.47    
    345400   2409.9729      2825.3763      4242.6171     -137169.72    
    345500   2625.236       2216.2304      4254.1409     -137172.19    
    345600   2690.6768      13445.756      4300.566      -137166.45    
    345700   2515.3793      4291.5903      4401.9826     -137164.31    
    345800   2361.5106     -9876.8622      4503.9247     -137166.14    
    345900   2300.2578     -11530.604      4527.4022     -137161.51    
    346000   2521.2287      1060.3073      4476.5091     -137163.97    
    346100   2529.1655     -4565.9596      4427.5552     -137163.75    
    346200   2401.6511      7304.6635      4361.9441     -137163.53    
    346300   2388.3705      7889.1331      4324.7457     -137165.8     
    346400   2545.4743      1293.3572      4329.4723     -137170.19    
    346500   2368.5497     -4001.2376      4354.4632     -137167.26    
    346600   2566.1261     -3626.1547      4370.8416     -137170.22    
    346700   2411.8782      5506.0621      4400.2595     -137163       
    346800   2430.3329     -1198.9369      4458.1583     -137160.22    
    346900   2750.9262     -1651.0692      4487.4731     -137163.59    
    347000   2515.9802     -14551.303      4480.7968     -137156.59    
    347100   2449.3468     -1995.4321      4398.0324     -137162.12    
    347200   2481.1005      7218.3583      4289.4534     -137170.25    
    347300   2406.2592      12598.097      4229.5221     -137169.97    
    347400   2360.6019      7577.4248      4241.5447     -137168.91    
    347500   2590.5335      291.64167      4291.658      -137171.94    
    347600   2666.3622      1857.9445      4347.9905     -137165.06    
    347700   2623.2646      735.99074      4411.1341     -137164.89    
    347800   2346.7695     -1690.2851      4486.501      -137163.26    
    347900   2455.7258     -7038.9039      4533.5065     -137164.2     
    348000   2757.123      -10092.689      4528.2162     -137160.69    
    348100   2696.3038     -9629.0624      4492.1196     -137159.27    
    348200   2683.6271      1640.4103      4424.9896     -137165.4     
    348300   2346.5923      6921.7159      4378.6602     -137164.49    
    348400   2387.6228     -3674.4668      4351.3664     -137166.43    
    348500   2735.5074      5824.5902      4308.5751     -137171.64    
    348600   2499.7619      7926.2043      4312.0565     -137165.52    
    348700   2266.3929     -5662.6359      4333.6579     -137168.81    
    348800   2363.6209     -3437.4269      4313.6751     -137173.03    
    348900   2532.5763     -2904.2396      4295.7223     -137172.36    
    349000   2494.504      -3172.193       4291.3242     -137167.94    
    349100   2561.1916      3807.0202      4280.7601     -137168.38    
    349200   2506.0998      1762.7542      4288.7089     -137167.29    
    349300   2467.152       7613.2866      4320.9498     -137165.54    
    349400   2520.8759     -2478.2709      4393.1042     -137163.93    
    349500   2514.7227     -3636.6363      4440.4022     -137161.79    
    349600   2468.3125     -3219.7213      4438.6298     -137160.14    
    349700   2519.8022     -3602.5573      4398.438      -137164.08    
    349800   2407.9145      7798.8594      4357.9434     -137168.48    
    349900   2312.8096     -10965.65       4347.3107     -137166.43    
    350000   2542.5174      10917.714      4283.7665     -137165.57    
    350100   2548.8975      3365.5892      4259.2253     -137164.97    
    350200   2419.5683      7657.1243      4292.7796     -137164.28    
    350300   2313.157       10397.796      4361.7458     -137162.95    
    350400   2529.6414     -8431.977       4460.0626     -137164.7     
    350500   2833.9273     -8855.6235      4535.0195     -137164.1     
    350600   2394.939      -6315.5093      4551.3848     -137156.18    
    350700   2405.4921     -5424.2017      4518.3097     -137159.93    
    350800   2623.7991     -2489.1738      4431.7382     -137166.18    
    350900   2438.447       3804.5113      4320.5445     -137164.56    
    351000   2399.9149      11384.969      4232.1508     -137169.65    
    351100   2357.6018      5520.9651      4212.3559     -137170.32    
    351200   2624.6854      3260.7287      4253.5492     -137171.41    
    351300   2417.286       3865.1515      4333.9485     -137161.22    
    351400   2523.2943     -4690.8023      4405.9837     -137163.37    
    351500   2564.0694     -348.86382      4459.6984     -137164.9     
    351600   2424.3284     -14665.557      4499.5894     -137163.23    
    351700   2482.685      -15106.949      4455.7592     -137161.6     
    351800   2940.2715     -3007.3296      4317.3831     -137169.64    
    351900   2627.71        15204.209      4215.383      -137166.46    
    352000   2400.6866      7994.0764      4237.8349     -137167.61    
    352100   2537.1169     -8649.6044      4312.7608     -137170.61    
    352200   2562.6205      3904.4916      4376.6407     -137166.14    
    352300   2562.3097     -7082.9706      4465.3985     -137160.05    
    352400   2699.5516     -1582.6965      4514.6199     -137160.36    
    352500   2274.1291     -14125.61       4514.3141     -137157.93    
    352600   2283.5973      7844.6621      4423.6492     -137163.35    
    352700   2567.9449      8214.0826      4326.2704     -137167.51    
    352800   2774.2353      4249.5074      4283.3674     -137169.65    
    352900   2467.1419     -2254.0673      4306.0487     -137167.08    
    353000   2276.7057      4427.3692      4326.6189     -137168.46    
    353100   2397.6516     -3294.464       4357.2556     -137168.06    
    353200   2592.4977      786.05087      4379.4939     -137168.07    
    353300   2604.3528     -5547.3667      4400.3915     -137167.53    
    353400   2481.1967     -7330.463       4402.033      -137161.92    
    353500   2645.2429      3277.4135      4354.3756     -137162.96    
    353600   2653.0251      5168.2965      4325.3381     -137166.74    
    353700   2494.1768     -5473.3434      4332.3865     -137172.38    
    353800   2382.2679     -3573.5767      4328.2687     -137170.06    
    353900   2375.3856      15223.802      4307.2051     -137163.75    
    354000   2704.1954      2721.6284      4343.0994     -137166.09    
    354100   2629.8445      2810.9064      4430.3621     -137164.65    
    354200   2429.2952     -8600.0218      4523.3435     -137161.76    
    354300   2447.2932     -4719.9925      4538.2293     -137160.46    
    354400   2810.8601     -5886.3558      4520.5729     -137161.85    
    354500   2424.3835     -9178.4375      4495.0847     -137155.15    
    354600   2410.329       3640.4531      4429.2673     -137160.64    
    354700   2502.5855     -73.929908      4365.2337     -137165.11    
    354800   2231.9411     -5788.9318      4301.6515     -137164.86    
    354900   2420.1202      6662.1477      4217.2803     -137172.64    
    355000   2563.5545      10852.174      4206.0596     -137170.43    
    355100   2538.5921      6128.6739      4258.3119     -137166.6     
    355200   2516.2059     -11607.341      4337.5548     -137167.8     
    355300   2201.4979     -3728.1213      4373.3007     -137166.16    
    355400   2371.8212      4672.0908      4372.2028     -137168.61    
    355500   2477.1617      7643.4943      4367.9858     -137162.9     
    355600   2507.6243      7239.5586      4360.4369     -137162.32    
    355700   2588.7214     -6770.9328      4372.9726     -137168.45    
    355800   2227.0448      3498.1012      4371.6167     -137164.22    
    355900   2437.1438      7882.9925      4368.1592     -137168.98    
    356000   2654.3518      6495.0084      4379.7668     -137162.93    
    356100   2646.662      -11249.789      4408.4373     -137161.7     
    356200   2606.295      -560.38024      4402.7758     -137167.05    
    356300   2451.5723     -11193.097      4388.746      -137168.84    
    356400   2521.8711      1690.2908      4341.1272     -137170.01    
    356500   2564.2143     -4330.8827      4307.8715     -137169.44    
    356600   2462.4513      5548.9575      4297.6365     -137167.35    
    356700   2382.119      -3904.959       4313.6834     -137164.76    
    356800   2611.8381     -6338.7156      4311.9306     -137165.33    
    356900   2686.1751     -1963.2878      4299.7162     -137167.16    
    357000   2416.5725      4300.6571      4291.7238     -137167.25    
    357100   2565.4906     -9746.3121      4312.7756     -137172.5     
    357200   2552.7855      6248.3852      4323.5408     -137165.08    
    357300   2852.3474     -4430.4809      4358.2767     -137166.52    
    357400   2616.5969     -6825.5337      4389.6663     -137166.68    
    357500   2305.0378      14386.055      4409.5198     -137162.82    
    357600   2403.146      -5079.1819      4458.9828     -137164.78    
    357700   2543.7599     -3913.2144      4474.5569     -137159.91    
    357800   2658.0861      2779.1737      4463.6544     -137161.15    
    357900   2455.6751     -3626.1345      4451.1124     -137161.53    
    358000   2483.7303      436.96964      4411.494      -137164.6     
    358100   2491.1213     -987.8099       4371.806      -137164.3     
    358200   2745.1168      9344.1497      4341.416      -137168.36    
    358300   2273.8239      1437.7764      4363.6473     -137161.51    
    358400   2397.0679     -6207.5132      4390.3067     -137166.21    
    358500   2610.2063      9265.3018      4385.6953     -137165.65    
    358600   2518.9346      4156.4111      4421.4935     -137160.3     
    358700   2508.9874     -4161.7618      4461.4553     -137163.76    
    358800   2191.6261     -1606.0964      4480.881      -137164.18    
    358900   2368.946      -2847.9745      4476.3349     -137166.07    
    359000   2556.0545     -1046.3793      4426.0663     -137165.46    
    359100   2459.1395      8601.0768      4348.1661     -137161.61    
    359200   2665.4171      3766.617       4289.2257     -137169.19    
    359300   2475.4633      857.93177      4272.3011     -137169.95    
    359400   2349.4625      8766.0116      4285.9569     -137167.16    
    359500   2484.1609     -1958.7812      4314.8769     -137170.16    
    359600   2378.4479     -84.677177      4340.1352     -137163.54    
    359700   2581.4736     -2421.4484      4358.1827     -137164.28    
    359800   2720.4453      322.05642      4373.0508     -137157.32    
    359900   2729.4526      12788.306      4386.6814     -137159.72    
    360000   2616.1917     -2589.0629      4457.9325     -137164.52    
    360100   2414.0989     -13940.046      4534.6341     -137161.04    
    360200   2599.5553     -1679.2614      4543.8993     -137164.61    
    360300   2447.6366     -4354.417       4545.7819     -137157.95    
    360400   2558.2861     -6338.4144      4527.7899     -137151.96    
    360500   2664.6806      7960.9607      4450.1866     -137154.61    
    360600   2470.2774      9847.9602      4379.3801     -137156.66    
    360700   2660.0847      2813.8576      4333.2402     -137167.2     
    360800   2460.8125      9470.8338      4314.2707     -137169.04    
    360900   2241.54       -9049.945       4360.1706     -137163.83    
    361000   2462.2241     -1018.308       4366.9453     -137163.32    
    361100   2588.8338      2349.4924      4347.8323     -137163.65    
    361200   2480.6387      2509.6923      4363.552      -137161.95    
    361300   2592.4276     -8354.8925      4399.7041     -137166.02    
    361400   2426.1792      3390.6076      4409.8918     -137162.51    
    361500   2572.8133     -8871.2919      4434.2194     -137167.34    
    361600   2443.8879     -11192.588      4422.0628     -137165.36    
    361700   2381.9719      10563.295      4354.7488     -137159.19    
    361800   2769.8078      11462.012      4329.99       -137163.14    
    361900   2500.0263      4482.983       4352.6831     -137162.03    
    362000   2374.6683     -4111.4911      4399.6426     -137162.6     
    362100   2605.9332     -360.4165       4424.0203     -137167.2     
    362200   2300.259       10336.477      4459.1343     -137158.85    
    362300   2467.1056     -13319.662      4507.0723     -137164.43    
    362400   2249.9374     -9293.0117      4482.1521     -137162.42    
    362500   2509.5005      8736.5288      4398.8537     -137166.7     
    362600   2653.4494      1545.2135      4333.9297     -137168.35    
    362700   2613.6895     -10141.338      4303.7942     -137169.27    
    362800   2514.1821     -1632.1421      4281.557      -137168.26    
    362900   2531.8616      1944.9646      4283.8111     -137166.34    
    363000   2557.2482      5775.8903      4316.6187     -137162.87    
    363100   2543.2191      10478.36       4392.6597     -137164.59    
    363200   2390.1752     -15957.418      4532.9397     -137167.5     
    363300   2303.538      -15204.184      4605.8451     -137161.89    
    363400   2526.1779     -9010.5318      4548.8835     -137159.82    
    363500   2463.6722      13328.84       4424.728      -137159.12    
    363600   2564.8425     -7172.252       4333.5083     -137165.45    
    363700   2380.0263      7585.0611      4260.9609     -137167.34    
    363800   2324.0289      5071.7166      4225.9081     -137168.97    
    363900   2524.5091      6985.6105      4221.6439     -137171.56    
    364000   2493.8363     -208.39632      4282.9084     -137169.02    
    364100   2384.5148      2812.0511      4348.373      -137165.28    
    364200   2408.2245      682.1821       4393.8912     -137163.8     
    364300   2554.5214      13120.219      4406.8757     -137161.05    
    364400   2682.4746      351.73625      4455.0272     -137158.88    
    364500   2410.1865     -6777.8771      4507.3122     -137159.84    
    364600   2357.7798     -2641.1446      4495.2631     -137163.11    
    364700   2611.5895     -9133.7206      4448.4113     -137165.79    
    364800   2780.4698      3260.0236      4379.3789     -137169.47    
    364900   2388.7029     -1371.7914      4343.3028     -137165.88    
    365000   2263.8895      4829.7599      4296.1257     -137169.62    
    365100   2478.8133      4473.5614      4261.2909     -137173.01    
    365200   2402.8469      7821.3903      4255.8534     -137166.67    
    365300   2549.1404     -1838.4585      4282.9681     -137165.87    
    365400   2692.6816      3363.3663      4312.267      -137166.12    
    365500   2625.6761     -6247.0655      4370.4178     -137163.64    
    365600   2425.3205     -6130.8514      4431.6412     -137163.33    
    365700   2411.0707     -2513.7886      4466.5143     -137165.88    
    365800   2400.3828     -10941.72       4444.0591     -137165.93    
    365900   2581.0605      8880.6486      4382.083      -137163.45    
    366000   2708.742       12112.117      4384.2183     -137162.62    
    366100   2502.4409     -7953.716       4439.7406     -137162.96    
    366200   2522.4387     -5624.7286      4461.0099     -137166.95    
    366300   2385.652      -2581.4671      4439.4488     -137164.01    
    366400   2530.4632     -1656.9881      4394.5882     -137165.39    
    366500   2912.43       -3586.3805      4343.447      -137166.06    
    366600   2702.4413      14418.365      4302.7578     -137160.59    
    366700   2670.0259     -4771.2369      4322.9021     -137169.03    
    366800   2353.1025      7837.5119      4329.8565     -137164.65    
    366900   2317.6809      5018.8574      4329.5426     -137163.26    
    367000   2683.992       483.1062       4338.8641     -137166.22    
    367100   2524.4494      3774.1815      4362.2931     -137163.38    
    367200   2387.2184      8612.1081      4397.1375     -137165.66    
    367300   2317.508      -12703.143      4439.1056     -137162.89    
    367400   2519.8375     -2065.8059      4409.8968     -137166.26    
    367500   2574.7296     -1731.8975      4365.8403     -137166.66    
    367600   2505.7571      5346.6291      4320.6759     -137163.34    
    367700   2653.7863      1691.4685      4294.0065     -137167.51    
    367800   2217.981       6331.8687      4300.2073     -137164.08    
    367900   2289.9471      1247.0576      4334.8283     -137167.52    
    368000   2506.953       5171.4147      4385.6604     -137168.2     
    368100   2460.2156     -11126.76       4448.6434     -137162.47    
    368200   2530.5267     -738.79332      4449.9029     -137163.81    
    368300   2469.747      -1720.5483      4427.7943     -137162.41    
    368400   2783.6942     -2224.9375      4375.7679     -137167.94    
    368500   2355.7038      9680.1719      4337.9668     -137160.2     
    368600   2314.8282     -2070.0154      4360.7179     -137166.13    
    368700   2518.6244     -3931.4397      4381.5129     -137171.72    
    368800   2539.475       8094.5771      4393.1342     -137166.74    
    368900   2632.1956     -6354.5657      4440.8147     -137159.84    
    369000   2675.3553      3027.5993      4468.2142     -137161.16    
    369100   2558.7718     -5901.6676      4487.9928     -137163.88    
    369200   2430.1322     -623.0517       4461.5713     -137162.96    
    369300   2583.5433     -391.09266      4408.4528     -137165.96    
    369400   2546.9341      4860.5171      4340.5555     -137166.2     
    369500   2428.4909      7651.3591      4278.553      -137165.52    
    369600   2480.169       8005.8436      4235.6455     -137172.37    
    369700   2124.2371      10554.341      4227.9486     -137170.85    
    369800   2241.5964      9927.8522      4265.805      -137171.36    
    369900   2339.3605     -13776.061      4330.8997     -137167.16    
    370000   2536.341       1550.2246      4356.0251     -137165.41    
    370100   2633.1501      9202.4338      4403.7729     -137166.55    
    370200   2286.754      -8557.594       4479.0924     -137163.1     
    370300   2240.9385     -8514.1547      4481.2025     -137162.79    
    370400   2561.1497     -2058.3639      4403.5802     -137160.8     
    370500   2716.28        9089.9078      4323.4709     -137163.84    
    370600   2480.7831      10787.284      4296.7628     -137164.93    
    370700   2454.0887     -5644.6456      4332.8123     -137169.05    
    370800   2435.6851      2335.6841      4345.3728     -137168.44    
    370900   2602.3754      7813.8707      4369.9568     -137164.75    
    371000   2507.6358      4320.282       4427.4166     -137160.12    
    371100   2674.4195     -12183.991      4499.3693     -137165.6     
    371200   2330.7239     -11064.852      4536.1178     -137156.86    
    371300   2718.9371      3499.2534      4496.6481     -137164.72    
    371400   2763.1241     -1946.6449      4454.1484     -137164.65    
    371500   2434.6266      11614.864      4413.9956     -137164.73    
    371600   2437.1442     -3255.5271      4384.3837     -137168.09    
    371700   2461.6616      1194.3181      4323.8171     -137166.61    
    371800   2729.834       12264.129      4280.4911     -137167.36    
    371900   2907.5689     -4727.3617      4318.5863     -137167.26    
    372000   2591.3649     -7372.9679      4349.1132     -137169.81    
    372100   2347.4237     -9100.8321      4358.57       -137166.84    
    372200   2507.4041      5354.5537      4348.6483     -137167.12    
    372300   2573.1008      8442.4411      4355.3911     -137163.64    
    372400   2747.7325     -674.28771      4382.8688     -137172.23    
    372500   2143.3799     -2517.7047      4424.47       -137163.88    
    372600   2520.9258      877.51731      4434.6589     -137170.32    
    372700   2498.9935      3203.6285      4452.7121     -137164.47    
    372800   2579.5654      1891.032       4484.9865     -137164.13    
    372900   2499.5613     -1984.5415      4520.463      -137159.05    
    373000   2696.3133      1019.8281      4516.3825     -137156.33    
    373100   2617.6359     -3217.4578      4487.3104     -137160.72    
    373200   2619.8615     -5059.5953      4428.5488     -137167.12    
    373300   2570.1373      12801.255      4351.8334     -137168.87    
    373400   2405.4192      8507.4655      4311.5247     -137168.75    
    373500   2464.8512      4481.4059      4286.8448     -137169.89    
    373600   2756.2094      5216.384       4301.2932     -137166.79    
    373700   2500.4416     -3453.9204      4374.2198     -137159.74    
    373800   2422.4668     -680.52013      4447.924      -137162.5     
    373900   2425.6914     -12855.699      4502.3758     -137163.54    
    374000   2536.3135     -5924.7756      4484.2297     -137163.07    
    374100   3010.4087     -2687.2085      4437.379      -137166.4     
    374200   2587.2617     -3519.6649      4402.9223     -137162.23    
    374300   2591.7478      580.65466      4376.4339     -137166.56    
    374400   2488.5337      5161.8781      4332.0014     -137168.69    
    374500   2312.7819      2241.8604      4305.9945     -137167.55    
    374600   2517.6475     -2024.9459      4328.7612     -137169.78    
    374700   2593.1662      11612.344      4386.5614     -137160.72    
    374800   2810.3461     -12524.172      4498.8505     -137166.97    
    374900   2350.3816     -4883.446       4567.8497     -137158.88    
    375000   2469.2859     -13537.6        4569.343      -137162.81    
    375100   2471.0485     -491.01304      4488.174      -137157.94    
    375200   3009.3845      7815.6782      4379.261      -137166.47    
    375300   2699.4116     -1987.4083      4328.1381     -137163.73    
    375400   2455.3609      5584.6496      4303.6257     -137164.4     
    375500   2354.9477      9323.6708      4305.9701     -137166.39    
    375600   2408.9911      3724.8795      4344.6403     -137165.78    
    375700   2691.7917     -121.75967      4402.7261     -137167.2     
    375800   2598.0076     -7259.2507      4483.2327     -137165.35    
    375900   2276.8358     -7997.6467      4496.2861     -137164.24    
    376000   2245.9828     -3517.9707      4411.6906     -137167.57    
    376100   2641.2524     -897.89818      4275.7545     -137170.15    
    376200   2742.383       14928.048      4175.061      -137170.45    
    376300   2492.7544      14664.491      4170.7573     -137170.17    
    376400   2326.6224     -752.72767      4246.0606     -137168.83    
    376500   2466.7455     -2857.4668      4321.9551     -137167.09    
    376600   2445.7765      3324.5515      4360.0202     -137161.33    
    376700   2614.5044     -3948.3369      4383.5012     -137167.17    
    376800   2448.592       3287.383       4394.314      -137166.44    
    376900   2232.0855      1261.9401      4406.2292     -137162.15    
    377000   2507.6683     -2672.1631      4396.0754     -137165.68    
    377100   2750.0477      7703.0994      4368.8692     -137160.67    
    377200   2701.623       959.2177       4383.305      -137164.45    
    377300   2463.2068     -10359.8        4403.8392     -137163.08    
    377400   2484.9137      7622.6723      4391.8698     -137163.18    
    377500   2475.4346      3738.8578      4420.6992     -137161.96    
    377600   2418.9024     -4269.5534      4455.478      -137164.42    
    377700   2256.2782     -1378.3939      4441.2156     -137164.73    
    377800   2387.6674     -7214.2273      4400.4598     -137163.31    
    377900   2645.4725      8065.8711      4331.3174     -137162.39    
    378000   2646.1802      4421.0976      4297.5564     -137165.52    
    378100   2518.869       4793.7573      4304.4098     -137167.81    
    378200   2404.348      -3780.8477      4344.3664     -137166.84    
    378300   2437.5616     -1996.0157      4369.4906     -137165.85    
    378400   2705.4642      2077.3957      4371.9422     -137166.35    
    378500   2743.186       1461.1548      4422.3513     -137158.77    
    378600   2696.051      -11459.703      4518.9257     -137160.14    
    378700   2460.0595     -13428.299      4583.9255     -137157.79    
    378800   2526.3776     -6320.0618      4572.7887     -137161.01    
    378900   2563.2392     -11104.047      4497.3758     -137162.85    
    379000   2538.7331      3540.6622      4363.2756     -137163.6     
    379100   2496.0531      17521.642      4273.3283     -137169.16    
    379200   2451.654      -1563.6841      4258.5082     -137172.91    
    379300   2537.7127      2686.0015      4248.651      -137172.96    
    379400   2422.6685      9410.7267      4272.8412     -137165.25    
    379500   2638.0971      4540.9195      4331.8838     -137167.16    
    379600   2539.7667     -839.83283      4407.7917     -137163.91    
    379700   2378.1209     -8764.338       4460.3964     -137166.42    
    379800   2336.5335     -13019.359      4445.9861     -137169.98    
    379900   2441.6804      2563.531       4377.9336     -137167.46    
    380000   2661.5531      10525.175      4335.8454     -137167.32    
    380100   2632.1582     -9827.5477      4342.1907     -137168.67    
    380200   2475.9856     -1422.6895      4353.5374     -137167.52    
    380300   2288.9916      3598.1403      4375.9094     -137164.75    
    380400   2337.3928      5934.5661      4397.5528     -137165.04    
    380500   2588.7056     -2680.9122      4440.4732     -137164.2     
    380600   2664.2529     -8859.3676      4477.7482     -137162.98    
    380700   2467.7519     -9491.6145      4439.6862     -137161.28    
    380800   2500.0813     -374.81383      4329.0388     -137170.01    
    380900   2334.724       9340.7237      4249.7034     -137169.79    
    381000   2529.8202      3208.3476      4251.4238     -137172.96    
    381100   2358.5363      4499.0309      4296.6694     -137165.59    
    381200   2358.5432      3598.0997      4373.7721     -137162.97    
    381300   2592.2092     -4242.2034      4453.4092     -137165.78    
    381400   2501.8118     -3106.9389      4483.1822     -137159.37    
    381500   2889.2074     -4635.4796      4490.6702     -137161.91    
    381600   2546.9333     -4676.6277      4497.3389     -137161.62    
    381700   2414.5209      4414.4592      4458.6603     -137161.01    
    381800   2632.6482     -1622.9988      4426.0667     -137164.82    
    381900   2590.3222     -11838.376      4426.8512     -137165.41    
    382000   2259.2997      9246.8063      4394.7644     -137164.57    
    382100   2177.942       7481.885       4377.506      -137163.12    
    382200   2457.2781     -192.18619      4388.1049     -137164.37    
    382300   2505.5627      1062.3904      4406.6222     -137163.39    
    382400   2420.4583      9216.2855      4411.6521     -137162.26    
    382500   2540.0327      2473.6556      4433.9561     -137165.54    
    382600   2445.4202     -8549.0382      4470.1093     -137159.98    
    382700   2754.5017      4615.6687      4441.832      -137161.56    
    382800   2714.952       4396.183       4405.8215     -137164.34    
    382900   2442.9058     -3134.8774      4386.8289     -137165.75    
    383000   2478.3918     -8015.5368      4357.3238     -137167.05    
    383100   2627.2004      3693.0421      4288.8165     -137169.43    
    383200   2412.518       4777.7747      4245.2242     -137164.53    
    383300   2328.6425      9501.8635      4246.8705     -137168.71    
    383400   2336.6914     -255.43164      4284.2676     -137171.44    
    383500   2457.03        3620.8446      4337.0455     -137166.01    
    383600   2461.8559     -8687.0822      4434.1296     -137162.32    
    383700   2545.0338     -3074.7108      4517.0399     -137162.07    
    383800   2653.0633     -12499.708      4553.1058     -137160.93    
    383900   2969.7025     -5014.9854      4527.2415     -137166.99    
    384000   2621.9199      1670.2044      4485.7763     -137169.72    
    384100   2380.9918     -6524.6873      4441.6044     -137167.95    
    384200   2359.1037     -4613.4232      4370.97       -137164.51    
    384300   2610.8797      18974.102      4297.4151     -137164.11    
    384400   2517.068       7787.8946      4321.6847     -137160.08    
    384500   2499.2348     -1956.3198      4369.5364     -137161.16    
    384600   2415.6693     -1332.0538      4372.8951     -137168.12    
    384700   2382.6701     -3837.607       4339.674      -137171.66    
    384800   2535.042       523.20111      4272.2575     -137173.65    
    384900   2478.875       11330.894      4221.0095     -137167.42    
    385000   2793.6137      13955.963      4255.3448     -137165.18    
    385100   2613.039      -3920.0177      4391.152      -137164.44    
    385200   2337.117      -14971.369      4500.4534     -137158.34    
    385300   2645.5743     -15128.805      4505.161      -137164.31    
    385400   2436.357       804.3563       4445.949      -137159.72    
    385500   2422.2362     -2258.6226      4400.2631     -137162.33    
    385600   2577.7171      4875.0804      4376.5824     -137169.29    
    385700   2346.4774     -546.01829      4398.8567     -137167.21    
    385800   2346.1324      2995.8441      4424.4539     -137165.93    
    385900   2528.6982      5006.1519      4464.3778     -137162.62    
    386000   2619.903      -5658.5226      4517.7346     -137163.69    
    386100   2479.972      -16004.233      4554.5611     -137159.62    
    386200   2709.8586      5259.6972      4507.2595     -137159.91    
    386300   2878.1999     -5433.1534      4470.4891     -137160.27    
    386400   2562.6286     -7529.3216      4435.8191     -137162.72    
    386500   2502.8626     -4855.4289      4368.6202     -137166.04    
    386600   2352.8314      7611.7989      4293.3887     -137162.78    
    386700   2538.003       19963.101      4266.8746     -137162.54    
    386800   2628.8736      15221.903      4329.996      -137163.87    
    386900   2180.2694     -3659.0002      4438.5011     -137161.89    
    387000   2376.1588     -8898.3215      4490.6291     -137165.17    
    387100   2480.1249     -2751.6618      4480.9811     -137162.63    
    387200   2692.9903      276.17368      4414.6117     -137166.68    
    387300   2393.4985      12006.758      4348.8218     -137161.88    
    387400   2297.87       -10075.608      4343.4941     -137167.28    
    387500   2532.8476      6677.5018      4323.9336     -137174.23    
    387600   2695.7611      2138.4028      4336.067      -137166.44    
    387700   2694.3938     -4327.3599      4395.2006     -137165.93    
    387800   2368.7345     -7467.4334      4471.733      -137160.97    
    387900   2363.9088     -10401.258      4485.0625     -137163.8     
    388000   2600.9557     -6881.4693      4443.7521     -137163.23    
    388100   2757.8601      6457.3648      4385.376      -137162.97    
    388200   2516.3095      419.88427      4351.4091     -137165.23    
    388300   2437.9462      2581.8106      4326.7275     -137168.31    
    388400   2446.9201     -1219.1753      4319.9613     -137170.66    
    388500   2460.2622     -5174.0694      4316.7914     -137166.79    
    388600   2638.0176      7653.6248      4299.1072     -137164.11    
    388700   2415.4003      5452.3542      4309.9287     -137161.12    
    388800   2448.7997     -4818.0007      4353.314      -137163.91    
    388900   2586.4137     -8036.8632      4396.639      -137165.8     
    389000   2575.45       -381.16399      4425.7653     -137163.05    
    389100   2630.3202     -7795.7321      4455.5291     -137160.36    
    389200   2844.6026      6670.9293      4444.2369     -137159.57    
    389300   2633.0115     -4580.292       4449.335      -137161.71    
    389400   2384.7199      2382.3521      4450.6468     -137161.85    
    389500   2346.3113     -2354.6049      4435.8951     -137160.78    
    389600   2397.6672      2382.6371      4387.4205     -137159.51    
    389700   2781.3782      10460.619      4381.4286     -137164.6     
    389800   2622.5284     -4137.1221      4439.4841     -137160.68    
    389900   2352.0862     -12375.203      4465.6919     -137161.78    
    390000   2414.0105      6556.7433      4414.1155     -137165.25    
    390100   2478.6539     -829.61073      4370.3636     -137163.66    
    390200   2778.9646      11400.518      4325.1317     -137164.71    
    390300   2572.7915     -1072.7949      4332.3923     -137167.97    
    390400   2320.3584      5386.5964      4358.1466     -137166.37    
    390500   2402.8428     -3355.8266      4405.5146     -137164.86    
    390600   2667.0455     -8388.4432      4438.8085     -137166.11    
    390700   2643.1937      2117.227       4449.0393     -137165.21    
    390800   2506.2641     -9234.4763      4461.2238     -137166.8     
    390900   2195.2297     -6531.2328      4419.9724     -137164.74    
    391000   2410.3506      6666.0948      4322.5647     -137167.44    
    391100   2671.5491      11087.555      4243.4902     -137165.85    
    391200   2626.9147      15426.196      4247.5569     -137165.42    
    391300   2514.8142     -9381.5523      4341.7851     -137166.27    
    391400   2556.5779     -1990.6522      4415.1116     -137166.42    
    391500   2482.2476     -10079.805      4453.227      -137160.41    
    391600   2743.5931      4315.7408      4445.0748     -137161.02    
    391700   2456.5388     -1666.3217      4463.3529     -137156.4     
    391800   2328.34       -17281.096      4427.8193     -137163.39    
    391900   2518.8814      10412.596      4288.9751     -137168.86    
    392000   2434.5477      19295.37       4217.8864     -137167.29    
    392100   2426.5278      4797.0209      4258.4805     -137167.78    
    392200   2555.49        654.41508      4332.5549     -137167.61    
    392300   2622.7021     -580.15539      4417.3702     -137163.07    
    392400   2695.7896     -6568.4142      4492.1404     -137159.49    
    392500   2664.4317     -8347.5915      4515.1692     -137157.96    
    392600   2492.9127     -8504.1852      4470.2532     -137163.41    
    392700   2479.0207     -1615.4815      4376.1179     -137167.63    
    392800   2625.0335      19355.645      4286.503      -137172.6     
    392900   2268.8681      273.20801      4299.8387     -137168.97    
    393000   2368.5539     -1601.7092      4321.5958     -137169.95    
    393100   2717.6982     -6488.7182      4329.6598     -137169.46    
    393200   2610.5006     -4274.8523      4333.4554     -137169.51    
    393300   2362.8713      1929.3169      4339.2083     -137166.11    
    393400   2555.039      -5271.0976      4342.078      -137168.49    
    393500   2807.995       10863.369      4320.1796     -137166.78    
    393600   2624.8325     -4451.0175      4341.6337     -137163.22    
    393700   2334.3912     -5332.96        4379.8776     -137164.27    
    393800   2335.8864     -10623.092      4407.1555     -137162.17    
    393900   2586.2231      9858.7833      4393.2378     -137165.55    
    394000   2430.6978     -9095.8743      4433.7442     -137162.13    
    394100   2302.854      -1296.5233      4425.5873     -137159.6     
    394200   2839.6911      11146.45       4396.9474     -137166.14    
    394300   2710.7346      5099.9438      4428.5172     -137161.01    
    394400   2383.7233     -11651.17       4472.0186     -137159.89    
    394500   2437.99       -2891.9877      4459.5869     -137162.16    
    394600   2316.6938      4384.5365      4427.3229     -137157.93    
    394700   2495.3127     -2676.277       4361.8928     -137164.02    
    394800   2608.0203      597.11245      4278.0583     -137168.03    
    394900   2469.4966      11628.762      4231.3883     -137170.02    
    395000   2236.7785      3805.5026      4259.8508     -137172.23    
    395100   2196.5402      2210.9952      4335.4149     -137166.67    
    395200   2414.4573     -5909.9855      4396.848      -137165.65    
    395300   2653.7668     -1219.5401      4417.926      -137168.56    
    395400   2517.9716     -9626.9316      4440.7481     -137165.43    
    395500   2734.6697     -5773.269       4427.76       -137165.84    
    395600   2759.0137      5637.4349      4399.1384     -137160.53    
    395700   2515.404       4473.7323      4400.3631     -137161.27    
    395800   2500.3241     -5056.7887      4409.4        -137164.76    
    395900   2523.1655      2841.776       4400.2284     -137165.29    
    396000   2371.8732     -2301.9666      4423.5903     -137163.07    
    396100   2521.8194     -15356.05       4451.0162     -137165.95    
    396200   2592.7239     -4859.2612      4420.2378     -137163.06    
    396300   2765.8824      3253.1093      4384.1205     -137165.29    
    396400   2385.1055      3327.6323      4376.8921     -137164.38    
    396500   2468.7832     -8450.6703      4370.7163     -137169.51    
    396600   2473.1857      5469.2461      4329.5938     -137167.65    
    396700   2617.3288      8569.5799      4308.5169     -137167.43    
    396800   2507.1876      8029.6667      4343.5562     -137164.36    
    396900   2348.4382     -3828.3908      4423.014      -137165.2     
    397000   2273.8148     -12396.928      4468.7794     -137162.73    
    397100   2692.2741     -1261.4486      4452.0489     -137165.42    
    397200   2500.7016     -1848.5344      4427.0236     -137160.77    
    397300   2502.0064      5123.5995      4389.2898     -137164.99    
    397400   2414.9192      10706.409      4367.9001     -137167.73    
    397500   2320.7205     -12897.36       4361.5332     -137170.8     
    397600   2353.0688     -415.61288      4293.0287     -137172.17    
    397700   2495.58        18218.064      4221.2395     -137167.06    
    397800   2488.5789      12960.81       4205.5259     -137164.34    
    397900   2477.9019      8725.5198      4254.3224     -137169.65    
    398000   2278.7682      3470.4757      4378.2788     -137168.16    
    398100   2254.9767     -18115.909      4506.9033     -137158.39    
    398200   2485.6498     -215.06302      4544.1558     -137156.86    
    398300   2697.6694     -14337.217      4552.7894     -137159.68    
    398400   2545.1583     -3942.0971      4484.2054     -137158.04    
    398500   2589.2847      1148.4948      4393.5894     -137166.67    
    398600   2532.0778      2840.2343      4323.8985     -137170.23    
    398700   2422.9756      1194.4465      4289.0593     -137167.88    
    398800   2668.1654      11819.376      4281.1194     -137173.52    
    398900   2469.4538     -8918.4446      4319.8727     -137168.86    
    399000   2409.8966     -4802.9603      4339.8582     -137165.57    
    399100   2677.6853      8602.7874      4355.303      -137166.1     
    399200   2664.4879      2453.8894      4374.3081     -137165.76    
    399300   2417.163      -10375.299      4414.1942     -137163.14    
    399400   2261.0735     -8471.121       4415.9464     -137164.07    
    399500   2323.7056     -620.71552      4380.3153     -137160.83    
    399600   2687.232       11856.114      4328.8429     -137163.71    
    399700   2489.0313      5254.0406      4313.7247     -137164.12    
    399800   2345.0998      3504.7478      4292.3478     -137165.36    
    399900   2519.9824      7569.7828      4282.5423     -137169.21    
    400000   2555.1919     -5405.0527      4330.2106     -137166.33    
    400100   2670.2584      4519.782       4374.102      -137159.39    
    400200   2725.8753     -2751.7828      4440.6297     -137158.16    
    400300   2467.7507      974.69544      4485.0251     -137156.74    
    400400   2403.512       2232.5729      4496.9894     -137159       
    400500   2561.4388     -5956.2716      4493.8721     -137165.16    
    400600   2401.5211     -5058.0731      4463.1509     -137164.14    
    400700   2204.5839      323.53675      4389.9379     -137167.33    
    400800   2311.1101      6463.9994      4273.5064     -137170.74    
    400900   2641.2978      23027.499      4197.2127     -137170.73    
    401000   2577.3163     -1219.5562      4245.9979     -137170.36    
    401100   2529.0673      4203.9996      4317.3786     -137170.08    
    401200   2355.5801     -1478.5007      4389.2702     -137167.02    
    401300   2473.999      -10812.562      4439.939      -137166.11    
    401400   2644.0713      2075.9226      4442.6267     -137161.36    
    401500   2687.8735     -10830.947      4429.6435     -137162.13    
    401600   2538.6377      3139.7692      4367.9029     -137166.52    
    401700   2489.675       2276.7277      4340.4144     -137168.98    
    401800   2410.5972      12937.098      4361.3913     -137164.45    
    401900   2570.729      -1287.3772      4422.37       -137164.02    
    402000   2501.6057     -2735.9657      4451.7786     -137161.94    
    402100   2509.2562     -11700.363      4446.2407     -137165.85    
    402200   2476.871      -14499.377      4396.063      -137168.97    
    402300   2549.8165      14994.127      4327.2855     -137169.34    
    402400   2484.2167      4729.9342      4342.0691     -137166.83    
    402500   2281.2854      3714.5074      4380.6537     -137162.03    
    402600   2562.9043     -2104.0353      4394.2769     -137168.21    
    402700   2665.909      -197.17506      4398.6638     -137167.24    
    402800   2549.5117     -5661.7345      4416.5901     -137159.72    
    402900   2665.6227      3340.9728      4435.1458     -137158.62    
    403000   2604.9        -14505.034      4494.8317     -137158.88    
    403100   2158.0631     -6208.4072      4509.0432     -137154.45    
    403200   2655.5475     -9122.4839      4447.2257     -137167.61    
    403300   2603.2438      820.44511      4350.3052     -137162.93    
    403400   2666.2728      10055.64       4283.3582     -137164.65    
    403500   2421.6851      9351.5702      4292.4073     -137167.19    
    403600   2395.8009     -3717.9179      4359.5429     -137168.45    
    403700   2341.3006     -4274.2931      4414.6024     -137160.35    
    403800   2542.5466     -6871.4533      4447.4364     -137160.01    
    403900   2509.9492     -2883.1037      4441.8396     -137158.93    
    404000   2370.3215      408.09669      4400.8258     -137159.72    
    404100   2362.5071      3541.8686      4341.003      -137167.32    
    404200   2417.6016     -962.62794      4304.3823     -137168.47    
    404300   2515.4221      652.06466      4299.3475     -137168.65    
    404400   2588.0517      8124.1253      4329.9459     -137169.46    
    404500   2351.9655     -10550.426      4405.7663     -137165.83    
    404600   2329.4698     -267.99934      4434.4098     -137164.87    
    404700   2600.5221      4195.4808      4444.0438     -137164.56    
    404800   2653.3817      2411.685       4458.2455     -137163.27    
    404900   2468.9789     -17781.472      4464.1951     -137164.96    
    405000   2409.6727      1402.7081      4393.6747     -137166.96    
    405100   2514.2607      1215.6436      4301.1846     -137168.13    
    405200   2848.1538      2036.1676      4238.7415     -137172.06    
    405300   2718.7425      21431.036      4253.0462     -137166.38    
    405400   2496.5124     -8793.2356      4375.9478     -137168.29    
    405500   2315.965      -11521.916      4439.9205     -137165.23    
    405600   2449.4349      869.9165       4402.3988     -137166.46    
    405700   2642.739      -3700.88        4366.2973     -137162.65    
    405800   2788.1666      2611.7274      4356.3325     -137164.32    
    405900   2576.7533      3701.9047      4366.1291     -137164.86    
    406000   2449.8202     -5648.1819      4379.4378     -137163.84    
    406100   2523.5173      15.419849      4347.6439     -137164.38    
    406200   2708.8711      10631.114      4322.7477     -137169       
    406300   2348.5583     -11113.966      4365.6169     -137169.05    
    406400   2215.3978      3527.2847      4379.6542     -137163.98    
    406500   2364.8605     -953.39475      4391.2522     -137162.57    
    406600   2667.5026      623.66104      4388.1092     -137167.42    
    406700   2570.6055      681.37523      4383.0877     -137164.38    
    406800   2543.2992     -5893.0772      4375.2044     -137167.14    
    406900   2328.8858     -4548.864       4356.3322     -137169.84    
    407000   2360.3135     -230.13286      4310.9879     -137171.14    
    407100   2532.3778      7413.0049      4264.4818     -137170.26    
    407200   2713.0662      4381.1343      4261.5608     -137166.13    
    407300   2733.7099      2050.143       4310.775      -137162.36    
    407400   2508.0744     -12447.027      4388.5478     -137168.89    
    407500   2315.4725     -6063.2097      4401.6877     -137166.48    
    407600   2572.5473      886.62401      4392.1736     -137168.08    
    407700   2598.5341      10792.949      4381.1876     -137166.51    
    407800   2507.113      -663.25506      4404.0113     -137166.04    
    407900   2265.548      -19013.65       4435.4591     -137164.95    
    408000   2370.4187      6701.4901      4385.895      -137165.23    
    408100   2659.0361      5703.8131      4350.2243     -137164.29    
    408200   2687.5333      4322.8263      4350.754      -137166.51    
    408300   2408.7814      2561.9661      4379.9935     -137164.94    
    408400   2388.0635     -18151.818      4412.4046     -137164.59    
    408500   2412.2358      4961.7918      4368.6449     -137162.12    
    408600   2533.4704      5619.6508      4330.3576     -137163.37    
    408700   2506.2192      9590.5145      4321.8759     -137169.53    
    408800   2226.4034      367.39666      4364.5676     -137170.43    
    408900   2432.6844     -5421.1894      4391.7858     -137169.32    
    409000   2591.2252      5059.1209      4378.8172     -137167.84    
    409100   2635.1201      2491.8258      4377.7817     -137166.75    
    409200   2586.8495     -7608.0863      4370.8977     -137165.48    
    409300   2333.9717     -834.80016      4316.9593     -137166.11    
    409400   2309.3635      13652.92       4251.5179     -137169.17    
    409500   2427.5699      8948.0998      4248.6863     -137167.97    
    409600   2599.0028      1777.9992      4309.1238     -137163.46    
    409700   2474.5468      626.68508      4398.9735     -137160.62    
    409800   2750.3273     -16652.477      4497.0141     -137167.85    
    409900   2416.3023     -7551.4437      4529.0413     -137162.47    
    410000   2305.1711     -4023.0518      4507.4048     -137166.42    
    410100   2282.9136     -6854.6007      4454.9262     -137165.16    
    410200   2580.7978      8671.0539      4362.5755     -137163.08    
    410300   2697.4615      12400.64       4287.5309     -137165.88    
    410400   2615.1254      11718.029      4273.9852     -137171.01    
    410500   2408.3296     -8403.7341      4347.9619     -137170.45    
    410600   2425.2226     -8788.0584      4413.3472     -137168.12    
    410700   2702.3403      740.28001      4440.4255     -137169.72    
    410800   2511.0246      78.609209      4493.1008     -137163.75    
    410900   2481.358      -5957.5819      4543.2299     -137160.74    
    411000   2735.4634     -10472.719      4524.2175     -137165.21    
    411100   2544.4507     -5296.0521      4452.6283     -137160.18    
    411200   2373.1721      15818.153      4343.8173     -137163.58    
    411300   2288.2431      13129.36       4291.7306     -137166.52    
    411400   2366.3659      14.570719      4327.5999     -137167.18    
    411500   2581.1009     -7253.003       4404.8941     -137165.5     
    411600   2471.3102      2453.0452      4476.5923     -137159.28    
    411700   2514.1027     -13705.342      4529.1466     -137159.8     
    411800   2506.6748     -988.19553      4507.8164     -137160.8     
    411900   2567.5482     -7782.1186      4448.2272     -137163.57    
    412000   2458.6425      898.76423      4365.4587     -137165.31    
    412100   2284.9146     -2552.4313      4281.4283     -137169.56    
    412200   2488.4479      9877.1736      4198.9508     -137173.08    
    412300   2717.2449      13896.582      4208.6595     -137172.85    
    412400   2445.5154      959.09012      4339.5094     -137163.75    
    412500   2400.4393     -8241.0509      4472.6867     -137160.07    
    412600   2607.2618     -13104.235      4513.1197     -137164.21    
    412700   2651.4647     -641.70009      4478.8922     -137167.88    
    412800   2548.5575     -13110.251      4448.3266     -137168.12    
    412900   2515.9123     -2826.2363      4381.1124     -137167.77    
    413000   2560.8683      12921.449      4323.3269     -137168.84    
    413100   2603.1048     -4556.0015      4343.46       -137169.87    
    413200   2565.0287      353.26221      4342.4344     -137170.46    
    413300   2428.3268     -4921.7288      4340.9049     -137168.43    
    413400   2415.4475      6065.5199      4352.9777     -137163.4     
    413500   2514.2618      2008.4084      4380.7532     -137159.02    
    413600   2529.0535      6111.0669      4411.1556     -137160.35    
    413700   2413.5088     -4675.874       4460.9082     -137162.37    
    413800   1975.8873      859.88538      4493.5347     -137158       
    413900   2254.9787     -3176.9895      4517.7092     -137168.21    
    414000   2449.45       -6643.1863      4506.6052     -137163.44    
    414100   2524.1051      13696.639      4437.555      -137161.78    
    414200   2426.5663      1735.8764      4394.4115     -137163.22    
    414300   2492.5685     -5475.8643      4353.0138     -137170.79    
    414400   2445.0415      4612.8217      4302.3068     -137171.77    
    414500   2565.1288      10269.687      4277.9704     -137170.74    
    414600   2591.8647      15302.768      4307.036      -137161.13    
    414700   2653.0845     -1518.341       4384.5233     -137165.38    
    414800   2371.8056     -180.13358      4440.6103     -137164.08    
    414900   2338.3074     -8805.91        4463.3733     -137164.07    
    415000   2509.4328     -4112.0326      4426.7045     -137165.05    
    415100   2627.5912      1261.7456      4372.5608     -137166.13    
    415200   2532.6539     -2237.1962      4327.922      -137166.01    
    415300   2346.5479      5734.5892      4296.868      -137163.18    
    415400   2672.5555      3928.1589      4320.7136     -137168.62    
    415500   2634.2966      3322.8561      4393.7066     -137160.81    
    415600   2511.9138     -6138.036       4503.1554     -137155.3     
    415700   2472.7084     -20940.061      4582.542      -137160.49    
    415800   2156.3998     -2524.1363      4536.746      -137156.39    
    415900   2532.9201      12727.838      4433.7784     -137162.55    
    416000   2647.045       2458.9177      4374.9544     -137166.21    
    416100   2585.5182     -4297.6244      4341.5452     -137168.83    
    416200   2493.8639      7795.1888      4307.5346     -137168.43    
    416300   2321.6207      5867.9135      4294.0247     -137166.99    
    416400   2323.4296      7598.8291      4307.5452     -137165.95    
    416500   2750.6477     -2137.3426      4337.5173     -137167.16    
    416600   2641.5173      8538.2902      4354.5213     -137164.74    
    416700   2577.3199      3083.6068      4383.1873     -137168.24    
    416800   2478.5966     -5528.6832      4414.8439     -137166.91    
    416900   2405.6585      914.46586      4415.7949     -137162.23    
    417000   2491.6813     -1396.7994      4383.6184     -137161.8     
    417100   2595.4964      260.92693      4349.4329     -137165.19    
    417200   2645.7355      7122.5406      4331.9549     -137169.28    
    417300   2362.8138      4188.1908      4353.3902     -137166.39    
    417400   2296.4029     -1889.6911      4387.7302     -137165.31    
    417500   2682.8683     -9113.3484      4404.9207     -137167.66    
    417600   2551.1086     -386.21186      4381.4896     -137162.28    
    417700   2678.0079      147.39192      4352.8514     -137168.19    
    417800   2446.8127      3350.3698      4344.8701     -137167.77    
    417900   2376.7672     -2517.4971      4361.9277     -137167.18    
    418000   2552.4355      5941.9321      4372.2073     -137166.17    
    418100   2605.059       117.24449      4405.9336     -137165.8     
    418200   2644.0081     -13108.709      4437.0729     -137168.73    
    418300   2458.0098     -1538.9487      4423.1185     -137165.36    
    418400   2617.4023     -3000.9585      4394.2585     -137166.18    
    418500   2758.201       9285.2593      4370.8972     -137164.98    
    418600   2454.5596     -2171.6348      4405.0857     -137160.17    
    418700   2457.6306     -4299.7987      4435.6183     -137167.67    
    418800   2419.2778     -16172.863      4450.8167     -137166.85    
    418900   2408.3284      3291.6224      4395.3381     -137157.51    
    419000   2549.245       23500.977      4327.6533     -137160.09    
    419100   2518.7471      5352.282       4363.5633     -137163.47    
    419200   2271.7773     -8227.487       4441.3462     -137160.82    
    419300   2518.0589     -3127.5302      4474.2473     -137164.6     
    419400   2664.2743     -954.51339      4463.7565     -137159.92    
    419500   2525.9364      10799.774      4452.7242     -137155.78    
    419600   2404.4196     -8948.5177      4453.6045     -137162.32    
    419700   2427.8122      7159.5177      4405.4956     -137166.29    
    419800   2359.5397      7519.0806      4388.5242     -137161.01    
    419900   2550.712       7554.3121      4411.7693     -137160.66    
    420000   2707.8701     -10410.345      4487.8558     -137163.1     
    420100   2676.7223     -17957.373      4526.0089     -137166.62    
    420200   2306.4128     -4527.2359      4473.9979     -137165.93    
    420300   2424.2054      2855.1435      4350.8038     -137169.45    
    420400   2609.5964      10292.775      4223.1833     -137170.76    
    420500   2552.6449      14743.448      4173.0152     -137169.4     
    420600   2235.5067      4569.3752      4206.1609     -137170.47    
    420700   2315.8666     -1605.9422      4296.5943     -137170.07    
    420800   2424.1011     -5263.471       4395.9669     -137165.19    
    420900   2509.9979     -965.89134      4463.0059     -137163.59    
    421000   2521.3164     -6692.9861      4495.3602     -137161.28    
    421100   2523.2649      447.27015      4468.9333     -137160.27    
    421200   2741.8351      5299.0037      4453.4756     -137160.09    
    421300   2585.3054     -1965.0962      4476.6103     -137158.03    
    421400   2361.1444      408.23435      4465.8151     -137160.83    
    421500   2414.9286      2415.4641      4421.6244     -137163.3     
    421600   2413.813       321.13365      4384.0573     -137160.5     
    421700   2698.9116      7323.4876      4366.6696     -137161.36    
    421800   2964.6036     -8369.7844      4393.4809     -137163.92    
    421900   2468.901       5234.0441      4405.467      -137161.93    
    422000   2472.2108     -3618.0936      4420.393      -137164.07    
    422100   2477.9698      6664.1606      4415.0799     -137163.38    
    422200   2372.8547     -2936.3234      4415.6591     -137161.61    
    422300   2474.1115      1270.3903      4361.52       -137165.55    
    422400   2329.07        12975.084      4297.537      -137162.29    
    422500   2591.648      -3493.8643      4300.0358     -137168.54    
    422600   2409.1368     -677.08759      4324.6158     -137166.4     
    422700   2430.5925     -1981.6414      4364.6701     -137165.39    
    422800   2625.0257     -11799.465      4407.0935     -137161.53    
    422900   2635.982       12220.092      4416.2777     -137160.81    
    423000   2449.1387     -17316.037      4482.5993     -137160.72    
    423100   2367.0181     -466.57178      4490.8486     -137159.59    
    423200   2537.1215      602.11747      4483.502      -137161.91    
    423300   2678.1716     -7796.2069      4454.2713     -137159.78    
    423400   2759.4547     -1562.7306      4389.2399     -137159.79    
    423500   2517.5488     -2028.8756      4325.185      -137162.34    
    423600   2504.1821      3272.6229      4279.2698     -137167.28    
    423700   2450.3249      5530.8939      4251.805      -137171.79    
    423800   2426.067      -4934.3171      4255.0692     -137172.64    
    423900   2487.3288      5855.3278      4272.1448     -137168.27    
    424000   2609.6225     -6282.7707      4322.3877     -137164.93    
    424100   2612.2711      4770.8996      4369.2808     -137166.12    
    424200   2536.9414     -13196.241      4447.4833     -137167.8     
    424300   2436.5101     -15165.091      4479.2832     -137164.7     
    424400   2699.9927      2763.3545      4432.3158     -137164.54    
    424500   2681.8786      2836.2         4423.6769     -137161.96    
    424600   2433.2536     -7587.2302      4436.4876     -137165.71    
    424700   2297.7234      2359.665       4396.7897     -137166.6     
    424800   2418.0122      5241.7268      4334.2842     -137167.97    
    424900   2653.0825      3746.2349      4292.6968     -137169.01    
    425000   2494.9125      3289.8859      4294.6901     -137166.76    
    425100   2196.1005      1195.716       4326.3701     -137167.18    
    425200   2265.9702     -4166.6473      4367.633      -137168.3     
    425300   2535.5321      2728.4472      4390.3546     -137167.53    
    425400   2570.8205     -857.01516      4428.487      -137165.69    
    425500   2415.4661     -5104.054       4469.5579     -137161.32    
    425600   2547.3959     -4843.2689      4485.836      -137163.52    
    425700   2421.7084     -3941.8957      4465.6481     -137159.44    
    425800   2739.4763      304.70655      4416.3206     -137164.58    
    425900   2495.1615      4315.0439      4381.1277     -137163.28    
    426000   2337.5669      1534.2717      4375.3372     -137165.83    
    426100   2489.0816     -5030.1523      4378.0355     -137168.06    
    426200   2586.6548     -4570.8667      4359.785      -137165.53    
    426300   2590.7406      1405.8422      4333.7648     -137167.27    
    426400   2601.2624     -1667.5184      4332.3111     -137168.82    
    426500   2461.2633      6020.937       4321.4921     -137166.89    
    426600   2446.7093     -3373.7601      4325.4423     -137168.04    
    426700   2296.1962      6268.815       4313.0167     -137168.48    
    426800   2202.2137      9900.9507      4298.084      -137169.58    
    426900   2531.8464      9646.9186      4317.7498     -137171.13    
    427000   2486.2112     -3667.6444      4407.1409     -137164.79    
    427100   2407.4328     -6659.2826      4498.2218     -137159.89    
    427200   2498.5153     -1677.404       4523.5558     -137159.5     
    427300   2633.5979      7330.1514      4488.8087     -137158.57    
    427400   2753.8028     -4813.0972      4449.2867     -137156.3     
    427500   2577.4629      10430.87       4389.6826     -137162.8     
    427600   2508.6859     -2465.974       4378.3631     -137166.08    
    427700   2527.9342      7321.4415      4372.6464     -137168.6     
    427800   2574.239       26.277404      4385.8132     -137172.16    
    427900   2205.4396     -1912.7732      4405.7357     -137165.62    
    428000   2498.7651     -9691.5223      4400.2927     -137166.67    
    428100   2545.8915      12714.249      4340.5498     -137161.81    
    428200   2385.1078     -3647.2376      4337.1894     -137159.42    
    428300   2439.6459      9662.952       4348.7428     -137165.3     
    428400   2253.2373     -1043.8006      4385.734      -137166.73    
    428500   2327.9505     -8289.1655      4360.4074     -137171.89    
    428600   2551.5782      5935.3193      4291.7884     -137169       
    428700   2482.8006      9446.8358      4258.4924     -137163.35    
    428800   2499.4091      301.84618      4258.0268     -137167.55    
    428900   2387.3082      8262.5993      4261.9401     -137169.17    
    429000   2332.018       3905.6997      4309.8139     -137165.82    
    429100   2498.3883      309.5549       4416.7521     -137159.42    
    429200   2566.2256     -14500.709      4532.2735     -137159.47    
    429300   2456.4527     -9871.3106      4557.1302     -137157.42    
    429400   2529.8327      46.011129      4507.6184     -137156.07    
    429500   2824.3696      6115.4142      4461.2489     -137156.4     
    429600   2629.3146      7156.1001      4425.592      -137159.48    
    429700   2627.6254      1926.0054      4417.5481     -137165.76    
    429800   2256.5123      3724.88        4425.9597     -137159.19    
    429900   2334.3264      35.343495      4416.0995     -137157.18    
    430000   2656.7936      13320.642      4380.938      -137161.53    
    430100   2397.0593      4830.8191      4378.1389     -137159.88    
    430200   2345.1106      2718.0411      4375.1107     -137166.36    
    430300   2323.5455     -12741.238      4357.8669     -137166.8     
    430400   2874.8028      13421.843      4297.8216     -137168.79    
    430500   2551.7648      3069.5829      4330.1144     -137165.98    
    430600   2396.0952      2036.274       4395.1081     -137167.41    
    430700   2531.1395     -3776.1581      4421.5109     -137171.15    
    430800   2437.7564      5239.5435      4398.6988     -137164.15    
    430900   2757.0475     -611.65307      4368.8204     -137165.05    
    431000   2595.4086     -2281.1047      4348.4182     -137162.47    
    431100   2597.3684      6892.8722      4322.9651     -137168.1     
    431200   2582.208      -4281.5626      4324.7975     -137170.28    
    431300   2571.4219      180.15593      4290.3829     -137171.77    
    431400   2595.4435      2604.9627      4266.8709     -137172.84    
    431500   2259.0782      6960.4159      4295.1205     -137167.7     
    431600   2247.4743     -6039.3158      4345.0147     -137168.2     
    431700   2633.5618      6226.0997      4378.8063     -137169.91    
    431800   2529.4389     -11556.238      4442.7647     -137164.84    
    431900   2495.9264     -9111.6928      4451.2845     -137164.62    
    432000   2378.898      -459.48913      4406.3574     -137162.07    
    432100   2582.4867     -5840.4174      4344.3811     -137163.5     
    432200   2704.1827      3507.1413      4279.964      -137166.64    
    432300   2410.8076      764.5101       4273.6915     -137168.57    
    432400   2617.6168     -148.34371      4305.4177     -137177.25    
    432500   2323.8346     -11233.238      4364.1293     -137169.35    
    432600   2458.3287      6070.7895      4386.7896     -137164.7     
    432700   2653.0559     -9536.4052      4404.3713     -137166.72    
    432800   2513.9009      4349.3061      4385.1388     -137165.82    
    432900   2608.9502     -7263.7523      4386.8842     -137171.83    
    433000   2325.5899      4722.7155      4391.8936     -137165.52    
    433100   2486.6868     -6869.4397      4380.8429     -137167.86    
    433200   2477.6305      8469.9469      4362.0206     -137159.38    
    433300   2657.6231      5932.8702      4399.0382     -137162.47    
    433400   2300.5199      1084.2733      4492.1922     -137157.18    
    433500   2346.5406     -8781.6988      4548.7174     -137159.3     
    433600   2780.4825     -2055.6485      4506.2177     -137162.54    
    433700   2696.1378      347.55214      4424.9295     -137160.06    
    433800   2515.1904      4249.2295      4339.8283     -137162.9     
    433900   2538.7995      11950.659      4270.4361     -137167.34    
    434000   2366.2455      11165.471      4268.2806     -137166.03    
    434100   2437.2272      7521.7382      4332.6671     -137168.13    
    434200   2622.2411     -7946.8899      4431.8172     -137168.94    
    434300   2601.278      -4687.1846      4478.7561     -137158.85    
    434400   2687.8382      7905.1418      4500.3785     -137159.6     
    434500   2386.9039     -11073.259      4539.0658     -137159.22    
    434600   2398.3644     -9998.1606      4511.1924     -137160.21    
    434700   2592.8076     -3947.6446      4423.597      -137163.06    
    434800   2594.068       11535.596      4343.3021     -137164.33    
    434900   2318.716       6940.6956      4342.1349     -137167.34    
    435000   2412.3537     -4293.5556      4385.525      -137171.66    
    435100   2374.4589     -7440.3143      4415.0152     -137166.09    
    435200   2397.8582      5799.6564      4393.7722     -137161.02    
    435300   2552.0188      8174.5291      4364.1015     -137163.28    
    435400   2605.2576     -3742.6526      4354.5793     -137165.87    
    435500   2395.2136      5523.1753      4335.4131     -137165.89    
    435600   2247.0738     -4459.3454      4340.7046     -137170.41    
    435700   2303.7267     -549.3158       4341.7885     -137169.63    
    435800   2565.528       3154.4556      4344.6023     -137171.39    
    435900   2489.4694     -499.62992      4354.7057     -137167.2     
    436000   2635.8696     -8265.5344      4343.2162     -137170.27    
    436100   2510.76        3316.3826      4298.7154     -137166.66    
    436200   2549.1604      9567.4129      4285.0471     -137167.02    
    436300   2530.2301     -8763.208       4329.6183     -137170.14    
    436400   2541.5272     -15332.414      4350.2304     -137173.47    
    436500   2400.2671     -7295.4703      4311.3392     -137171.98    
    436600   2480.2692      10907.84       4247.0017     -137169.16    
    436700   2698.0985      20072.202      4227.525      -137168.83    
    436800   2592.292       670.9089       4319.0745     -137172.61    
    436900   2353.6367     -9804.0189      4461.1788     -137168.21    
    437000   2264.2485     -12051.223      4553.7614     -137161.15    
    437100   2525.0401     -13700.988      4567.1416     -137162.58    
    437200   2666.6211     -1988.9686      4514.3906     -137164.48    
    437300   2485.3738     -5143.2942      4439.6188     -137162.15    
    437400   2592.8706     -3906.8311      4334.2968     -137168.45    
    437500   2392.9169      1413.3275      4238.5823     -137172.59    
    437600   2321.8622      2657.1378      4193.6376     -137170.77    
    437700   2532.8737      16512.199      4189.6337     -137170.25    
    437800   2545.1752      1697.7283      4283.5768     -137167.7     
    437900   2410.5606      1911.5317      4401.6985     -137163.26    
    438000   2420.4953     -4023.6019      4481.8143     -137164.2     
    438100   2451.1569     -15159.765      4517.7902     -137161.71    
    438200   2771.2452      67.352639      4492.8001     -137159.79    
    438300   2609.8114      9638.2022      4455.8804     -137158.78    
    438400   2561.0482      6683.7934      4447.292      -137165.91    
    438500   2206.4702     -8637.1816      4459.051      -137160.81    
    438600   2460.639      -10470.291      4412.4475     -137163.78    
    438700   2795.4145      4140.3249      4325.3203     -137168.43    
    438800   2615.5199      5614.4268      4293.0668     -137170.87    
    438900   2586.4891     -349.6341       4331.1135     -137173.74    
    439000   2465.4037     -4590.1299      4369.5466     -137168.95    
    439100   2629.0275      4143.7156      4367.192      -137168.59    
    439200   2573.8938      5493.1616      4394.4708     -137162.07    
    439300   2762.8231     -10939.31       4459.2308     -137162.72    
    439400   2629.9776     -10739.08       4499.775      -137159.73    
    439500   2330.4302     -6733.0238      4490.1654     -137160.54    
    439600   2371.2597      2823.8239      4443.5371     -137161.91    
    439700   2467.5653      5195.6845      4394.6799     -137161.84    
    439800   2580.0537      2719.3279      4354.4156     -137162.48    
    439900   2434.4613      5171.4999      4338.9622     -137162.85    
    440000   2465.3958     -8742.373       4359.2709     -137169.4     
    440100   2394.7533     -4299.1077      4351.8796     -137167.06    
    440200   2653.0775      13629.746      4341.7392     -137164.88    
    440300   2518.8252     -1224.0998      4408.4656     -137159.39    
    440400   2558.2619      3007.5414      4452.5099     -137164.95    
    440500   2456.8234     -4594.7761      4490.1315     -137163.04    
    440600   2513.6526     -14834.46       4494.4605     -137163.56    
    440700   2492.1715     -1497.5335      4421.9074     -137165.63    
    440800   2261.4323      3751.6666      4343.2167     -137168.01    
    440900   2297.6035      12895.482      4262.6389     -137169.73    
    441000   2695.6667      6629.6223      4231.6547     -137172.71    
    441100   2502.2734      11164.799      4257.1286     -137165.96    
    441200   2590.7362      3581.2952      4339.6434     -137170       
    441300   2396.3635     -5578.6093      4433.5353     -137165.98    
    441400   2531.4449     -7691.1143      4473.7527     -137166.84    
    441500   2500.0835     -6212.3943      4462.1588     -137163.06    
    441600   2703.768       5730.218       4417.2316     -137162.03    
    441700   2714.6866     -1022.1737      4410.21       -137162.03    
    441800   2480.4333     -5784.321       4427.3368     -137164.03    
    441900   2409.5544      1489.2261      4420.7194     -137163.68    
    442000   2541.4967      6061.609       4405.1163     -137163.36    
    442100   2726.3712      3855.2284      4412.6644     -137161.98    
    442200   2604.1607     -6014.1161      4443.5188     -137158.43    
    442300   2568.5453     -8459.1396      4427.8573     -137167.96    
    442400   2337.7088      818.7615       4358.8549     -137166.45    
    442500   2411.596       6329.5532      4303.8615     -137166.06    
    442600   2552.3697      8298.668       4296.7201     -137164.99    
    442700   2564.1312      2830.7267      4327.3698     -137163.4     
    442800   2398.2401     -1788.6921      4362.1141     -137166.05    
    442900   2276.6619      969.57737      4396.3268     -137166.38    
    443000   2516.6589     -6047.3372      4416.6852     -137166.18    
    443100   2500.0765      10253.527      4423.7286     -137160.4     
    443200   2459.7029     -6248.8139      4471.8064     -137160.83    
    443300   2429.9617     -5665.161       4484.702      -137162.77    
    443400   2459.1931     -6099.9119      4440.5052     -137164.87    
    443500   2518.3492      1353.7019      4377.1505     -137165.58    
    443600   2389.9932      12631.528      4334.4687     -137160.03    
    443700   2616.8478      4725.3309      4348.8051     -137165.66    
    443800   2445.7256     -2379.5214      4388.147      -137168.79    
    443900   2293.0276     -4780.7741      4415.4245     -137165.11    
    444000   2408.2266      8376.521       4408.0862     -137162.48    
    444100   2479.6987     -5119.4009      4411.7497     -137163.13    
    444200   2516.036       7039.9731      4389.8955     -137165.8     
    444300   2376.5842     -2183.3874      4393.5999     -137167.42    
    444400   2278.2892     -8673.9221      4396.0522     -137169.55    
    444500   2320.2535      7789.481       4353.9751     -137162.71    
    444600   2566.7567      8535.0472      4309.3101     -137162.11    
    444700   2620.2245     -674.09908      4322.2917     -137166.74    
    444800   2335.9408     -6777.255       4360.152      -137165.13    
    444900   2473.2295     -194.51384      4362.7264     -137167.34    
    445000   2697.6308     -346.13122      4338.6833     -137168.09    
    445100   2743.2907      4373.1087      4327.714      -137163.39    
    445200   2513.5122      4653.4216      4354.9022     -137158.32    
    445300   2463.3142     -4116.3962      4388.0116     -137166.06    
    445400   2380.67       -7553.5292      4406.6241     -137165.7     
    445500   2570.0918      10521.697      4391.6233     -137166.09    
    445600   2680.0618     -6427.3701      4426.3143     -137164.3     
    445700   2458.3727      1649.6602      4462.3019     -137159.95    
    445800   2263.7342     -11525.78       4466.1527     -137164.51    
    445900   2412.4861      2130.0526      4360.2001     -137171.16    
    446000   2408.6697      16763.195      4256.4037     -137164.95    
    446100   2680.1531      12858.832      4256.1654     -137171.09    
    446200   2305.1731     -2252.7804      4341.3876     -137169.79    
    446300   2165.4815      1827.1704      4442.5971     -137167.09    
    446400   2424.7822     -12790.648      4530.7973     -137168.07    
    446500   2315.82       -7658.527       4532.9036     -137159.83    
    446600   2602.4147     -2648.1806      4462.6461     -137163.3     
    446700   2566.3842      2570.2115      4387.1632     -137162.44    
    446800   2417.1159      2228.9328      4340.4394     -137167.68    
    446900   2435.6708      2530.0975      4310.6071     -137172.42    
    447000   2362.2305      3913.9612      4297.09       -137168.38    
    447100   2350.5671      7260.2305      4283.2191     -137162.11    
    447200   2661.5829      9779.4349      4293.6667     -137167.75    
    447300   2445.6012     -7092.1473      4377.7376     -137163.42    
    447400   2467.0059     -8611.372       4443.9596     -137163.23    
    447500   2508.7162     -2502.6295      4476.1656     -137161.07    
    447600   2676.346      -13477.103      4494.6993     -137161.53    
    447700   2872.3703     -2330.3303      4460.8417     -137156.06    
    447800   2652.7586      3678.6615      4427.7284     -137155.25    
    447900   2583.3786     -5174.9568      4412.9459     -137161.16    
    448000   2596.4057     -553.24558      4377.5141     -137167.46    
    448100   2369.6991      11975.7        4352.4828     -137167.35    
    448200   2436.3902     -11528.717      4343.8437     -137171.6     
    448300   2591.8169      2325.1547      4305.4152     -137172.29    
    448400   2734.8098      16161.46       4318.4874     -137166.39    
    448500   2566.193       2702.6234      4421.9264     -137163.53    
    448600   2343.9001     -10542.924      4538.8706     -137159.67    
    448700   2400.4605     -3776.1056      4582.2518     -137160.1     
    448800   2385.3253     -1753.8584      4562.5373     -137156.78    
    448900   2556.0299      9920.5533      4494.8126     -137160.28    
    449000   2346.0886     -762.80344      4467.6374     -137157.51    
    449100   2625.4361     -10931.983      4412.0882     -137167.01    
    449200   2722.9835      8064.099       4291.9957     -137169.76    
    449300   2658.5747      14871.125      4228.0715     -137171.19    
    449400   2276.1537      7616.974       4261.4118     -137167       
    449500   2439.6808     -3668.281       4350.791      -137169.04    
    449600   2328.7366      155.66329      4442.7636     -137159.53    
    449700   2486.2014     -14443.259      4525.3777     -137161.22    
    449800   2569.4464      3920.3645      4555.327      -137160.24    
    449900   2698.1029     -12831.861      4583.9966     -137164.88    
    450000   2329.4905     -11487.896      4567.2118     -137163.02    
    450100   2356.8817     -5104.9281      4457.3242     -137163.96    
    450200   2525.9914      16005.537      4300.611      -137166.09    
    450300   2580.0164      6094.33        4255.6411     -137168.05    
    450400   2488.3394     -1804.3174      4272.8945     -137171.91    
    450500   2289.277      -2371.2343      4299.8227     -137167.56    
    450600   2276.5195      9987.0121      4322.6038     -137162.27    
    450700   2503.6855      4969.12        4363.5696     -137166.16    
    450800   2571.5743      2230.3254      4434.8454     -137168.47    
    450900   2374.3672     -10699.22       4489.0691     -137165.58    
    451000   2490.4801     -7066.5409      4475.9364     -137164.68    
    451100   2618.5262     -4385.4615      4436.2647     -137158.92    
    451200   2677.1432      4514.7448      4391.654      -137160.95    
    451300   2541.7034      3428.1997      4379.5928     -137166.71    
    451400   2532.1684     -2729.3896      4398.1954     -137169.15    
    451500   2324.3533      4375.2123      4405.3553     -137164.54    
    451600   2509.0174     -2291.2666      4424.9406     -137168.52    
    451700   2515.2184     -10083.682      4417.2993     -137164.03    
    451800   2770.5087      2341.4605      4355.1691     -137163.61    
    451900   2483.1599     -2713.75        4301.6713     -137162.08    
    452000   2509.6905      6027.2017      4241.2623     -137168.32    
    452100   2573.9651      7809.7069      4235.7245     -137172.86    
    452200   2375.9571     -696.30445      4289.8466     -137167.77    
    452300   2656.4979      10952.899      4341.5442     -137168.54    
    452400   2502.5365      11580.225      4444.5945     -137156.79    
    452500   2560.3602     -9792.4802      4591.7682     -137158.73    
    452600   2122.1105     -17975.845      4658.899      -137155.38    
    452700   2207.888      -12492.008      4580.4417     -137160.15    
    452800   2416.4799      6166.7542      4424.6227     -137159.83    
    452900   2500.7668      17396.47       4299.4017     -137161.94    
    453000   2599.5577      10993.649      4270.9162     -137169.52    
    453100   2366.9716      6727.0891      4312.837      -137166.61    
    453200   2468.5916      3506.2437      4374.3921     -137168.13    
    453300   2545.4885     -466.16201      4422.1404     -137168.86    
    453400   2365.6829     -5458.6006      4448.8364     -137161.59    
    453500   2465.3071     -7962.488       4437.695      -137161.91    
    453600   2611.1842      696.41023      4389.9038     -137165.75    
    453700   2481.6421      5170.7023      4350.8912     -137167.62    
    453800   2259.8565     -1134.0799      4344.1899     -137169.23    
    453900   2374.3382      8609.1586      4354.4528     -137168.2     
    454000   2335.295      -711.34392      4389.7428     -137162.02    
    454100   2576.817       100.93913      4397.4841     -137164.84    
    454200   2544.2559      2005.6043      4393.4661     -137163.82    
    454300   2434.256       2089.6246      4389.2041     -137163.4     
    454400   2318.5832     -3983.149       4372.0114     -137165.48    
    454500   2340.9529     -1830.522       4331.5208     -137169.42    
    454600   2442.6347      13326.849      4305.9548     -137168.8     
    454700   2788.2414      715.9277       4344.2979     -137169.81    
    454800   2578.4097     -2318.2301      4429.9957     -137162.75    
    454900   2496.0471     -17145.476      4510.5733     -137162.48    
    455000   2550.6524     -5901.4881      4490.3898     -137161.99    
    455100   2823.6132     -7886.6036      4416.9603     -137161.25    
    455200   2586.0176      9036.0465      4319.6265     -137162.93    
    455300   2527.8463      2806.2694      4270.8234     -137168.12    
    455400   2535.9968     -3690.245       4255.4622     -137171.24    
    455500   2499.132       204.71703      4237.732      -137173.17    
    455600   2359.6142      5615.6567      4256.547      -137171.64    
    455700   2527.5657      276.35911      4318.2505     -137169.23    
    455800   2561.9309      166.73978      4366.3722     -137165.19    
    455900   2406.8878     -4481.1921      4397.3291     -137162.71    
    456000   2442.4707      1045.3065      4383.9677     -137165.97    
    456100   2414.8017     -8696.3482      4339.3856     -137168.55    
    456200   2550.6236     -47.969776      4259.2793     -137171.87    
    456300   2727.4214      14304.116      4217.0441     -137173.98    
    456400   2401.9466      8323.3108      4265.2988     -137168.92    
    456500   2346.9521     -5850.173       4361.7115     -137168.93    
    456600   2583.9455     -4451.1582      4416.9228     -137168.13    
    456700   2422.3463      4861.1926      4448.4407     -137157.53    
    456800   2510.5499     -2732.4738      4479.6246     -137158.76    
    456900   2422.0441      65.55839       4476.8574     -137159.04    
    457000   2242.7374      3658.4988      4435.9371     -137162.22    
    457100   2449.7521     -2688.951       4396.7515     -137168.82    
    457200   2563.9093     -4886.4478      4362.2514     -137164.75    
    457300   2714.0411      4600.1701      4322.8777     -137166.59    
    457400   2580.5591      7930.2338      4321.154      -137167.72    
    457500   2506.608      -12874.987      4363.5125     -137167.89    
    457600   2441.3773     -6138.0186      4371.1347     -137165.38    
    457700   2455.5869     -2685.6163      4348.3163     -137161.74    
    457800   2777.0666      2796.0947      4318.1531     -137165.05    
    457900   2725.6259      7204.9403      4301.3853     -137167.81    
    458000   2461.1797     -4570.3888      4324.8809     -137169.15    
    458100   2452.9527      1525.9922      4330.5546     -137169.05    
    458200   2563.4258     -2716.897       4356.075      -137167.71    
    458300   2499.5829      7157.9336      4384.0044     -137161.48    
    458400   2671.8903     -935.58951      4410.0256     -137162.45    
    458500   2774.4982     -5460.2893      4427.392      -137163.33    
    458600   2556.8927     -1148.1739      4420.5519     -137165.31    
    458700   2298.8363     -2416.7304      4412.7274     -137164.24    
    458800   2554.2873     -1669.6015      4377.549      -137168.63    
    458900   2663.7424     -3581.5426      4345.738      -137166.59    
    459000   2522.4621      3629.0634      4354.3578     -137164.69    
    459100   2160.9187     -1201.173       4397.4794     -137165.38    
    459200   2247.713       1464.3832      4414.3602     -137164.33    
    459300   2578.9984      5437.4924      4399.8136     -137167.79    
    459400   2644.4051     -7721.3557      4374.7349     -137169.25    
    459500   2507.8486      3965.8113      4311.3172     -137170.68    
    459600   2270.2188      3371.5226      4275.8098     -137170.91    
    459700   2506.7958     -1923.7366      4247.7446     -137174.17    
    459800   2586.231       7909.6539      4224.8469     -137165.69    
    459900   2704.4654      3531.7834      4262.5274     -137170.66    
    460000   2333.45        288.25226      4327.5565     -137168.14    
    460100   2383.836      -13363.787      4383.482      -137169.35    
    460200   2588.8174     -4536.013       4357.2682     -137168.34    
    460300   2629.2616      13133.325      4307.6752     -137165.95    
    460400   2516.6856     -1393.6174      4311.8075     -137164.75    
    460500   2463.8878     -1858.511       4322.6939     -137166.03    
    460600   2529.1493     -4390.0013      4313.9503     -137169.61    
    460700   2271.7364      13368.99       4299.0262     -137163.86    
    460800   2342.6202      1619.883       4362.6703     -137163.72    
    460900   2669.5678     -9907.2263      4443.1826     -137165.58    
    461000   2765.4992     -5108.4789      4455.5958     -137165.76    
    461100   2503.6771      1225.6072      4432.8873     -137162.93    
    461200   2408.7245     -10237.662      4408.4522     -137168.75    
    461300   2263.5978      14301.931      4337.3785     -137164.57    
    461400   2572.0494     -1113.0909      4306.8879     -137169.99    
    461500   2431.8407      5097.6156      4316.6625     -137164.32    
    461600   2497.0701      3438.4921      4368.3412     -137164.39    
    461700   2411.2694     -4507.7314      4429.7436     -137163.07    
    461800   2449.5261     -3984.6865      4458.7944     -137163.3     
    461900   2518.9241     -7707.166       4438.0619     -137162.7     
    462000   2461.7667      15873.528      4339.8629     -137162.54    
    462100   2441.6271      409.74702      4280.204      -137171.95    
    462200   2365.1747      3795.1412      4265.3235     -137172.56    
    462300   2492.002       5075.0546      4296.4153     -137171.17    
    462400   2530.8213     -5792.6968      4371.5858     -137167.46    
    462500   2646.5869     -8076.3285      4419.2184     -137168.09    
    462600   2521.0525     -951.00286      4421.6785     -137167.2     
    462700   2263.9223     -7727.7108      4402.2814     -137167.17    
    462800   2140.2149      3781.2428      4326.2624     -137171.59    
    462900   2352.1348      19430.633      4249.4238     -137171.14    
    463000   2622.9517      405.10581      4257.003      -137175.08    
    463100   2408.7798     -16081.568      4294.9489     -137167.92    
    463200   2542.7563      5437.7127      4296.6299     -137167.27    
    463300   2724.8986      439.17263      4310.5981     -137165.9     
    463400   2697.7475     -890.68947      4338.8211     -137166.49    
    463500   2326.2829     -4228.1867      4376.2698     -137167.29    
    463600   2396.5111      2957.0192      4372.524      -137167.9     
    463700   2498.5335      8815.6331      4373.3686     -137165.18    
    463800   2483.0936     -9050.5981      4396.3491     -137160.99    
    463900   2609.7903      3973.1425      4378.3947     -137161.4     
    464000   2522.3079      1935.5661      4358.3888     -137164.55    
    464100   2293.5535     -2126.4579      4363.9779     -137166.33    
    464200   2398.4707     -6379.1705      4364.7055     -137166.39    
    464300   2585.7303      8232.1715      4326.1818     -137165.78    
    464400   2662.4559     -3095.8713      4301.958      -137165.08    
    464500   2645.6149      1657.9634      4275.8268     -137173.92    
    464600   2322.9442      1028.298       4281.4828     -137169.93    
    464700   2508.1261     -376.11476      4292.5858     -137170.2     
    464800   2551.4852     -2737.5049      4294.6289     -137166.73    
    464900   2505.8771      10850.165      4297.3689     -137168.95    
    465000   2150.6206     -2442.8033      4336.285      -137167.03    
    465100   2460.4114     -5597.1172      4337.2788     -137171.96    
    465200   2570.9768      6675.2718      4315.5276     -137170.53    
    465300   2563.9794     -943.05926      4353.4668     -137169       
    465400   2499.7412      9340.4856      4409.5477     -137166.98    
    465500   2535.3465     -3909.9238      4483.8673     -137163.04    
    465600   2714.3409     -1161.9188      4527.1968     -137161.22    
    465700   2473.716      -6325.0673      4547.7841     -137156.91    
    465800   2318.2677      3640.9626      4518.3866     -137156.05    
    465900   2641.1605     -5154.4975      4467.1234     -137168.61    
    466000   2498.1892      714.49982      4402.2649     -137171.13    
    466100   2393.1361      49.489938      4333.7004     -137170.36    
    466200   2618.0963      3711.5529      4256.2388     -137169.86    
    466300   2850.4952      12251.208      4233.936      -137169.31    
    466400   2484.9425      5337.122       4322.037      -137164.09    
    466500   2435.3635     -9008.6147      4455.2027     -137162.98    
    466600   2475.4246      4298.6113      4534.1363     -137159.7     
    466700   2564.6546      1833.4889      4607.8222     -137157.03    
    466800   2865.3364     -6270.0331      4644.8318     -137155.99    
    466900   2781.0188     -13926.093      4620.3709     -137154.54    
    467000   2601.238       702.39139      4496.8521     -137161.83    
    467100   2639.806       9099.6985      4331.3748     -137169.1     
    467200   2360.6346      14966.833      4242.3511     -137167.99    
    467300   2344.3836      3234.4875      4237.3749     -137170.49    
    467400   2456.6513      10055.436      4256.859      -137169.69    
    467500   2735.5385      4104.3017      4325.843      -137169.67    
    467600   2406.5377      9694.2267      4409.4281     -137161.4     
    467700   2446.4434     -7202.493       4500.7095     -137162.73    
    467800   2421.5631     -6877.7207      4526.7707     -137160.23    
    467900   2636.154      -4931.7806      4484.2277     -137161.54    
    468000   2739.5047      16570.18       4427.1249     -137159.98    
    468100   2520.688      -2498.5565      4433.2743     -137162.12    
    468200   2335.0777     -1062.5419      4428.7424     -137162.63    
    468300   2450.8386     -5928.8671      4419.0847     -137163.77    
    468400   2652.4313      2753.6456      4371.7192     -137165.04    
    468500   2584.488       14974.335      4331.3552     -137162.29    
    468600   2419.9744     -10716.022      4379.0764     -137166.97    
    468700   2234.3441     -11747.467      4394.5492     -137164.07    
    468800   2491.2955      4031.0156      4318.9896     -137165.22    
    468900   2582.674       11383.758      4248.4567     -137164.55    
    469000   2542.309       15607.519      4230.5582     -137166.28    
    469100   2449.5369      4873.7755      4289.5371     -137167.54    
    469200   2347.2702     -2858.2481      4370.4463     -137164.24    
    469300   2588.9078     -7319.2139      4415.1751     -137165.8     
    469400   2506.6788      6405.047       4432.1032     -137158.29    
    469500   2745.9494     -303.33291      4471.8778     -137163.65    
    469600   2343.9138     -11487.728      4498.6591     -137164.01    
    469700   2516.4399     -8359.9697      4441.3798     -137168.89    
    469800   2451.4724      5003.0726      4340.9606     -137162.89    
    469900   2631.6446      10022.545      4263.9702     -137164.97    
    470000   2452.2336      17725.41       4257.0515     -137165.51    
    470100   2266.4768     -3035.0902      4333.4572     -137167.57    
    470200   2398.9045     -9479.0813      4386.0461     -137168.79    
    470300   2514.6263      181.96781      4389.832      -137166.33    
    470400   2534.6503      7831.5095      4391.0705     -137166.64    
    470500   2517.2287     -12505.632      4407.1585     -137166.48    
    470600   2451.627      -6516.5933      4367.8088     -137164.43    
    470700   2529.7257      3875.6356      4309.2695     -137165.69    
    470800   2690.3568      10350.4        4308.6776     -137167.78    
    470900   2434.1198     -3948.4291      4385.4717     -137165.43    
    471000   2386.0115     -11893.622      4448.2338     -137167       
    471100   2481.8335      6013.0696      4429.9834     -137162.49    
    471200   2621.7529     -7588.1788      4407.1427     -137160.3     
    471300   2518.8616     -996.96983      4349.8563     -137162.12    
    471400   2574.4534      14582.051      4291.6893     -137170.47    
    471500   2524.0427     -3271.2336      4310.213      -137171.35    
    471600   2528.8494      5835.2548      4338.2041     -137168.72    
    471700   2745.677      -10199.96       4382.6713     -137168.56    
    471800   2612.637       13137.092      4415.125      -137159.46    
    471900   2676.3302     -3785.078       4495.3081     -137158.14    
    472000   2585.7216     -5394.4055      4542.4256     -137161.71    
    472100   2454.378      -4962.8651      4544.7694     -137163.84    
    472200   2353.1287     -8278.6224      4481.9494     -137162.5     
    472300   2422.3808      3766.8522      4354.2385     -137165.98    
    472400   2496.7485      8522.8782      4269.6814     -137167.76    
    472500   2522.7925      10099.434      4242.067      -137167.9     
    472600   2653.7785     -5805.8697      4271.02       -137173.74    
    472700   2320.8929      7779.1839      4312.3711     -137165.65    
    472800   2457.9803      2029.0333      4371.8327     -137163.86    
    472900   2709.6688     -9611.673       4447.2419     -137162.98    
    473000   2690.5513     -13894.798      4477.8471     -137163.26    
    473100   2516.2817     -3922.7187      4449.3531     -137162.11    
    473200   2424.684       2368.6879      4411.8552     -137162.02    
    473300   2387.0914     -4660.4543      4379.0844     -137167.96    
    473400   2403.3907     -786.53593      4348.6157     -137168.01    
    473500   2502.163       5626.9945      4311.9986     -137162.82    
    473600   2746.3548      484.95445      4312.4777     -137166.93    
    473700   2560.452       2414.9875      4339.6321     -137168.22    
    473800   2450.7233     -8022.5284      4403.3618     -137166.79    
    473900   2464.1815     -13613.546      4458.5169     -137166.27    
    474000   2534.184      -8645.9821      4457.8098     -137162.56    
    474100   2620.1464      11800.182      4419.6919     -137157.51    
    474200   2555.5912      6116.4833      4420.3634     -137159.17    
    474300   2399.5028      4257.9772      4444.0518     -137158.78    
    474400   2385.1222     -8067.9308      4469.148      -137158.79    
    474500   2463.4568      2016.4099      4431.4855     -137161.86    
    474600   2487.7689      853.78195      4382.2614     -137162.61    
    474700   2449.7419      3047.3249      4322.5883     -137162.31    
    474800   2520.8458      17785.488      4268.1294     -137168.16    
    474900   2329.667       6392.0246      4287.8583     -137170.24    
    475000   2400.0028     -8748.3111      4350.0619     -137169.63    
    475100   2477.603       3939.5522      4373.9259     -137164.39    
    475200   2553.4619     -3716.9248      4402.723      -137164.6     
    475300   2423.7928     -1421.3724      4413.6523     -137162.17    
    475400   2595.9547      12.578305      4399.412      -137167.73    
    475500   2355.0104     -95.175086      4382.1132     -137164.31    
    475600   2482.9503     -5089.9243      4354.3326     -137169.29    
    475700   2570.881       6095.3446      4326.0325     -137167.71    
    475800   2525.8169      11565.556      4338.2574     -137161.92    
    475900   2573.5195     -4718.362       4397.5915     -137166.6     
    476000   2372.96       -12156.563      4432.0641     -137169.49    
    476100   2457.3419     -3361.6168      4378.771      -137170.05    
    476200   2595.5168      8974.3246      4283.1835     -137169.89    
    476300   2617.6687      11870.665      4239.2689     -137171.27    
    476400   2371.9008      4711.2681      4274.6236     -137168.33    
    476500   2228.5513     -4876.5728      4343.8299     -137166       
    476600   2635.0475     -8500.8975      4410.2203     -137164.82    
    476700   2577.0644     -9808.4922      4447.9519     -137162.57    
    476800   2376.436      -8777.1927      4434.0515     -137163.43    
    476900   2480.0287      3650.9566      4349.4492     -137169.1     
    477000   2488.9237      6107.3953      4275.6755     -137168.54    
    477100   2419.6221      8849.1768      4246.9443     -137164.78    
    477200   2481.3142      9894.099       4263.2224     -137167.04    
    477300   2591.228      -3190.9371      4327.2579     -137172.32    
    477400   2368.5998     -10522.03       4401.9601     -137167.71    
    477500   2518.9527     -937.13802      4436.7225     -137169.86    
    477600   2613.5001     -10212.182      4443.3747     -137164.83    
    477700   2574.8829      6732.5775      4388.9307     -137159.3     
    477800   2622.7666      3811.69        4359.3469     -137164.47    
    477900   2433.5108      5533.3428      4362.0085     -137165.52    
    478000   2400.5565     -9950.3272      4368.9309     -137163.46    
    478100   2458.169       7495.6352      4332.8584     -137160.58    
    478200   2643.2559      2579.8094      4340.6237     -137163.56    
    478300   2639.4792     -12553.257      4364.0849     -137168.92    
    478400   2311.7833      2314.1178      4325.5358     -137168.91    
    478500   2519.9161      15820.98       4284.3852     -137172.38    
    478600   2481.4375      11591.405      4318.7864     -137169.18    
    478700   2490.157      -7670.9961      4399.9703     -137167.45    
    478800   2734.7877     -5027.3036      4458.9821     -137163.71    
    478900   2626.2849     -4608.5282      4485.2107     -137160.15    
    479000   2686.8358     -5140.8813      4435.0005     -137167.39    
    479100   2507.0357      469.74785      4358.2516     -137165.1     
    479200   2621.6625      7265.3439      4294.5989     -137167.74    
    479300   2546.0344      597.04458      4272.1429     -137168.29    
    479400   2290.1566      5967.3181      4289.3114     -137163.54    
    479500   2705.1186     -9742.729       4321.1479     -137165.38    
    479600   2825.7879      6105.848       4345.9197     -137163.9     
    479700   2516.2018     -3201.0659      4405.0475     -137164.59    
    479800   2513.5437     -4741.1605      4433.3297     -137168.59    
    479900   2432.7597      24.129749      4424.1954     -137166.89    
    480000   2559.3813      2985.7449      4409.5731     -137164.61    
    480100   2513.0837      18033.821      4424.6004     -137155.89    
    480200   2496.6151     -10308.401      4498.5267     -137156.22    
    480300   2555.0108     -12954.528      4524.556      -137158.43    
    480400   2624.229      -2929.275       4463.2616     -137162.7     
    480500   2182.7727     -3520.5829      4371.3832     -137162.53    
    480600   2577.907       5178.4542      4265.7927     -137174.69    
    480700   2476.0429      11576.765      4217.6892     -137169.67    
    480800   2558.147       16968.358      4237.5477     -137167.5     
    480900   2708.8285     -5643.1058      4346.4156     -137165.21    
    481000   2597.8093     -3432.529       4483.2366     -137159.07    
    481100   2620.8845     -10154.48       4598.576      -137159.29    
    481200   2347.512      -11620.24       4616.4439     -137158.34    
    481300   2368.8793     -9425.8796      4531.7435     -137160.22    
    481400   2611.4152      2080.0878      4385.2569     -137161.6     
    481500   2782.5535      8897.9082      4265.0625     -137165.11    
    481600   2443.2195      4214.2948      4220.0842     -137168.35    
    481700   2575.23        7656.5655      4204.2349     -137174.71    
    481800   2280.1056      13368.084      4233.7787     -137168.14    
    481900   2684.6147      1564.8956      4326.3066     -137173.41    
    482000   2531.7336     -5664.3141      4431.4646     -137162.45    
    482100   2458.2532     -6936.5016      4508.387      -137159.67    
    482200   2439.4175     -9715.0696      4523.3604     -137156.58    
    482300   2595.2805      5263.0285      4465.8278     -137159.7     
    482400   2344.5002     -5668.8778      4419.9279     -137163.95    
    482500   2289.9041     -8033.5842      4354.3684     -137165.82    
    482600   2486.5606      19771.822      4276.8712     -137167.76    
    482700   2561.925       4667.7497      4284.379      -137163.69    
    482800   2812.6897      619.2261       4339.3129     -137166.45    
    482900   2424.9297     -6910.6587      4415.3322     -137165.59    
    483000   2335.5277     -4361.4944      4436.2005     -137166.69    
    483100   2417.4316     -3994.4455      4417.1617     -137162.3     
    483200   2686.9553      9024.3216      4362.3817     -137165       
    483300   2557.6967      2714.4501      4334.853      -137164.22    
    483400   2320.9687      9149.6412      4350.8026     -137164       
    483500   2282.6754     -780.91753      4404.93       -137164.74    
    483600   2883.6641     -5041.266       4442.0501     -137168.57    
    483700   2556.1704      875.06361      4453.8896     -137159.51    
    483800   2375.2768     -7004.3743      4456.5471     -137160.28    
    483900   2536.0104     -6556.635       4411.734      -137166.72    
    484000   2716.9032      200.32575      4345.0233     -137167.9     
    484100   2710.7289      15767.863      4299.4283     -137160.67    
    484200   2782.492      -1360.9354      4339.104      -137165.09    
    484300   2408.4535     -10961.041      4399.8582     -137164.31    
    484400   2389.3266      8567.9804      4423.7859     -137162.94    
    484500   2564.23       -11181.92       4468.0502     -137162.67    
    484600   2717.313       3186.2843      4476.9634     -137163.37    
    484700   2393.2862     -13245.042      4487.6543     -137159.45    
    484800   2420.4968     -7423.2349      4425.7765     -137167.03    
    484900   2414.5108      4085.7731      4326.6464     -137163.71    
    485000   2601.7123      7843.3212      4248.7702     -137162.13    
    485100   2470.2347      20740.348      4215.9007     -137160.85    
    485200   2571.8314      4019.2119      4269.4238     -137168.08    
    485300   2466.6428     -8404.6548      4369.4526     -137166.32    
    485400   2572.2224     -7027.1588      4451.006      -137165.79    
    485500   2689.6851     -3879.5221      4505.942      -137164       
    485600   2561.6826      4455.3124      4535.5731     -137158.01    
    485700   2288.3085     -2766.3191      4555.6654     -137158.63    
    485800   2436.2572     -6888.4998      4524.6648     -137165.78    
    485900   2419.7825     -989.4799       4468.5938     -137160.06    
    486000   2828.6437     -6280.5602      4399.8798     -137166.98    
    486100   2635.5624      6587.8743      4343.7601     -137165.52    
    486200   2309.2013     -2052.8693      4352.5557     -137165.91    
    486300   2414.1291     -1738.8391      4356.6266     -137165.8     
    486400   2754.9369     -810.62299      4349.7226     -137170.37    
    486500   2697.6712     -10573.796      4380.4707     -137169.84    
    486600   2420.2651      670.1661       4423.3655     -137166.49    
    486700   2334.6849     -1860.4873      4470.212      -137167.08    
    486800   2461.6634     -4568.8584      4489.246      -137163.51    
    486900   2534.6321      3656.5454      4468.5319     -137159.31    
    487000   2341.9659      518.60335      4441.9758     -137155.74    
    487100   2480.0125     -9312.1219      4367.3986     -137163.33    
    487200   2448.1409      15174.172      4276.8546     -137169.4     
    487300   2310.6275      6612.1654      4278.5966     -137169.42    
    487400   2510.4808     -535.33872      4319.0694     -137166.24    
    487500   2514.8038      2603.5579      4363.928      -137160.85    
    487600   2439.195       3035.6418      4421.0893     -137159.45    
    487700   2514.7078     -13602.524      4459.2845     -137162.57    
    487800   2481.5838     -3227.6427      4427.0738     -137164.8     
    487900   2389.8801     -4732.5079      4366.4359     -137165.04    
    488000   2552.8768      11638.329      4285.2228     -137163.08    
    488100   2763.7944      8919.6462      4275.7293     -137165.85    
    488200   2449.2617     -4121.6775      4342.467      -137163.89    
    488300   2397.5065      618.52873      4408.7371     -137164.09    
    488400   2408.1043     -11578.468      4448.529      -137162.53    
    488500   2595.0217      4084.405       4408.4674     -137164.36    
    488600   2465.873       13386.774      4386.9883     -137159.59    
    488700   2351.5113      5608.9782      4409.2403     -137160.7     
    488800   2197.4416     -3117.2321      4430.9298     -137165.5     
    488900   2243.7553     -3543.1341      4422.2636     -137162.68    
    489000   2458.3837      7655.0217      4382.0135     -137162.12    
    489100   2629.1338      1102.941       4369.3763     -137168.32    
    489200   2393.4973     -3915.6315      4368.8234     -137165.89    
    489300   2404.1568      3712.7198      4354.2224     -137163.28    
    489400   2848.606       6820.6849      4361.4719     -137165.21    
    489500   2567.527       7511.3101      4437.5937     -137158.57    
    489600   2532.1265     -14982.117      4556.6948     -137162.35    
    489700   2413.8309     -18359.369      4583.7635     -137159.05    
    489800   2586.5794      2357.7487      4502.2352     -137159.87    
    489900   2625.2351     -703.39668      4431.0946     -137161.84    
    490000   2288.2978     -1506.1279      4368.9182     -137162.75    
    490100   2512.5025      3468.2935      4302.1924     -137170.58    
    490200   2661.0098      1504.6692      4257.5029     -137175.36    
    490300   2376.8991      1065.009       4232.8311     -137169.37    
    490400   2430.3985      5690.8349      4229.3863     -137173.66    
    490500   2322.3833     -3448.5394      4267.7694     -137170.37    
    490600   2495.2783      3166.733       4299.5221     -137166.9     
    490700   2620.5729      489.39009      4338.104      -137165.71    
    490800   2543.2239     -1996.7034      4403.9126     -137163.5     
    490900   2366.6432     -2341.2017      4458.077      -137158.23    
    491000   2756.12        791.43359      4478.0325     -137163.13    
    491100   2685.6786      319.97237      4495.3973     -137159.77    
    491200   2455.1249     -11616.535      4513.6056     -137162.17    
    491300   2543.2987     -9521.7948      4477.9341     -137167.81    
    491400   2457.691       5116.5993      4420.1676     -137163.34    
    491500   2670.2461      4754.5778      4404.6399     -137163.96    
    491600   2627.3132     -10138.864      4422.4641     -137159.91    
    491700   2416.5827     -1674.9236      4437.1464     -137161.3     
    491800   2345.507      -6719.879       4426.866      -137166.25    
    491900   2493.388       1140.5137      4365.6606     -137169.32    
    492000   2589.1853      9052.4631      4335.2652     -137166.31    
    492100   2587.9054      932.47366      4360.7881     -137163.26    
    492200   2431.747      -4485.0135      4389.2751     -137161.53    
    492300   2370.3975     -221.01028      4410.0636     -137166.47    
    492400   2415.9792     -7304.7825      4443.8374     -137165.39    
    492500   2533.7137      7970.7653      4462.4346     -137160.71    
    492600   2584.3237     -16266.247      4489.0637     -137160.68    
    492700   2553.2616      173.07204      4437.52       -137162.43    
    492800   2411.5376     -2323.0279      4384.8332     -137165.01    
    492900   2208.3465      3645.4564      4335.4674     -137167.48    
    493000   2236.2731      655.87284      4300.6776     -137173.68    
    493100   2297.7682      7699.6092      4281.8        -137174.21    
    493200   2525.9557      1071.9392      4302.3545     -137170.49    
    493300   2547.8135     -800.87243      4349.366      -137166.58    
    493400   2522.7373      2624.8892      4411.2216     -137163.66    
    493500   2453.9617      3096.3         4481.0011     -137160.22    
    493600   2687.5472     -5534.5296      4526.9666     -137162.89    
    493700   2448.4472     -11065.479      4530.2393     -137159.9     
    493800   2439.438      -5234.1965      4481.4654     -137164.9     
    493900   2511.7125      531.7041       4395.2979     -137166.9     
    494000   2813.5669      4586.9735      4322.1517     -137167.95    
    494100   2570.1257      1395.7022      4311.0584     -137166.62    
    494200   2344.648       133.94279      4339.4526     -137167.9     
    494300   2295.5372      2526.1838      4374.5071     -137163.42    
    494400   2669.5917     -5256.9035      4412.6597     -137167.99    
    494500   2532.6004      3342.9849      4443.12       -137163.98    
    494600   2542.0249     -7316.8938      4476.7496     -137166.47    
    494700   2286.3537     -6601.8279      4458.6027     -137167.92    
    494800   2198.4118     -8331.2903      4392.0888     -137165.26    
    494900   2458.5591      8580.2433      4296.0816     -137164.01    
    495000   2636.3816      9460.4136      4261.284      -137168.67    
    495100   2508.2231     -3360.251       4292.8239     -137169.47    
    495200   2435.8259     -3274.0595      4340.067      -137166.59    
    495300   2909.6914     -2323.117       4381.3093     -137169.39    
    495400   2652.9607     -10657.45       4436.0634     -137164.82    
    495500   2430.2509     -4868.7701      4461.9661     -137160.19    
    495600   2697.3395     -1732.4848      4440.221      -137166.51    
    495700   2549.3351      4078.9001      4418.4442     -137166.98    
    495800   2315.6269     -12830.657      4414.7775     -137168.59    
    495900   2035.4937      3057.6263      4344.406      -137167.51    
    496000   2613.4113      8255.699       4288.0765     -137172.04    
    496100   2572.2343      4578.6442      4292.2797     -137168.2     
    496200   2614.7313     -6988.3729      4326.9155     -137167.95    
    496300   2470.6583     -7725.6282      4363.0637     -137162.38    
    496400   2493.164       14583.222      4361.6978     -137162.21    
    496500   2398.0946     -8394.6706      4383.1135     -137162.78    
    496600   2530.1438     -7234.4543      4388.5031     -137167.14    
    496700   2569.6126      117.12194      4379.7588     -137166.2     
    496800   2551.2925      84.42294       4379.4897     -137164.92    
    496900   2438.9475      1549.6342      4385.5983     -137166.73    
    497000   2258.7887     -2688.5411      4386.97       -137167.13    
    497100   2480.4131     -5243.6419      4368.46       -137169.71    
    497200   2595.1769      6803.6044      4351.2242     -137164.42    
    497300   2564.4153     -3021.4404      4363.974      -137164.64    
    497400   2533.0501     -2634.381       4394.9887     -137165.36    
    497500   2430.1153     -8538.8582      4430.4855     -137167.6     
    497600   2338.4971     -15219.671      4423.524      -137171.31    
    497700   2368.124      -4866.3587      4345.5831     -137166.9     
    497800   2716.2162      7889.6505      4252.8838     -137170.22    
    497900   2628.983       3034.4481      4231.891      -137169.71    
    498000   2448.1283     -5.4481123      4281.6238     -137170.38    
    498100   2303.55       -9578.0592      4358.9138     -137167.65    
    498200   2574.4657      2727.0443      4392.0575     -137165.52    
    498300   2443.6244      3024.5123      4402.5923     -137158.13    
    498400   2549.2473      1107.6111      4406.6532     -137162.49    
    498500   2429.9147     -529.73535      4424.6691     -137163.42    
    498600   2458.7277     -14206.543      4425.2067     -137166.48    
    498700   2765.9431      9829.959       4354.1982     -137166.3     
    498800   2658.484       10917.351      4312.2435     -137162.16    
    498900   2524.4496     -371.87831      4331.7068     -137167.39    
    499000   2349.3286     -7679.4217      4393.0363     -137164.59    
    499100   2525.4384     -11723.317      4420.7681     -137164.1     
    499200   2760.4163      7490.996       4352.5703     -137165.22    
    499300   2798.2139      3145.3265      4321.1447     -137168.14    
    499400   2256.3429      6733.953       4337.1872     -137164.72    
    499500   2525.1949     -10480.985      4392.1581     -137168.58    
    499600   2488.59       -5964.5332      4437.3929     -137159.86    
    499700   2569.782      -4835.7067      4443.0244     -137158.24    
    499800   2665.0311      1042.939       4419.4245     -137163.99    
    499900   2508.8386     -2479.9507      4443.3082     -137166.64    
    500000   2326.5117     -7058.6364      4508.9399     -137163.59    
    500100   2617.0718     -2707.3907      4549.9382     -137160.45    
    500200   2551.3869      1022.9985      4556.5984     -137154.98    
    500300   2559.0878     -8087.2299      4544.1518     -137159.59    
    500400   2345.1647     -13546.841      4469.205      -137160.82    
    500500   2509.9895      7471.1326      4310.3093     -137167       
    500600   2587.0682      17446.255      4219.1114     -137170.64    
    500700   2378.4711     -6849.3511      4226.5313     -137174.48    
    500800   2522.5922     -4054.9899      4229.3183     -137176.72    
    500900   2561.4347      16829.993      4245.6902     -137171.81    
    501000   2482.2482      3429.796       4341.0704     -137168.49    
    501100   2414.6116     -8328.9364      4456.6538     -137165.8     
    501200   2427.0146     -12479.027      4502.4547     -137163.69    
    501300   2546.673      -5330.0721      4450.6919     -137166.1     
    501400   2624.7275      5012.8508      4378.9434     -137168.17    
    501500   2575.6173     -3944.9929      4365.6823     -137169.29    
    501600   2421.9054     -7352.4767      4358.5445     -137173.81    
    501700   2268.6725      6689.2615      4317.4447     -137170.69    
    501800   2285.6286      3109.037       4304.3047     -137165.18    
    501900   2604.6173     -2132.0846      4321.9296     -137170.72    
    502000   2501.4422      2729.2669      4341.442      -137167.59    
    502100   2443.0183      9596.8857      4354.7266     -137165.43    
    502200   2625.5703     -49.846601      4393.7097     -137164.83    
    502300   2766.9564     -7105.0338      4444.147      -137163.52    
    502400   2502.2089     -7762.9891      4484.4332     -137160.54    
    502500   2257.1897     -4883.7384      4479.3277     -137162.89    
    502600   2335.688       3754.2616      4417.7874     -137163.27    
    502700   2594.1028      996.53306      4350.9425     -137165.63    
    502800   2579.836       3148.8974      4301.3532     -137166.32    
    502900   2546.7763      6912.6767      4292.6872     -137169.2     
    503000   2330.773       3398.7158      4334.947      -137167.83    
    503100   2338.7956     -1903.4275      4394.4289     -137166.99    
    503200   2289.7449      50.662882      4425.3338     -137160.25    
    503300   2538.7913      3856.9975      4420.0529     -137160.57    
    503400   2525.7882     -8918.8271      4415.9605     -137161.4     
    503500   2531.63        3122.7385      4378.5129     -137167.96    
    503600   2460.383       1339.1963      4364.6162     -137171.56    
    503700   2342.4998      12790.336      4381.6198     -137168.13    
    503800   2536.4331      4378.7073      4462.3419     -137159.73    
    503900   2480.2508     -7263.776       4539.137      -137158.55    
    504000   2456.8324     -17707.649      4540.1811     -137162.66    
    504100   2383.1005     -4646.9702      4430.0041     -137161.8     
    504200   2720.6969      18467.941      4297.2981     -137165.22    
    504300   2761.4057      11778.307      4284.6812     -137164.55    
    504400   2324.7998     -521.70068      4338.9594     -137163.71    
    504500   2421.9899     -891.18738      4348.3446     -137168.13    
    504600   2434.8394     -4654.6186      4318.8291     -137166.93    
    504700   2699.7048      8376.7744      4271.8099     -137167.53    
    504800   2627.9464      21567.674      4267.5549     -137162.77    
    504900   2340.5538      1764.8922      4340.4148     -137164.31    
    505000   2352.0441     -2180.5023      4406.6075     -137167.73    
    505100   2567.0951     -5415.628       4439.0974     -137168.12    
    505200   2399.9655     -3300.6924      4428.0935     -137158.82    
    505300   2608.1812      8858.2607      4408.0163     -137160.73    
    505400   2542.8241      4683.4027      4455.7034     -137159.64    
    505500   2516.2163     -1160.4113      4514.9281     -137160.86    
    505600   2628.6327     -6870.2695      4538.857      -137168.01    
    505700   2389.8003     -3215.3632      4521.482      -137167.52    
    505800   2325.1475     -7823.0036      4461.8377     -137164.9     
    505900   2511.867       11530.285      4363.916      -137166.17    
    506000   2608.1697     -695.49193      4322.4612     -137167.7     
    506100   2506.8911      3589.8493      4297.414      -137166.28    
    506200   2369.4282      7205.2589      4298.007      -137165.76    
    506300   2388.8907     -8675.5702      4318.5753     -137172.04    
    506400   2494.448      -1036.8939      4300.2526     -137173.56    
    506500   2704.6714      6077.9095      4273.3035     -137169.98    
    506600   2531.8823      5472.93        4298.8914     -137165.4     
    506700   2312.4148      91.22085       4352.6942     -137164.92    
    506800   2185.9144     -13015.331      4377.1899     -137169.07    
    506900   2299.1089     -5284.5468      4336.0831     -137170.19    
    507000   2525.504       8835.2593      4284.1308     -137166.28    
    507100   2602.3882      2596.7043      4297.1161     -137166.52    
    507200   2582.7949     -981.8952       4352.6396     -137167.69    
    507300   2403.2687     -4293.2714      4402.2263     -137165.75    
    507400   2360.492      -2831.7593      4422.2169     -137161.45    
    507500   2754.5062      10055.532      4405.0249     -137163.45    
    507600   2605.0723     -980.05444      4429.4501     -137163.7     
    507700   2364.6491     -4707.6082      4457.0195     -137161.32    
    507800   2524.1925      2545.3711      4477.2749     -137163.41    
    507900   2440.8339      478.09915      4536.2487     -137156.94    
    508000   2684.3264     -12541.779      4563.5581     -137156.52    
    508100   2983.8791      5375.4409      4508.3463     -137154.38    
    508200   2734.9478     -11183.186      4483.4136     -137158.19    
    508300   2594.2495     -2278.9675      4441.2783     -137161.15    
    508400   2367.6597      7907.485       4389.1263     -137161.25    
    508500   2470.9033      4824.191       4350.1315     -137166.11    
    508600   2458.5799     -403.80379      4329.425      -137166.81    
    508700   2307.819       6382.5076      4295.4975     -137168.11    
    508800   2228.2259      11338.239      4270.7458     -137169.74    
    508900   2741.5648     -5495.3391      4299.9702     -137175.25    
    509000   2582.3424      1291.1921      4345.5258     -137167.51    
    509100   2387.8898     -7605.1428      4403.3489     -137162.54    
    509200   2602.6112     -4791.8415      4421.7916     -137165.68    
    509300   2653.9883      3734.8673      4415.3977     -137161.33    
    509400   2618.0074     -11403.737      4425.4879     -137159       
    509500   2447.0119     -2165.8685      4410.41       -137163.13    
    509600   2513.292      -8683.188       4403.5991     -137168.58    
    509700   2604.5166     -3132.1018      4387.8204     -137169.5     
    509800   2391.4467      7875.9414      4385.0283     -137157.15    
    509900   2857.253       14134.87       4417.9137     -137161.3     
    510000   2609.9021     -9957.8808      4496.6673     -137160.41    
    510100   2505.9424      252.21025      4530.4114     -137161.56    
    510200   2421.8619     -10444.334      4512.6992     -137161.05    
    510300   2549.608       3479.6914      4439.6812     -137160.48    
    510400   2639.3951      15874.066      4375.6527     -137157.2     
    510500   2727.2485      2548.824       4373.5063     -137166.82    
    510600   2506.5514     -6782.6242      4432.1483     -137166.9     
    510700   2362.8012     -4956.7208      4451.2828     -137163.79    
    510800   2647.9615     -11172.241      4420.6535     -137169.65    
    510900   2514.1328      2638.0787      4350.3714     -137164.67    
    511000   2379.3607      7659.8357      4270.7937     -137159.7     
    511100   2510.7867      17409.601      4227.2881     -137164.62    
    511200   2464.546       2026.5716      4282.835      -137171.84    
    511300   2274.6597     -9286.6848      4373.5194     -137169.07    
    511400   2456.3774      2103.7187      4432.9241     -137167.39    
    511500   2354.4694     -1363.2772      4500.7713     -137160.5     
    511600   2532.9441     -9972.6884      4519.2849     -137163.49    
    511700   2510.2759      5836.9988      4457.9858     -137161.16    
    511800   2659.0794      1124.3354      4406.8219     -137167.06    
    511900   2384.4319     -5700.8949      4379.8641     -137169.23    
    512000   2392.7058     -3910.0397      4346.6795     -137168.14    
    512100   2519.2232      17534.59       4303.8204     -137164.94    
    512200   2578.6017     -947.01347      4344.7816     -137166.42    
    512300   2538.7779      840.29469      4404.4553     -137168.89    
    512400   2279.9529     -3038.1212      4448.8873     -137163.21    
    512500   2390.6302     -4790.8333      4445.2347     -137164.37    
    512600   2494.7793      9551.7917      4420.4125     -137165.01    
    512700   2450.3079     -966.99112      4441.7889     -137162.2     
    512800   2552.9005     -9088.4403      4445.0486     -137163.7     
    512900   2517.6954     -1406.324       4386.9482     -137162.72    
    513000   2540.0302      5008.9476      4314.8917     -137165.18    
    513100   2312.5678      14463.105      4271.6978     -137166.23    
    513200   2392.7765      911.80686      4290.501      -137168.55    
    513300   2563.9226      3419.0832      4354.4478     -137167.19    
    513400   2614.7577     -5438.3201      4445.7361     -137160.91    
    513500   2708.3345     -1808.5667      4490.4547     -137165.22    
    513600   2463.8362     -15942.878      4514.865      -137161.64    
    513700   2420.5677     -8850.9055      4455.5982     -137161.69    
    513800   2383.8212      13601.817      4327.2664     -137160.43    
    513900   2553.9718      15988.259      4240.5394     -137165.25    
    514000   2368.7743      20451.744      4236.792      -137168.63    
    514100   2203.0567      3808.4696      4326.6412     -137167.28    
    514200   2270.051      -6117.738       4430.7731     -137161.88    
    514300   2392.7688     -7177.6503      4479.9849     -137160.41    
    514400   2538.2699     -3743.651       4451.899      -137162.77    
    514500   2609.2859      9003.1758      4380.0282     -137164.21    
    514600   2376.8687      2337.1474      4340.2557     -137163.79    
    514700   2173.9289      6534.09        4307.5528     -137163.02    
    514800   2511.4534      10604.331      4290.147      -137165.9     
    514900   2671.1002      1115.4779      4317.5612     -137165.22    
    515000   2487.5356     -5743.4853      4375.7087     -137162.15    
    515100   2557.2665     -6944.1767      4423.6245     -137165.18    
    515200   2559.7947      735.08839      4435.6435     -137164.6     
    515300   2477.8229     -9786.2261      4445.1282     -137166.72    
    515400   2192.496      -3021.135       4420.356      -137165.69    
    515500   2371.3589      938.35382      4359.0975     -137166.61    
    515600   2665.5207      1770.7563      4308.1622     -137169.2     
    515700   2534.7426      5556.5712      4301.2928     -137167.64    
    515800   2444.7408     -7330.4595      4326.7956     -137167.81    
    515900   2479.6822      5301.5881      4349.2421     -137167.4     
    516000   2734.9785     -4695.1038      4407.8622     -137164.67    
    516100   2699.673      -4050.3094      4460.5881     -137158.85    
    516200   2702.8018     -9137.5801      4484.0183     -137165.21    
    516300   2548.8948     -1844.3973      4463.0485     -137166.29    
    516400   2479.6211      3894.0183      4408.15       -137164.57    
    516500   2579.0049      11717.124      4358.2427     -137166.16    
    516600   2617.5326     -689.51997      4372.1994     -137166.54    
    516700   2292.9589     -12092.868      4404.0185     -137162.63    
    516800   2361.9101      2167.2054      4363.3708     -137166.57    
    516900   2483.209       6600.2639      4303.2778     -137164.93    
    517000   2671.4562      10773.12       4289.1506     -137163.98    
    517100   2514.2797      936.16849      4338.8196     -137166.67    
    517200   2206.1885      1373.1275      4388.7548     -137164.17    
    517300   2371.6697      6209.3009      4439.5955     -137164.4     
    517400   2548.4298     -11995.685      4489.2568     -137162.34    
    517500   2607.9398     -4939.7007      4459.1752     -137162.96    
    517600   2352.4103      5630.7101      4381.2671     -137163.68    
    517700   2466.5875      6843.6247      4295.6703     -137171.29    
    517800   2343.0834      9255.6444      4244.5289     -137167.44    
    517900   2565.0919      10623.672      4246.4593     -137169.93    
    518000   2489.2265     -1033.3612      4338.1054     -137164.87    
    518100   2498.5534     -317.13498      4448.8007     -137163.63    
    518200   2513.2175     -8872.6598      4529.8174     -137161.06    
    518300   2444.7108     -12283.724      4523.9269     -137157.33    
    518400   2560.1826      6600.45        4443.0373     -137159.94    
    518500   2553.1272     -3331.072       4400.3478     -137161.49    
    518600   2313.8037      8783.2444      4352.7264     -137162.16    
    518700   2550.3733     -4741.9969      4337.6107     -137169.81    
    518800   2338.206       8443.2505      4335.3512     -137163.09    
    518900   2594.1113     -5394.6281      4394.1629     -137162.61    
    519000   2800.9144      1383.5792      4457.1996     -137165.84    
    519100   2529.1213     -9589.1151      4508.9162     -137166.56    
    519200   2347.6821     -3504.678       4504.9609     -137163.55    
    519300   2364.9929      4132.4683      4427.3666     -137162.45    
    519400   2595.964       10413.956      4334.3468     -137167.04    
    519500   2638.0019      7176.8881      4294.6592     -137168.24    
    519600   2336.9989      8721.0391      4312.7037     -137161.45    
    519700   2528.5848      2204.5084      4358.9023     -137166.67    
    519800   2461.4064      386.21639      4414.9207     -137161.42    
    519900   2642.2973     -3936.2539      4451.9615     -137160.1     
    520000   2723.478      -39.685279      4467.0956     -137165.8     
    520100   2371.3314     -10192.914      4494.1461     -137164.24    
    520200   2551.5328     -1761.2137      4480.1872     -137166.82    
    520300   2496.1895      11202.509      4467.2543     -137161.52    
    520400   2561.1129     -7959.3218      4504.5794     -137163.54    
    520500   2468.8149     -12540.531      4495.6183     -137162.99    
    520600   2386.1623      11506.844      4427.8163     -137159.68    
    520700   2551.0966      329.94757      4407.8271     -137159.83    
    520800   2592.5958      1059.8698      4402.6048     -137163.45    
    520900   2305.4924     -306.85435      4395.4189     -137165.1     
    521000   2472.8155     -8723.2124      4364.6516     -137169.95    
    521100   2503.2372      3054.726       4303.37       -137168.48    
    521200   2569.4219      6517.7647      4266.2164     -137166.43    
    521300   2752.2013      1932.6985      4294.9668     -137165.46    
    521400   2653.2604     -2779.444       4355.774      -137165.68    
    521500   2384.3725     -10212.633      4400.8346     -137166.17    
    521600   2458.4631     -8103.3592      4402.1798     -137167.11    
    521700   2533.1986      5924.9545      4370.8526     -137164.7     
    521800   2532.3688      10451.842      4387.8487     -137159.8     
    521900   2962.2385      422.92455      4472.0416     -137163.18    
    522000   2680.711       769.07863      4564.8558     -137153.24    
    522100   2454.6561     -15592.265      4610.1296     -137155.55    
    522200   2478.2101     -3269.1111      4564.8346     -137158.7     
    522300   2337.6363      2180.5354      4474.3835     -137158.25    
    522400   2327.257       9780.1101      4388.1345     -137162.79    
    522500   2242.65       -9197.175       4334.3048     -137167.59    
    522600   2518.1674      15992.768      4268.4806     -137173.32    
    522700   2610.8792      3628.0545      4305.8927     -137166.26    
    522800   2567.5157     -503.84778      4377.1425     -137164.01    
    522900   2390.7662     -11716.396      4424.0638     -137162.21    
    523000   2242.6868      3706.0584      4420.8904     -137163.01    
    523100   2237.1319     -6628.3254      4408.4978     -137167.91    
    523200   2390.8877     -3230.7866      4357.3612     -137166.79    
    523300   2570.7784      8365.4637      4289.466      -137164.18    
    523400   2664.4772      3010.2143      4276.2607     -137169.26    
    523500   2421.0627      399.47926      4302.868      -137168.75    
    523600   2529.2602      2723.1002      4338.2851     -137171.31    
    523700   2487.0975     -397.00644      4396.5721     -137166.88    
    523800   2355.7516     -6678.9229      4452.8422     -137160.25    
    523900   2406.3228      749.80864      4469.919      -137159.62    
    524000   2465.4204     -4499.6494      4482.3582     -137157.95    
    524100   2604.3538      8095.0518      4477.2302     -137161.87    
    524200   2301.9053     -10834.897      4483.3511     -137162.43    
    524300   2353.5073     -14040.377      4401.256      -137166.84    
    524400   2457.4864      20739.913      4267.98       -137166.5     
    524500   2627.4777      3692.259       4235.9015     -137169.4     
    524600   2531.4603     -4740.2083      4269.1467     -137167.9     
    524700   2344.1794      1384.9952      4327.3971     -137166.54    
    524800   2371.762      -5629.8214      4398.7459     -137167.61    
    524900   2613.1789      200.27435      4456.7076     -137167.1     
    525000   2505.3998     -11954.396      4512.4331     -137159.71    
    525100   2604.1171     -6608.3547      4494.0987     -137160.21    
    525200   2469.5585      1195.347       4434.7621     -137158.2     
    525300   2288.1833      3189.1899      4373.5524     -137161.02    
    525400   2574.9735      7184.2213      4348.1522     -137167.57    
    525500   2360.1735      2104.5363      4359.7864     -137160.68    
    525600   2670.3132     -3374.7164      4378.2324     -137166.03    
    525700   2624.552      -5204.1313      4389.701      -137165.37    
    525800   2458.5309      191.07439      4372.24       -137166.82    
    525900   2455.5067      5722.0818      4365.9462     -137169.2     
    526000   2527.2113      8722.7413      4389.6579     -137166.51    
    526100   2667.6575      1605.6553      4443.591      -137161.76    
    526200   2627.8727     -9809.3301      4504.1114     -137162.83    
    526300   2416.7919     -11349.141      4500.7763     -137161.96    
    526400   2594.8208      3970.785       4441.8646     -137167.67    
    526500   2377.3404     -2720.1951      4411.8263     -137161.49    
    526600   2635.4748     -330.93256      4387.7022     -137165.36    
    526700   2548.1976     -4627.7852      4388.5507     -137162.44    
    526800   2486.4173     -2492.9334      4381.258      -137161.45    
    526900   2501.5315      2506.0309      4349.7769     -137163.45    
    527000   2544.6815     -1320.0094      4328.074      -137169.13    
    527100   2330.5707      10271.555      4306.1069     -137169.36    
    527200   2368.7396      608.40612      4315.9013     -137168.75    
    527300   2622.5982      3948.5233      4338.7679     -137163.85    
    527400   2654.8366     -9099.8975      4396.0953     -137164.07    
    527500   2295.6049     -5779.0853      4419.7        -137156.82    
    527600   2657.6135     -4370.1055      4399.5957     -137163.8     
    527700   2524.6088      6654.4377      4363.1922     -137162.26    
    527800   2370.7843      2752.322       4345.2044     -137166.98    
    527900   2428.9754     -3079.1944      4325.5129     -137170.38    
    528000   2499.8136     -4189.3812      4313.117      -137167.37    
    528100   2716.9785      3571.0607      4319.5522     -137166.68    
    528200   2508.3172      729.79938      4342.3822     -137162.55    
    528300   2540.665       6206.2335      4372.531      -137165.69    
    528400   2383.9055     -886.42068      4423.8604     -137164.75    
    528500   2561.1251     -6673.4206      4463.2957     -137168.07    
    528600   2653.7214     -4380.6993      4473.0121     -137159.96    
    528700   2870.1087     -2064.0293      4459.1172     -137168.01    
    528800   2577.5794     -13639.593      4442.079      -137166.69    
    528900   2476.1623      4103.5885      4373.1733     -137165.9     
    529000   2500.6622      6874.3249      4308.8588     -137168.7     
    529100   2149.1029      10067.594      4276.9142     -137165.07    
    529200   2320.327      -1647.0111      4285.3491     -137172.17    
    529300   2428.9884      6686.6679      4286.5573     -137165.06    
    529400   2522.7881     -188.82995      4308.4868     -137163.88    
    529500   2611.4263      20.516418      4358.4313     -137167.79    
    529600   2342.6507     -6673.4134      4423.5879     -137162.32    
    529700   2345.5526     -10063.956      4429.8472     -137162.82    
    529800   2665.3961     -1692.4276      4387.289      -137166.9     
    529900   2708.8071     -10358.174      4351.2746     -137164.24    
    530000   2525.1721      7090.5988      4303.7722     -137165.2     
    530100   2238.9957      3725.5745      4288.0029     -137164.2     
    530200   2308.183      -692.78522      4285.8946     -137162.18    
    530300   2728.0665      6873.1951      4289.8979     -137170.64    
    530400   2595.6308      1708.1209      4332.7651     -137171.61    
    530500   2257.6435     -8909.9138      4399.9044     -137165.45    
    530600   2538.4117     -2165.2414      4425.6034     -137168.24    
    530700   2596.7031     -6699.0771      4410.7851     -137168.96    
    530800   2543.4132     -3253.1414      4357.508      -137168.35    
    530900   2505.4294      6609.5361      4294.9073     -137168.84    
    531000   2535.4507      3552.5268      4256.7775     -137172.38    
    531100   2437.6505      8635.3823      4251.6724     -137169.98    
    531200   2536.4873     -6395.0607      4301.8597     -137168.52    
    531300   2655.6501     -1843.0414      4348.3783     -137164.72    
    531400   2370.7373      3304.2315      4386.3727     -137158.79    
    531500   2283.8718      898.55623      4414.545      -137160.25    
    531600   2349.5496      316.16449      4399.7854     -137167.01    
    531700   2435.5842     -224.25749      4366.3839     -137170.2     
    531800   2507.3998      12246.947      4358.052      -137164.4     
    531900   2534.8631     -7113.5982      4408.016      -137161.95    
    532000   2334.5224     -5589.2832      4409.3072     -137158.15    
    532100   2471.6491      3446.4109      4353.7145     -137163.44    
    532200   2555.1675      10927.515      4316.8966     -137166.35    
    532300   2359.8063     -5328.0671      4318.4733     -137165.55    
    532400   2354.5875      719.99607      4300.8924     -137167.53    
    532500   2506.8296      9609.372       4299.6058     -137167.78    
    532600   2635.1864      819.24018      4360.2118     -137165.23    
    532700   2589.5378      2327.624       4461.2034     -137160.29    
    532800   2309.1382     -5762.6367      4552.9471     -137159.87    
    532900   2304.3914     -10229.696      4562.2655     -137163.37    
    533000   2397.0689      5865.4344      4456.7085     -137161.07    
    533100   2732.128       8144.31        4358.0978     -137166.45    
    533200   2544.064       8305.6612      4335.2005     -137164.12    
    533300   2455.4185      3674.0651      4365.4819     -137163.78    
    533400   2344.9987     -4728.8514      4405.0678     -137161.04    
    533500   2713.457       429.28277      4406.2001     -137165.54    
    533600   3060.4063     -5575.6294      4421.4667     -137168.58    
    533700   2530.4243     -2891.5507      4451.8156     -137164.07    
    533800   2385.0963     -13240.681      4437.6489     -137163.56    
    533900   2625.7664      3381.4877      4363.0948     -137165.95    
    534000   2643.8049      1581.3186      4308.5424     -137165.65    
    534100   2552.4583      4044.2538      4293.2937     -137171.39    
    534200   2404.5604     -2145.5553      4313.7455     -137172.45    
    534300   2463.8192     -6287.8306      4340.0773     -137170.25    
    534400   2511.6437      3776.7209      4364.0763     -137166.39    
    534500   2522.0269      1009.3067      4413.672      -137163.3     
    534600   2483.8305      4229.1911      4456.4795     -137159.3     
    534700   2553.4163     -11263.716      4500.4035     -137159.2     
    534800   2633.5605     -9619.8493      4491.6416     -137160.73    
    534900   2532.1138     -3507.0662      4428.011      -137163.38    
    535000   2293.0416      3014.4621      4326.5812     -137163.56    
    535100   2575.5273      6163.5203      4216.4702     -137173.38    
    535200   2420.0562      10825.017      4172.8381     -137173.2     
    535300   2424.8519      6571.5804      4199.9698     -137175.99    
    535400   2413.0259      5173.0603      4263.1995     -137174.76    
    535500   2534.7617     -1963.6152      4352.3788     -137169.29    
    535600   2568.7618      1263.2135      4425.8319     -137164.32    
    535700   2636.7724     -5336.4895      4472.9501     -137164.04    
    535800   2664.7473     -9811.5589      4492.7754     -137165.96    
    535900   2464.4616     -9253.7053      4454.3243     -137169.01    
    536000   2145.5353      12821.904      4365.7222     -137164.32    
    536100   2364.2578      4516.5641      4317.7609     -137164.19    
    536200   2420.8855      31.815997      4311.628      -137161.7     
    536300   2524.1788      7326.8208      4316.4803     -137163.71    
    536400   2477.6959      5194.881       4342.39       -137166.71    
    536500   2260.0635     -7559.824       4382.3488     -137166.62    
    536600   2295.9896     -1260.0447      4374.2656     -137168.08    
    536700   2523.3933      10154.607      4355.4        -137164.37    
    536800   2581.0472     -408.20199      4379.7941     -137163.54    
    536900   2487.0107     -8197.1234      4410.2235     -137164.95    
    537000   2311.5566     -13097.697      4404.5483     -137166.91    
    537100   2440.3955     -5722.034       4350.9299     -137167.57    
    537200   2552.3128      19198.402      4298.3158     -137165.51    
    537300   2524.9112      14993.989      4337.1332     -137165.57    
    537400   2306.4747     -7220.5078      4453.7123     -137163.73    
    537500   2499.3899     -12830.682      4524.8541     -137166.15    
    537600   2554.2578     -507.74587      4529.9887     -137158.45    
    537700   2650.6128     -231.27972      4515.228      -137160.47    
    537800   2500.9083     -231.31262      4466.8371     -137161.33    
    537900   2422.0972     -768.08781      4411.1917     -137163.6     
    538000   2374.8376      3244.5811      4354.134      -137163.54    
    538100   2481.6834      4589.2229      4303.5494     -137166.62    
    538200   2441.7422     -1302.1666      4284.6928     -137167.61    
    538300   2294.0467      1695.6004      4280.6493     -137173.04    
    538400   2292.1944     -3709.4423      4287.6993     -137171.35    
    538500   2471.4623      4077.8865      4288.3977     -137167.38    
    538600   2460.1278      7181.138       4322.3918     -137163.13    
    538700   2508.8076      5575.0118      4393.9204     -137164.63    
    538800   2325.8778      3590.7115      4486.8153     -137164.42    
    538900   2364.9443     -12088.314      4559.6549     -137162.22    
    539000   2570.9397      3319.4471      4546.2502     -137158.07    
    539100   2558.6014      334.08436      4513.8384     -137160.16    
    539200   2367.4137     -4160.2899      4470.2045     -137161.71    
    539300   2462.4066     -4135.6918      4395.9234     -137166.83    
    539400   2428.2038      3104.9143      4302.3736     -137167.66    
    539500   2536.4076      3107.1406      4242.3715     -137170.37    
    539600   2647.969       2685.4285      4240.5097     -137168.97    
    539700   2676.6776      640.5057       4270.8369     -137167.29    
    539800   2361.9918      2313.7632      4340.8839     -137162.76    
    539900   2317.1284     -8345.6105      4431.806      -137165.97    
    540000   2323.0047     -5439.1544      4456.7505     -137161.85    
    540100   2627.1908     -344.11019      4450.1332     -137161.23    
    540200   2589.9213     -5960.3775      4438.8749     -137161.68    
    540300   2410.6662      633.29557      4400.3196     -137162.05    
    540400   2363.6834     -131.97208      4346.8473     -137166.35    
    540500   2470.2263      975.19416      4299.1097     -137168.17    
    540600   2898.3094      14637.431      4275.6402     -137166.72    
    540700   2698.0789     -7931.3944      4334.1175     -137164.93    
    540800   2501.1275     -3283.6872      4380.6826     -137167.04    
    540900   2458.3133     -9861.8995      4418.3528     -137167.44    
    541000   2401.5804     -9307.8234      4416.1988     -137163.83    
    541100   2666.8815      10470.191      4345.4847     -137164.73    
    541200   2616.4502      10787.973      4308.6708     -137162.24    
    541300   2393.5066     -3970.7506      4341.652      -137166.09    
    541400   2451.6704     -3284.4929      4367.531      -137168.73    
    541500   2290.7574     -1070.8828      4339.9187     -137161.4     
    541600   2833.1629     -232.47192      4300.524      -137169.73    
    541700   2643.4387     -1204.8658      4297.0523     -137167.81    
    541800   2493.7462      6981.4891      4297.9875     -137166.45    
    541900   2532.0263     -591.57809      4312.9403     -137169.19    
    542000   2406.3577      4509.668       4363.168      -137168.9     
    542100   2185.1779     -15895.618      4452.5088     -137163.31    
    542200   2449.2531      617.79261      4457.8003     -137159.25    
    542300   2468.8412      12002.157      4435.1665     -137157.45    
    542400   2695.9417     -9567.804       4423.871      -137167.39    
    542500   2414.7655      8202.2754      4376.657      -137166.38    
    542600   2262.7971      5026.6483      4349.1932     -137163.75    
    542700   2540.165       2757.4486      4331.6824     -137164.78    
    542800   2818.4299      5203.5493      4341.6964     -137165.93    
    542900   2469.6585      2428.0448      4370.2813     -137163.82    
    543000   2297.6218     -16565.918      4410.5919     -137164.35    
    543100   2443.7031      7582.7138      4387.0566     -137163.31    
    543200   2621.5238      5726.7231      4374.202      -137163.43    
    543300   2602.24       -9470.9303      4399.2874     -137164.88    
    543400   2165.0638     -3914.3296      4400.6206     -137161.24    
    543500   2076.4727     -6282.4901      4351.4387     -137163.59    
    543600   2593.3034      4544.9312      4240.4299     -137171.82    
    543700   2788.841       11590.061      4153.0601     -137175.93    
    543800   2467.4103      8608.5267      4162.8087     -137171.35    
    543900   2376.6189     -1521.3778      4243.5078     -137174.16    
    544000   2309.2969      4482.7518      4350.9762     -137168.33    
    544100   2462.6152      1575.3406      4474.1754     -137164.17    
    544200   2547.9596     -11603.738      4571.7724     -137164.02    
    544300   2562.5688     -21411.967      4563.4525     -137161.77    
    544400   2645.1013     -8193.6109      4443.6013     -137163.12    
    544500   2606.584       3090.3828      4320.0061     -137167.36    
    544600   2274.3882      1809.1686      4257.7161     -137165.92    
    544700   2486.0371      8815.2965      4226.4159     -137170.18    
    544800   2662.7822      5190.432       4239.2656     -137173.57    
    544900   2328.4304     -6456.8343      4296.905      -137170.13    
    545000   2123.1984     -4442.3838      4327.8672     -137168.91    
    545100   2485.7249      1118.4987      4333.6441     -137169.96    
    545200   2434.3327      1133.7031      4341.4376     -137165.7     
    545300   2475.0653      2923.2613      4353.0039     -137165.61    
    545400   2482.8127     -4746.3488      4389.5741     -137163.02    
    545500   2645.6468      4257.632       4412.2853     -137162.01    
    545600   2707.5077     -3156.3081      4449.1        -137161.39    
    545700   2402.8938     -3640.8772      4494.1784     -137160.57    
    545800   2314.8769     -6912.0396      4503.9591     -137162.97    
    545900   2578.2686     -7997.836       4432.1001     -137166.24    
    546000   2648.0318      10167.908      4316.4145     -137166.51    
    546100   2587.669       7898.4006      4285.4359     -137168.91    
    546200   2345.6583      5852.3861      4302.7288     -137164.45    
    546300   2415.4706      15483.47       4340.766      -137164.64    
    546400   2488.4903     -12979.623      4434.243      -137164.98    
    546500   2558.0609     -8253.598       4460.2897     -137162.96    
    546600   2849.7865      10590.266      4450.5107     -137161.25    
    546700   2644.2939     -4151.9071      4481.1654     -137162.01    
    546800   2605.7983     -8899.9527      4480.2308     -137166.64    
    546900   2443.3731      1405.3909      4427.7137     -137166.02    
    547000   2426.8263     -956.1815       4372.2589     -137166.64    
    547100   2630.2334      11842.367      4339.1661     -137166.82    
    547200   2615.7858      686.46125      4356.1256     -137160.92    
    547300   2609.2382      559.47331      4380.6901     -137166.47    
    547400   2419.2486     -3542.426       4390.0473     -137169.41    
    547500   2324.489      -10942.492      4377.6379     -137163.56    
    547600   2410.4026      14391.063      4319.745      -137160.1     
    547700   2584.9017      5510.6624      4301.3092     -137165.43    
    547800   2534.7637      359.83806      4321.605      -137169.15    
    547900   2388.2641     -10304.11       4337.731      -137171.98    
    548000   2206.9233     -9646.0795      4319.7629     -137172.67    
    548100   2475.6739      4540.9351      4275.081      -137171.28    
    548200   2472.1678      8275.3562      4248.9639     -137165.45    
    548300   2646.9487      3666.2342      4267.8138     -137167.59    
    548400   2508.1261     -2195.0029      4338.0039     -137168.54    
    548500   2339.7313     -6654.869       4438.479      -137165.97    
    548600   2474.4885     -10502.529      4489.9145     -137159.89    
    548700   2630.4871     -12453.171      4474.9634     -137160.21    
    548800   2520.6336      7614.2141      4432.9255     -137162.44    
    548900   2297.5124     -3363.7692      4398.1881     -137162.87    
    549000   2485.8951      1550.4024      4342.4045     -137166.15    
    549100   2468.1424      7726.7432      4312.2875     -137162       
    549200   2658.4009     -3224.3748      4326.5518     -137164.03    
    549300   2471.4435      182.3973       4317.9659     -137166.85    
    549400   2453.2414      2602.503       4285.0815     -137172.82    
    549500   2473.5731      3379.6879      4267.3433     -137171.59    
    549600   2474.9599     -2723.451       4289.0365     -137165.93    
    549700   2762.6219     -204.86286      4315.8318     -137168.86    
    549800   2381.4128     -1713.0277      4353.1562     -137164.35    
    549900   2399.6484     -5461.6552      4396.1436     -137170.39    
    550000   2311.9539      11685.024      4410.2488     -137167.04    
    550100   2346.6682      3557.3235      4464.4018     -137164.16    
    550200   2503.9592     -4373.8705      4529.3726     -137162.58    
    550300   2643.4187     -3102.2394      4550.7393     -137163.01    
    550400   2498.7643     -9932.0538      4521.7098     -137161.19    
    550500   2476.0911      7764.7923      4427.173      -137164.67    
    550600   2387.6764     -2979.9928      4347.9452     -137167.87    
    550700   2376.4837      7994.9337      4287.0164     -137168.99    
    550800   2514.2697      3418.5595      4290.2863     -137168.3     
    550900   2580.7898      7422.3273      4334.0194     -137163.67    
    551000   2744.2225     -8192.3768      4413.7491     -137164.89    
    551100   2355.6868      80.669008      4455.2037     -137160.23    
    551200   2417.123      -11340.923      4457.8099     -137168.45    
    551300   2437.7915     -7185.65        4425.3027     -137166       
    551400   2562.335       2366.9675      4365.7116     -137163.79    
    551500   2543.0307      9452.9859      4313.8986     -137163.5     
    551600   2508.8026      8764.1073      4313.1277     -137168.16    
    551700   2341.705      -3207.5812      4353.1823     -137166.37    
    551800   2435.7759     -899.66202      4373.4746     -137167.31    
    551900   2728.6642     -280.75227      4403.2592     -137167.25    
    552000   2671.1695      2733.4701      4456.8546     -137162.72    
    552100   2500.1749     -10447.891      4499.9462     -137160.7     
    552200   2420.4171      5425.3389      4470.1373     -137157.73    
    552300   2500.2722     -5.1935994      4415.7949     -137161.65    
    552400   2424.0721     -2783.0864      4359.3119     -137164.69    
    552500   2253.2323      4048.5918      4309.6601     -137168.02    
    552600   2387.8627      7519.6016      4286.1673     -137170.92    
    552700   2706.7586      487.86109      4296.376      -137168.39    
    552800   2679.3437     -1267.9052      4328.8452     -137168.27    
    552900   2299.8923      2863.6437      4362.2463     -137163.09    
    553000   2273.2861      1671.6502      4389.6255     -137161.12    
    553100   2529.8711     -1587.7349      4408.4652     -137160.01    
    553200   2716.7903     -3449.5584      4417.8443     -137163.48    
    553300   2506.3278      7047.9914      4405.7384     -137161.04    
    553400   2494.9401     -2950.3295      4385.2287     -137164.74    
    553500   2392.9382      12560.087      4347.8374     -137163.73    
    553600   2775.1502     -4568.1143      4364.7218     -137167.81    
    553700   2861.5956      2800.1258      4392.3311     -137163.61    
    553800   2531.9344      938.83379      4458.9226     -137162.93    
    553900   2434.762      -12232.205      4515.1536     -137161.93    
    554000   2554.0192      2826.3175      4499.376      -137162.83    
    554100   2603.9034     -9513.6981      4497.2084     -137163.2     
    554200   2528.9201     -3560.1066      4456.4747     -137163.27    
    554300   2568.0187     -8405.9469      4375.6236     -137170.71    
    554400   2506.9475      9901.8394      4263.3767     -137173.9     
    554500   2468.4255      3180.6075      4209.7668     -137171.97    
    554600   2724.0397      13549.674      4220.2295     -137169.53    
    554700   2575.805       4772.9375      4323.5634     -137165.09    
    554800   2522.7451     -12176.69       4462.6322     -137165.68    
    554900   2496.5127     -12537.214      4522.3393     -137165.23    
    555000   2556.3962     -8381.4794      4469.1191     -137164.66    
    555100   2469.851       15191.796      4360.2946     -137162.42    
    555200   2531.2039      5290.9415      4313.2744     -137166.34    
    555300   2342.0382      9611.1851      4329.4366     -137164.74    
    555400   2523.3587     -2769.2765      4380.2068     -137170.06    
    555500   2573.7798      1127.3286      4416.2826     -137165.34    
    555600   2665.7775     -3909.2909      4456.4474     -137159.44    
    555700   2526.5405      1377           4480.1836     -137158.9     
    555800   2343.8989     -6860.8316      4486.3661     -137161.06    
    555900   2481.6177     -7511.4353      4462.8914     -137164.11    
    556000   2589.1149     -2268.1101      4417.8102     -137163.92    
    556100   2604.5908      3259.0485      4382.9317     -137163.86    
    556200   2357.6415     -1397.5102      4372.7045     -137165.54    
    556300   2232.8296     -147.40031      4352.6647     -137164.81    
    556400   2529.0591      7007.8178      4341.8517     -137165.69    
    556500   2592.4462      4408.3451      4350.9197     -137164.59    
    556600   2401.3493      1195.331       4379.0677     -137164.08    
    556700   2438.7834     -551.33508      4418.2865     -137168.56    
    556800   2104.2354     -8802.824       4457.1329     -137161.5     
    556900   2473.4928     -9248.3711      4424.4982     -137163.71    
    557000   2845.3736      3172.9142      4350.8328     -137168.65    
    557100   2631.6382     -1962.2484      4314.2239     -137170.43    
    557200   2329.7573     -1076.2121      4288.4253     -137166.41    
    557300   2493.0914      7547.5894      4289.9923     -137168.62    
    557400   2455.0086     -11016.002      4361.9592     -137158.96    
    557500   2582.4235      8083.2067      4414.8158     -137159.87    
    557600   2614.5856     -12579.662      4479.2493     -137164.7     
    557700   2423.9069     -5996.2574      4473.3722     -137164.97    
    557800   2520.4071     -5911.8076      4443.6182     -137164.49    
    557900   2718.6848      3964.0164      4384.9637     -137165.01    
    558000   2562.3528      9198.6636      4346.8079     -137162.84    
    558100   2416.2485      7558.473       4347.6694     -137162.94    
    558200   2463.4049      1184.3181      4368.4188     -137167.48    
    558300   2395.7087     -948.93614      4372.9593     -137166.85    
    558400   2675.9867     -2094.9331      4369.5158     -137166.04    
    558500   2718.2526      5848.0225      4371.2653     -137163.2     
    558600   2627.835      -3441.9119      4392.2142     -137167.55    
    558700   2505.8082     -6532.9505      4405.4636     -137168.66    
    558800   2617.3577      2936.9471      4389.6977     -137171.6     
    558900   2530.5582      5376.8404      4398.0587     -137166.43    
    559000   2730.2182     -3965.4591      4405.0998     -137168.8     
    559100   2551.2527      1256.2766      4395.3023     -137162.33    
    559200   2520.224       5695.5748      4408.7754     -137160.87    
    559300   2262.4854     -4795.5872      4414.3383     -137159       
    559400   2405.7256      6224.1538      4338.868      -137167.85    
    559500   2369.8769      5969.8584      4289.6824     -137165.12    
    559600   2727.2922      301.96643      4293.4335     -137165.88    
    559700   2595.3734     -753.03626      4331.7488     -137165.21    
    559800   2388.2168     -1058.6243      4387.4213     -137163.38    
    559900   2444.9474     -8186.2407      4425.2496     -137164.54    
    560000   2588.0354     -3715.351       4411.9217     -137166.91    
    560100   2558.6248      13038.108      4383.7746     -137163.68    
    560200   2572.1279     -1240.1346      4392.3614     -137165.59    
    560300   2506.0762     -9434.7758      4408.2806     -137167.9     
    560400   2322.2739     -8022.6566      4401.2196     -137161.86    
    560500   2654.6724      3324.4763      4341.5039     -137164.44    
    560600   2636.274       2781.8799      4294.8605     -137165.14    
    560700   2391.8716      6368.2209      4276.5236     -137167.21    
    560800   2553.1392      2982.8494      4294.8842     -137172.46    
    560900   2415.3824      5798.0959      4352.4316     -137167.69    
    561000   2502.1295     -9313.8419      4439.1275     -137164.1     
    561100   2609.613      -9405.2293      4493.3361     -137160.34    
    561200   2489.8343     -2777.2616      4501.2397     -137159.19    
    561300   2554.3639     -6707.9576      4492.3263     -137165.53    
    561400   2301.3305     -6508.1653      4451.2204     -137159.72    
    561500   2740.5935     -293.28254      4380.7777     -137162.66    
    561600   2659.5348      1574.6564      4336.812      -137158.72    
    561700   2719.0209      1391.4794      4324.7004     -137167.23    
    561800   2433.2677      1537.2959      4343.127      -137163.16    
    561900   2523.8793      2721.1692      4380.2906     -137167.99    
    562000   2412.5497     -1749.7844      4429.7681     -137165.7     
    562100   2516.5782     -3143.9628      4464.8463     -137162.25    
    562200   2668.8555      4830.6081      4463.1447     -137161.49    
    562300   2471.5391     -3687.8796      4465.3059     -137162.72    
    562400   2384.0914     -17558.304      4416.0605     -137167.9     
    562500   2464.4013      2800.0511      4275.075      -137168.78    
    562600   2685.3684      12626.638      4178.2065     -137171.55    
    562700   2423.2892      8074.555       4153.2523     -137171.51    
    562800   2356.7022     -372.64795      4162.0551     -137175.06    
    562900   2514.4314      695.03244      4188.2663     -137176.15    
    563000   2497.379       14670.794      4256.1645     -137171.97    
    563100   2361.0732      667.25777      4403.902      -137164.49    
    563200   2609.4011     -7460.2766      4516.8736     -137163.79    
    563300   2489.3272     -11850.447      4550.0075     -137159.06    
    563400   2531.0619     -373.45843      4506.0962     -137161.96    
    563500   2455.8334      28.601488      4436.4622     -137162.4     
    563600   2407.0289      2042.4449      4368.9157     -137163.23    
    563700   2313.3768     -167.75285      4317.2589     -137169.24    
    563800   2273.0491      8067.7226      4272.1072     -137168.16    
    563900   2565.136       6539.3025      4265.0672     -137169.79    
    564000   2588.862       5883.524       4317.8599     -137167.09    
    564100   2688.556      -5487.3071      4393.5307     -137167.31    
    564200   2652.7178     -410.73797      4442.7345     -137158.95    
    564300   2610.9316     -2449.736       4490.3677     -137156.98    
    564400   2496.4782     -10607.807      4522.6715     -137160.61    
    564500   2473.4069     -8005.258       4507.5843     -137165       
    564600   2516.187      -5008.8913      4447.2612     -137164.85    
    564700   2622.1841      3426.754       4350.1267     -137164.02    
    564800   2989.4745      14273.568      4298.7534     -137164.25    
    564900   2657.897       16188.74       4322.5103     -137162.75    
    565000   2446.7111     -10527.758      4393.2627     -137165.22    
    565100   2472.0339     -8972.9643      4413.3876     -137165.49    
    565200   2663.6896      3313.6958      4393.0226     -137165.47    
    565300   2647.513      -6781.0191      4385.9923     -137164.5     
    565400   2466.9894     -1573.999       4357.3608     -137169.24    
    565500   2501.2079      2034.8258      4339.6906     -137173.6     
    565600   2407.3244      6731.2315      4351.3386     -137170.01    
    565700   2501.0567     -5147.1686      4396.4634     -137167.07    
    565800   2554.1462     -2940.4985      4414.4875     -137163.72    
    565900   2586.5119      1082.0777      4413.7919     -137164.66    
    566000   2565.895       3579.2283      4399.3915     -137165.65    
    566100   2511.4226      10010.534      4408.5636     -137166.89    
    566200   2317.7526     -13125.293      4467.8353     -137166.34    
    566300   2231.659      -2283.4262      4478.0246     -137162.55    
    566400   2606.5143     -1930.7149      4455.556      -137161.84    
    566500   2528.4369      546.47802      4416.4618     -137158.44    
    566600   2525.8955     -4968.3454      4377.7999     -137164.66    
    566700   2522.0244      6480.0395      4332.0919     -137169.62    
    566800   2535.642      -1149.1017      4332.9887     -137170.75    
    566900   2572.1509     -1391.9337      4354.1236     -137164.77    
    567000   2597.8419      7775.7949      4388.236      -137159.65    
    567100   2421.9076     -4704.1102      4443.6654     -137158.75    
    567200   2410.6628     -5580.7297      4452.3602     -137160.92    
    567300   2584.2197     -2643.2532      4417.5179     -137164.85    
    567400   2670.4902      10983.942      4381.8705     -137169.1     
    567500   2441.8896     -9641.0353      4403.4545     -137168.92    
    567600   2335.1936      1557.2155      4392.6668     -137163.25    
    567700   2613.2817     -10220.567      4401.5176     -137163.28    
    567800   2514.2621      9425.7882      4393.9314     -137162.83    
    567900   2534.4072     -7361.1979      4396.9186     -137169.22    
    568000   2378.7954      5587.5493      4365.3191     -137168.85    
    568100   2387.8792      7836.6462      4333.8413     -137170       
    568200   2568.6891      5932.9294      4331.4088     -137168.63    
    568300   2743.9045      707.66189      4364.1404     -137168.01    
    568400   2516.9368      462.62574      4439.002      -137166.89    
    568500   2381.5515     -16136.375      4549.8471     -137166.32    
    568600   2460.9187     -12984.18       4578.5656     -137162.04    
    568700   2617.704      -1662.0898      4528.9622     -137161.38    
    568800   2724.8965     -11833.092      4438.0912     -137167.45    
    568900   2371.539       10138.421      4304.9117     -137162.86    
    569000   2482.0095      19450.788      4236.1485     -137168.78    
    569100   2169.3393     -613.269        4261.5728     -137167.05    
    569200   2322.184      -7698.9005      4286.2936     -137172.28    
    569300   2505.4675      8788.7534      4258.3022     -137166.07    
    569400   2707.0964      6736.6166      4257.7805     -137168.9     
    569500   2460.6756     -383.04223      4336.9753     -137165.14    
    569600   2252.1753     -5592.9776      4416.1948     -137162.74    
    569700   2482.8804     -4019.1104      4450.188      -137160.85    
    569800   2689.0198     -4588.2402      4455.4648     -137161.25    
    569900   2498.9853     -4685.0611      4450.0439     -137161.57    
    570000   2480.5257      2332.4893      4422.8892     -137165.78    
    570100   2528.41       -2789.8062      4413          -137167.41    
    570200   2435.8977     -4881.2968      4395.0118     -137166.91    
    570300   2325.4359      1085.306       4348.6965     -137168.78    
    570400   2232.1798      4580.4402      4285.1412     -137165.31    
    570500   2667.5015      5822.5131      4223.354      -137169.18    
    570600   2637.8582      15604.009      4215.3065     -137170.21    
    570700   2370.1299      4600.7973      4285.5152     -137169.48    
    570800   2296.5473     -5243.2177      4372.4016     -137165.17    
    570900   2413.484      -6416.5845      4415.6905     -137161.17    
    571000   2514.2134     -240.66369      4407.0061     -137160.32    
    571100   2659.212      -8450.7728      4381.2001     -137163.76    
    571200   2449.8988      10968.688      4331.9418     -137165.17    
    571300   2324.066      -765.25969      4320.4043     -137168.25    
    571400   2525.4035     -4013.2978      4309.7537     -137171.82    
    571500   2521.2832      9024.5116      4298.5319     -137167.79    
    571600   2496.8016      2851.9444      4334.0685     -137164.94    
    571700   2580.5825     -1836.8844      4375.8921     -137162.13    
    571800   2661.7547     -832.77669      4404.2103     -137162.01    
    571900   2313.4511      7460.8379      4438.8508     -137159.88    
    572000   2319.3636     -12635.328      4470.19       -137164.57    
    572100   2418.6501      151.86809      4403.7411     -137166.23    
    572200   2614.1541      3231.6786      4285.7681     -137163.89    
    572300   2872.0904      15649.831      4179.464      -137167.97    
    572400   2604.4225      5437.1028      4159.9357     -137173.47    
    572500   2272.5982      5712.9188      4207.0913     -137166.82    
    572600   2564.1311      1442.7727      4298.5096     -137170.16    
    572700   2435.7884      3185.8882      4421.7157     -137161.2     
    572800   2468.3727     -17115.266      4542.8876     -137155.49    
    572900   2593.6707     -5531.8366      4548.7833     -137155.7     
    573000   2708.9613     -2894.6897      4486.4374     -137161.37    
    573100   2602.9308     -2161.9553      4400.4462     -137162.76    
    573200   2586.0999      10677.162      4315.5505     -137167.02    
    573300   2509.2248     -3861.532       4296.7213     -137170.67    
    573400   2684.601      -2624.0626      4305.5828     -137175.91    
    573500   2400.7861      2761.0027      4343.2097     -137165.88    
    573600   2656.6145     -10900.53       4396.2274     -137168.91    
    573700   2590.2839     -2473.6389      4427.0461     -137166.48    
    573800   2373.77       -1813.9313      4446.7072     -137161.65    
    573900   2499.6847     -5311.7799      4426.1734     -137164.36    
    574000   2586.8357      2819.0792      4387.6009     -137167.01    
    574100   2404.2013     -4965.4488      4381.5506     -137162.3     
    574200   2689.0291      404.87859      4379.5764     -137167.02    
    574300   2512.0217     -7223.3118      4389.9537     -137164.79    
    574400   2294.324      -5137.5563      4375.2918     -137169.27    
    574500   2420.3429      4913.2503      4336.673      -137171.21    
    574600   2448.8917      3974.7936      4342.122      -137166.3     
    574700   2474.4026      3405.9482      4377.9094     -137163.19    
    574800   2597.8944     -8949.6551      4417.3371     -137164.15    
    574900   2458.3368      5276.2677      4434.5344     -137159.05    
    575000   2525.239       2271.8469      4470.2936     -137159.11    
    575100   2507.7279      2989.9821      4490.6402     -137158.38    
    575200   2494.9146     -7205.0775      4486.4053     -137163.15    
    575300   2385.272      -374.7626       4442.2318     -137163.94    
    575400   2627.4739     -3532.5587      4397.577      -137166.49    
    575500   2684.5945      10475.047      4395.4693     -137162.41    
    575600   2498.3289     -1962.6954      4459.1645     -137160.74    
    575700   2286.6125     -15007.378      4477.023      -137161.53    
    575800   2219.3656      11197.314      4390.4637     -137167.27    
    575900   2395.5581     -2721.9728      4325.3448     -137168.2     
    576000   2488.361       14449.359      4267.0599     -137165.22    
    576100   2482.4883      10107.485      4275.2912     -137165.04    
    576200   2654.1664     -9778.9901      4329.8571     -137170.5     
    576300   2374.9081      2330.8831      4386.7253     -137163.36    
    576400   2473.7885     -11418.568      4439.0184     -137159.91    
    576500   2759.2343      316.05265      4418.5048     -137159.38    
    576600   2812.3884     -8642.6311      4405.3004     -137164.83    
    576700   2595.055      -6104.4869      4389.0081     -137163.95    
    576800   2519.7423      2339.8845      4362.5892     -137166.37    
    576900   2457.7223     -4274.535       4363.7177     -137167.73    
    577000   2533.2475     -4187.3022      4366.2601     -137171.36    
    577100   2382.8636     -5744.6601      4370.1407     -137167.15    
    577200   2604.0822      16624.201      4367.7509     -137165.4     
    577300   2691.2096     -3040.0445      4435.0619     -137165.65    
    577400   2351.0511     -7915.2573      4517.1654     -137161.45    
    577500   2252.1494     -11601.212      4541.0578     -137160.67    
    577600   2593.4747     -5990.6327      4479.7215     -137159.96    
    577700   2809.1976     -7216.274       4398.2764     -137163.23    
    577800   2573.5578      6071.7767      4328.5141     -137163.55    
    577900   2482.3211      4712.3108      4300.8641     -137167.62    
    578000   2432.494       4549.8985      4332.4963     -137167.18    
    578100   2576.1597     -6015.8496      4417.8319     -137166.36    
    578200   2626.0691     -9920.5902      4484.8124     -137162.13    
    578300   2460.1029     -1216.3369      4494.457      -137157.91    
    578400   2608.6848     -7144.5905      4481.3461     -137163.12    
    578500   2540.5199      5812.6077      4443.2768     -137162.72    
    578600   2720.3151     -15426.653      4429.5398     -137168.24    
    578700   2280.8345      357.55401      4374.8821     -137163.9     
    578800   2276.7997      1005.4684      4306.4744     -137166.5     
    578900   2932.4563      152.0363       4245.9245     -137174.76    
    579000   2571.4791      11275.436      4236.4871     -137163.9     
    579100   2513.0634      6196.052       4284.2704     -137170.89    
    579200   2383.8661     -5083.2272      4368.1284     -137169.64    
    579300   2366.4868     -3895.7035      4410.87       -137165.36    
    579400   2432.2506      10105.706      4405.4329     -137161.54    
    579500   2579.6714      3183.4934      4414.3723     -137163.98    
    579600   2441.7572     -5561.461       4448.2168     -137160.74    
    579700   2457.6423     -163.23506      4457.0502     -137158.89    
    579800   2662.4661      1960.8761      4410.421      -137161.58    
    579900   2482.9235     -6034.1265      4359.8121     -137162.07    
    580000   2593.5597      1177.8552      4302.5293     -137172.28    
    580100   2418.239       7914.7812      4285.2672     -137170.46    
    580200   2524.987       128.56241      4321.5208     -137171.54    
    580300   2652.312      -5603.9794      4360.5203     -137166.27    
    580400   2722.9933      1486.3562      4405.495      -137163.18    
    580500   2619.5035     -9765.9596      4457.8301     -137162.78    
    580600   2412.2496     -6796.5033      4443.7404     -137164.39    
    580700   2514.6104     -1402.6655      4376.6155     -137169.94    
    580800   2526.7658     -3081.0537      4311.6264     -137168.02    
    580900   2539.3348      12790.225      4267.2271     -137162       
    581000   2852.0613      175.61935      4279.0013     -137163.49    
    581100   2514.9501      5311.6629      4327.7631     -137163.3     
    581200   2470.2611     -2928.1248      4402.7948     -137167.12    
    581300   2432.2892      869.92016      4438.9617     -137165.38    
    581400   2546.2756      1034.3968      4466.3378     -137163.98    
    581500   2623.4353     -515.4034       4485.4164     -137161       
    581600   2711.1848      1109.7795      4497.9086     -137159.06    
    581700   2717.9931      2683.7689      4489.9026     -137159.5     
    581800   2630.1305     -15898.093      4461.2309     -137166.56    
    581900   2349.2444     -10795.076      4378.9749     -137164.35    
    582000   2403.2579      4395.9962      4270.5487     -137162.35    
    582100   2712.3341      14101.074      4210.8094     -137167.95    
    582200   2497.5809      6870.501       4240.4023     -137170.41    
    582300   2381.2892     -1361.4955      4321.2817     -137169.52    
    582400   2405.6562      2431.0041      4395.4975     -137166.59    
    582500   2568.1531     -4119.0249      4447.4462     -137166.6     
    582600   2545.6923     -9216.4628      4446.9648     -137166.08    
    582700   2333.309       3426.7436      4410.5488     -137164.78    
    582800   2410.7005     -7090.2895      4390.0959     -137171.4     
    582900   2295.6196     -2256.7596      4362.0979     -137164.76    
    583000   2551.7393      8017.8078      4319.4238     -137163.44    
    583100   2606.5317      3243.2557      4319.6262     -137164.89    
    583200   2442.8075     -624.61366      4335.2655     -137166.35    
    583300   2414.7264      1799.1115      4349.5019     -137168.79    
    583400   2574.7037     -13529.795      4377.669      -137166.05    
    583500   2639.7504      2963.3194      4382.8734     -137160.65    
    583600   2408.7818      585.68112      4420.7866     -137157.06    
    583700   2531.968      -3120.6716      4459.3557     -137165       
    583800   2399.7867     -11564.889      4451.3754     -137167.97    
    583900   2435.8394      736.6171       4378.3955     -137166.5     
    584000   2578.9124     -2964.4531      4299.9245     -137166.76    
    584100   2661.3106      2362.4481      4246.1229     -137169.37    
    584200   2450.4931      12005.44       4233.4473     -137167.81    
    584300   2500.7791     -246.56628      4275.1514     -137173.55    
    584400   2377.1226      221.99489      4344.4262     -137168.37    
    584500   2669.4433     -5036.2332      4397.6287     -137165.11    
    584600   2724.3648     -26.662286      4404.4474     -137167.41    
    584700   2487.2234     -2757.434       4396.609      -137167.12    
    584800   2342.1968      1629.2706      4377.3864     -137166.51    
    584900   2461.5391     -2138.7886      4370.9826     -137166.2     
    585000   2767.1091     -3155.4762      4361.362      -137162.51    
    585100   2609.527       10768.781      4367.1385     -137161.06    
    585200   2486.0906     -589.98707      4419.4392     -137166.23    
    585300   2428.2938     -7548.5539      4442.2027     -137167.6     
    585400   2401.7279      4159.4046      4409.1471     -137165.38    
    585500   2527.5611      8581.8283      4377.6672     -137162.57    
    585600   2817.8233     -7698.0934      4377.9055     -137162.9     
    585700   2599.3687      9428.0455      4376.2772     -137160.41    
    585800   2422.6767      3516.9504      4404.709      -137161.81    
    585900   2567.9892      1992.1007      4445.7804     -137167.24    
    586000   2274.1325     -17034.822      4518.6903     -137158.4     
    586100   2581.3466     -2148.1287      4486.0165     -137159.42    
    586200   2687.5606      10363.665      4373.2764     -137160.32    
    586300   2683.6635      1149.1887      4306.1092     -137167.13    
    586400   2387.4901      7055.3043      4291.8893     -137163.36    
    586500   2389.0779      13934.372      4318.9513     -137162.46    
    586600   2474.9312     -6192.936       4405.916      -137159.6     
    586700   2594.9938      6952.3817      4474.0613     -137156.11    
    586800   2622.603      -8185.678       4561.21       -137157.94    
    586900   2335.0857     -11857.464      4589.6461     -137157.83    
    587000   2461.6427     -4806.6369      4509.2503     -137164.86    
    587100   2429.7678      6104.7485      4399.0029     -137163.13    
    587200   2428.9947      11318.796      4313.678      -137161.42    
    587300   2550.7627      9928.3602      4279.3299     -137166.76    
    587400   2288.3617     -4903.9398      4300.0537     -137165.71    
    587500   2384.3176      13098.85       4300.7919     -137170.27    
    587600   2639.3145      1136.1894      4351.0163     -137168.88    
    587700   2662.9543     -3650.7525      4410.4389     -137164.95    
    587800   2617.2966     -13688.16       4459.4772     -137166.36    
    587900   2512.9207     -5295.7048      4457.2472     -137169.14    
    588000   2231.2304     -5988.3404      4409.8638     -137165.19    
    588100   2689.4515      4901.1488      4321.5217     -137167.2     
    588200   2710.1594      10310.527      4273.777      -137164.1     
    588300   2513.4968      8598.3483      4315.7722     -137162.74    
    588400   2279.212      -7805.3688      4404.9253     -137162.56    
    588500   2422.4304     -1866.5116      4434.234      -137164.63    
    588600   2684.5873      3556.1021      4419.1729     -137161.88    
    588700   2739.7893     -599.52519      4412.1606     -137161.57    
    588800   2586.6447      806.69852      4397.1284     -137164.43    
    588900   2534.5306      2042.9284      4368.9071     -137169.62    
    589000   2495.5048     -6608.7721      4337.5654     -137170.71    
    589100   2599.087       4986.3274      4309.8886     -137168.64    
    589200   2635.9802      3661.474       4327.5962     -137162.63    
    589300   2616.0732     -7361.6669      4368.3165     -137164.34    
    589400   2408.3549     -5872.0122      4383.0452     -137169.14    
    589500   2382.2644      4247.8207      4356.4821     -137167.02    
    589600   2529.4787      1141.3464      4339.2862     -137163.86    
    589700   2691.4313      2781.2597      4332.448      -137168.08    
    589800   2366.8047      347.7614       4356.2023     -137166.1     
    589900   2245.0455      2522.4788      4381.3082     -137163.49    
    590000   2417.1003     -11945.121      4395.8603     -137164.71    
    590100   2488.4468      1539.8217      4338.6953     -137162.82    
    590200   2643.7804      1493.7127      4299.7308     -137164.52    
    590300   2410.7678      281.25374      4302.5098     -137167.69    
    590400   2188.1271     -3515.134       4308.7539     -137165.5     
    590500   2554.9085      4720.3884      4298.8579     -137169.03    
    590600   2609.6984     -7362.8564      4308.0327     -137166.8     
    590700   2625.6045      9160.6189      4324.453      -137165.39    
    590800   2476.6559     -5113.1097      4403.204      -137165.02    
    590900   2279.0775     -4223.1526      4472.8775     -137166.26    
    591000   2273.359      -11705.549      4486.7107     -137162.17    
    591100   2655.3155     -157.47073      4426.889      -137165.05    
    591200   2678.723       15632.289      4368.1876     -137167.48    
    591300   2501.6279     -8143.1738      4354.7282     -137168.46    
    591400   2406.7583      5668.9824      4313.9624     -137168.72    
    591500   2544.6681      5325.8374      4298.2603     -137170.72    
    591600   2625.324       7373.7876      4339.4108     -137163.36    
    591700   2651.4562     -2546.8334      4395.3865     -137161.61    
    591800   2455.5202     -1891.4967      4434.4257     -137161.93    
    591900   2237.7661     -1173.378       4442.6259     -137161.37    
    592000   2539.0249     -7826.7943      4405.7846     -137167.89    
    592100   2651.7664      7948.1796      4365.3721     -137165.73    
    592200   2974.3035     -8810.4273      4383.852      -137163.68    
    592300   2660.1551      2959.0415      4415.2796     -137155.81    
    592400   2455.5698     -3038.2296      4458.3218     -137159.72    
    592500   2421.5163     -12115.221      4488.541      -137162       
    592600   2368.8972     -12084.8        4451.4796     -137162.95    
    592700   2505.8978      5228.2495      4342.6053     -137168.07    
    592800   2587.3899      5130.257       4272.9144     -137171.47    
    592900   2568.8002     -3838.0306      4274.1858     -137171.36    
    593000   2615.6643      882.62273      4290.6658     -137170.11    
    593100   2514.0776      3603.1215      4329.8282     -137164.28    
    593200   2734.9289      5197.5171      4394.6553     -137165.69    
    593300   2467.5547     -11416.702      4474.1767     -137162.92    
    593400   2296.3366     -11555.675      4491.9192     -137164.62    
    593500   2457.8137     -3018.0047      4437.4402     -137166.57    
    593600   2841.0628     -698.2216       4377.8792     -137166.36    
    593700   2878.5375      1246.1429      4360.9077     -137166.79    
    593800   2680.3247      327.56662      4386.337      -137167.16    
    593900   2433.0656     -8424.8676      4429.5202     -137164.78    
    594000   2392.0173     -5042.4661      4434.1686     -137162.62    
    594100   2751.9317     -6428.016       4387.5393     -137165.76    
    594200   2750.9816     -572.12471      4298.5849     -137169.96    
    594300   2428.5132      8934.1366      4221.6682     -137169.8     
    594400   2408.2912      12282.366      4198.4095     -137169.76    
    594500   2416.6563      8999.6299      4254.5163     -137167.58    
    594600   2590.9703      3298.9388      4372.4739     -137166.15    
    594700   2415.4679     -3421.5416      4527.3559     -137154.86    
    594800   2636.7614     -3870.3219      4622.8825     -137159.34    
    594900   2532.138      -13263.367      4643.9618     -137159.71    
    595000   2443.5004     -8484.8495      4561.9053     -137157.28    
    595100   2579.8393      4701.3886      4409.1577     -137160.74    
    595200   2562.648       21449.563      4283.2122     -137166.64    
    595300   2499.6596      6891.5757      4281.4426     -137170       
    595400   2362.7175      759.973        4318.9315     -137168.16    
    595500   2521.23       -3058.3628      4346.9894     -137168.4     
    595600   2639.4063     -1947.9416      4366.2698     -137165.64    
    595700   2588.8437     -1242.7319      4372.5485     -137164.15    
    595800   2344.91        1795.6526      4349.897      -137168.37    
    595900   2358.9655      4956.9937      4319.2833     -137169.41    
    596000   2553.1774      4359.11        4313.4317     -137167.93    
    596100   2649.6254      11441.311      4317.6876     -137166.93    
    596200   2434.179       1193.6003      4365.7916     -137161.62    
    596300   2215.5637      485.4434       4399.2757     -137161.27    
    596400   2269.4702      5674.3599      4394.8968     -137166.27    
    596500   2487.4769     -1530.5916      4387.9682     -137165.71    
    596600   2566.4013      1652.7993      4365.6434     -137162.32    
    596700   2759.944       5310.7686      4361.1768     -137168.75    
    596800   2579.069      -3865.694       4410.5425     -137168.22    
    596900   2387.4468     -12230.048      4461.3881     -137164.14    
    597000   2489.1338     -426.1738       4464.44       -137164.7     
    597100   2441.8055     -6021.8237      4464.9756     -137162.36    
    597200   2436.7189      5773.6416      4448.2127     -137160.34    
    597300   2529.5082     -1788.1815      4441.3473     -137162.29    
    597400   2418.4749     -4833.1901      4404.8815     -137165.79    
    597500   2257.6399      2298.0607      4338.112      -137166.39    
    597600   2392.3328      8204.7709      4294.0787     -137165.32    
    597700   2806.1553      409.44422      4310.1417     -137170.24    
    597800   2449.195      -128.68985      4349.9234     -137162.78    
    597900   2519.0488     -3183.9709      4380.9343     -137167.52    
    598000   2494.9454     -30.345905      4403.6382     -137171.25    
    598100   2194.394      -2482.894       4423.0796     -137167.5     
    598200   2282.3095     -1796.9242      4410.0461     -137162.57    
    598300   2542.6205      7894.4558      4367.6656     -137161.69    
    598400   2629.9303      5886.1683      4345.3213     -137163.98    
    598500   2487.671      -1023.12        4366.9648     -137165.55    
    598600   2411.3087     -3790.2953      4391.3419     -137165.86    
    598700   2488.8366      1727.9506      4394.7036     -137161.55    
    598800   2808.0472      6705.0444      4403.0074     -137165.64    
    598900   2548.6715      1204.7154      4462.8227     -137162.58    
    599000   2366.0125      1355.5593      4516.328      -137158.14    
    599100   2377.3098      2338.9948      4543.9895     -137156.76    
    599200   2575.8773     -1298.3851      4541.0707     -137158.85    
    599300   2786.6483     -9548.8509      4506.1591     -137158.85    
    599400   2847.6181      5443.5241      4431.7207     -137163.82    
    599500   2450.6717      5009.9072      4387.8792     -137162.25    
    599600   2436.8875      3773.2179      4374.6102     -137164.56    
    599700   2457.2604     -1726.67        4379.0636     -137164.13    
    599800   2510.7875      7744.0908      4399.9821     -137161.12    
    599900   2633.7276     -2077.8834      4454.2252     -137161.46    
    600000   2476.7665     -9445.8779      4485.6596     -137160.06    
    600100   2484.9164     -3641.3829      4439.5313     -137167.81    
    600200   2535.6569     -5154.4765      4349.8341     -137173.32    
    600300   2403.9981     -692.42512      4263.8168     -137170.72    
    600400   2441.5377      20266.03       4207.7387     -137166.31    
    600500   2686.8022      20344.881      4257.9732     -137167.25    
    600600   2423.4459     -110.29703      4420.0234     -137166.43    
    600700   2263.8733     -15359.313      4539.1372     -137164.16    
    600800   2555.1767     -13261.734      4546.7227     -137164.72    
    600900   2500.4339      5221.5919      4489.834      -137160.52    
    601000   2424.2717     -6025.647       4435.1448     -137157.36    
    601100   2588.6693      6360.1757      4370.8557     -137160.19    
    601200   2390.3273      11871.321      4333.7794     -137160.43    
    601300   2468.7103      7780.5488      4331.5936     -137169.46    
    601400   2312.1012     -1641.2232      4348.4901     -137166.25    
    601500   2535.0764      4730.4732      4360.5283     -137167.04    
    601600   2595.1007     -3869.4215      4413.4414     -137162.14    
    601700   2615.9225     -5507.2704      4460.6849     -137163.27    
    601800   2251.6205     -9427.4532      4473.2627     -137165.78    
    601900   2417.686      -6610.4892      4418.5619     -137168.33    
    602000   2587.0559      3421.6738      4340.2687     -137163.81    
    602100   2572.7325      11571.812      4297.5117     -137164.27    
    602200   2524.1605      1535.3931      4308.0059     -137169.04    
    602300   2525.366      -1927.369       4346.7766     -137172.92    
    602400   2384.7416     -6474.6887      4386.88       -137166.1     
    602500   2627.3329      7956.745       4372.2986     -137162.22    
    602600   2572.7496     -1067.4111      4389.9725     -137162.63    
    602700   2477.1581      2319.6457      4435.881      -137162.77    
    602800   2312.6644     -12185.662      4472.32       -137161.45    
    602900   2286.8135     -8151.2853      4430.1232     -137159.05    
    603000   2702.8543      10932.658      4328.2871     -137161.58    
    603100   2642.7383      15188.242      4283.4862     -137164.67    
    603200   2466.9785      1820.6372      4325.08       -137165.96    
    603300   2402.5652      7881.7623      4403.1799     -137167.17    
    603400   2424.6637     -11026.487      4510.6988     -137163.18    
    603500   2489.8722     -3504.5933      4546.1388     -137158.76    
    603600   2560.6529     -9670.8324      4530.5562     -137160.96    
    603700   2493.1463      517.75372      4462.6475     -137159.96    
    603800   2439.2164     -3108.5296      4385.1884     -137161.82    
    603900   2523.2178     -6195.1939      4319.5267     -137171.44    
    604000   2316.5219      2831.1646      4268.1645     -137169.38    
    604100   2638.3596      3954.1063      4260.1213     -137172.27    
    604200   2429.2504      6340.707       4298.9262     -137161.92    
    604300   2535.3725      9523.7266      4366.7189     -137160.86    
    604400   2587.8468      1408.4295      4457.333      -137153.85    
    604500   2638.2583     -7625.7814      4525.5116     -137158.78    
    604600   2540.0872     -12944.9        4526.3728     -137163.93    
    604700   2511.8588     -2447.4694      4452.4899     -137166.53    
    604800   2355.7595      5590.3293      4362.2318     -137162.95    
    604900   2669.8031      6692.7618      4291.8869     -137164.73    
    605000   2813.9345      5461.31        4280.7058     -137163.54    
    605100   2405.4828      14472.182      4335.6078     -137163.18    
    605200   2386.8333     -6979.9956      4452.5478     -137165.86    
    605300   2543.2066     -10551.77       4521.0301     -137165.47    
    605400   2537.5313     -7768.1446      4514.507      -137160.33    
    605500   2462.9958     -4158.6431      4439.1401     -137156.97    
    605600   2674.1708      4999.7553      4352.907      -137164.17    
    605700   2291.8082     -3939.7137      4329.3593     -137164.87    
    605800   2547.6138      2149.6703      4328.6059     -137170.68    
    605900   2492.8371     -7109.45        4354.7963     -137164.49    
    606000   2676.0225      8105.2874      4365.7493     -137163.26    
    606100   2658.9359     -4898.1491      4412.6212     -137163.16    
    606200   2332.0563      4631.6766      4456.5193     -137160.97    
    606300   2315.8533     -11394.778      4497.8865     -137163.48    
    606400   2450.6119     -8992.6747      4450.1309     -137166.35    
    606500   2583.2499      4706.4188      4362.4811     -137164.42    
    606600   2643.0536      2012.878       4303.4413     -137166.51    
    606700   2487.2606     -6.3506527      4280.3434     -137169.59    
    606800   2388.8529      867.34179      4278.1416     -137169.07    
    606900   2605.5632      10486.191      4285.6835     -137170.67    
    607000   2673.9983     -2699.3254      4338.5632     -137166.69    
    607100   2878.8706     -1250.9863      4374.0961     -137164.38    
    607200   2532.5242      12253.315      4398.985      -137160.74    
    607300   2318.1182     -8296.4315      4440.7094     -137162.22    
    607400   2324.9724      6345.6124      4435.6417     -137161.41    
    607500   2523.8661      2040.4313      4453.2715     -137160.89    
    607600   2607.4239     -9031.1985      4444.0809     -137161.73    
    607700   2399.7378      2228.225       4396.6426     -137162.3     
    607800   2156.5161     -7235.5392      4355.9072     -137165.33    
    607900   2472.9377      16399.448      4265.7731     -137171.82    
    608000   2447.6226      7116.7847      4259.9192     -137167.21    
    608100   2533.793       7231.1121      4335.1835     -137165.22    
    608200   2503.4305     -9094.0082      4439.8608     -137160.57    
    608300   2756.4783     -7296.8429      4481.0474     -137157.89    
    608400   2770.2981      2414.6645      4451.0392     -137161.29    
    608500   2518.6143     -11850.36       4421.1426     -137162.87    
    608600   2487.3489      7532.4159      4361.8886     -137163.79    
    608700   2563.956      -8592.7564      4347.9127     -137165.97    
    608800   2424.271       8076.2974      4336.7715     -137166.93    
    608900   2404.6047     -4585.001       4372.1919     -137172.25    
    609000   2299.1802     -8146.3969      4376.318      -137166.54    
    609100   2612.7355      4789.9117      4354.4816     -137165.18    
    609200   2698.5042     -766.41894      4359.8414     -137168.46    
    609300   2458.7716     -3987.8662      4365.2646     -137167.12    
    609400   2489.1862     -10882.342      4368.1802     -137169.38    
    609500   2530.8554      10241.668      4338.977      -137165.13    
    609600   2630.1869      5875.4201      4343.9704     -137162.61    
    609700   2395.4767      6322.1398      4378.0793     -137161.49    
    609800   2369.1219     -17221.72       4422.5227     -137166.27    
    609900   2651.8244     -609.66725      4385.746      -137169.4     
    610000   2762.7829      9365.1984      4341.7291     -137162.51    
    610100   2606.9639      4013.7882      4344.7867     -137164.24    
    610200   2560.8003     -2751.2926      4372.7853     -137168.56    
    610300   2373.0763     -5709.2017      4396.2462     -137165.34    
    610400   2470.9292      7599.1074      4404.8516     -137163.76    
    610500   2825.7535     -8452.9676      4442.7857     -137165.55    
    610600   2616.6524     -8919.2502      4458.2215     -137161.58    
    610700   2597.5868     -1769.4371      4422.5821     -137163.25    
    610800   2569.9342      5558.3359      4367.9922     -137169.8     
    610900   2363.1907     -8299.6259      4321.9265     -137168.74    
    611000   2434.24        15915.94       4272.482      -137166.82    
    611100   2573.157       1139.5562      4318.599      -137165.38    
    611200   2498.9114      2299.7033      4391.4118     -137164.09    
    611300   2368.0965     -1315.1121      4452.2705     -137164.28    
    611400   2297.5263     -6452.6427      4507.4661     -137160.51    
    611500   2579.03       -3631.2677      4509.8712     -137163.49    
    611600   2500.7551     -2408.6161      4478.8813     -137158.92    
    611700   2571.3668     -6337.4144      4441.4937     -137160.07    
    611800   2514.2253      3954.8353      4379.7247     -137166.89    
    611900   2575.2604     -1476.7258      4320.6584     -137175.98    
    612000   2392.9422      9542.239       4273.8319     -137171.95    
    612100   2534.4185      9838.4721      4264.7081     -137171       
    612200   2547.3699      4917.4774      4322.5912     -137163.91    
    612300   2553.0911     -5804.483       4421.0144     -137163.96    
    612400   2314.1157     -8872.5433      4511.2334     -137157.03    
    612500   2537.4933     -13389.898      4542.0569     -137159.08    
    612600   2458.2764     -4246.4303      4476.9199     -137155.87    
    612700   2666.7142      12900.603      4377.8651     -137162.41    
    612800   2398.6229     -3046.7679      4350.742      -137164.92    
    612900   2306.2326      11239.949      4343.0232     -137163.47    
    613000   2547.2395     -3592.4812      4364.8456     -137168.19    
    613100   2416.0807     -6324.1812      4375.5319     -137162.91    
    613200   2565.6621      5974.3129      4363.3269     -137167.21    
    613300   2495.9099     -1355.3168      4382.0728     -137168.25    
    613400   2493.418      -6651.6665      4408.0833     -137171.71    
    613500   2390.1474     -11378.464      4411.5785     -137169.54    
    613600   2641.0497     -3272.7927      4365.639      -137166.95    
    613700   2613.2563      295.84316      4313.84       -137166.87    
    613800   2371.4234      4666.6403      4297.1646     -137166.43    
    613900   2476.0207      2251.3311      4312.1278     -137170.98    
    614000   2462.0165     -11437.137      4333.9921     -137168.36    
    614100   2590.2642      8693.1401      4347.189      -137161.86    
    614200   2648.5489     -1433.1142      4414.4948     -137164       
    614300   2618.3137     -14885.779      4450.8271     -137167.91    
    614400   2253.0342     -2097.0506      4416.5789     -137160.06    
    614500   2603.6349     -8019.7377      4351.8943     -137166.84    
    614600   2643.4527      8683.3029      4287.743      -137165.54    
    614700   2341.8637      6592.8382      4287.2839     -137164.8     
    614800   2429.6307     -793.95513      4305.109      -137170.97    
    614900   2395.639      -1383.6422      4310.9142     -137167.08    
    615000   2769.9021      2267.4336      4328.6339     -137168.16    
    615100   2572.2602      365.08763      4373.3118     -137164.73    
    615200   2592.3079     -8784.8543      4435.4725     -137168.89    
    615300   2334.3054     -4814.2656      4473.6785     -137162.47    
    615400   2580.1846     -4081.5927      4454.0781     -137161.71    
    615500   2737.3961     -2886.3321      4426.5601     -137159.85    
    615600   2510.6754      4364.4317      4416.1499     -137158.2     
    615700   2531.9042     -8079.6109      4404.9214     -137163.3     
    615800   2492.3486      3057.8541      4361.4577     -137165.69    
    615900   2371.0093     -1768.1319      4327.4925     -137167.8     
    616000   2354.8528      5019.1162      4296.6882     -137167.82    
    616100   2791.3797      3461.3389      4311.4683     -137168.72    
    616200   2604.3108     -3974.8359      4390.1941     -137163.94    
    616300   2442.7167     -8542.8268      4467.6784     -137165.34    
    616400   2339.3707     -3414.024       4481.855      -137163.72    
    616500   2350.1775     -3319.3054      4453.3169     -137159.56    
    616600   2426.0301      6198.4411      4393.8229     -137160.07    
    616700   2683.3521     -5355.8451      4354.694      -137167.95    
    616800   2446.5057      9427.5643      4328.9136     -137165.66    
    616900   2407.1488      7594.6548      4337.9683     -137166.81    
    617000   2519.181      -4127.4346      4362.5617     -137166.04    
    617100   2737.0961     -565.78089      4376.0232     -137164.81    
    617200   2628.5632     -6750.2738      4398.8548     -137164.19    
    617300   2569.0606     -12181.611      4391.2908     -137170.36    
    617400   2505.6747      7952.5636      4348.6776     -137170.63    
    617500   2347.7869      4977.6284      4360.8192     -137165.33    
    617600   2426.2284      3554.6535      4387.9592     -137166.16    
    617700   2475.7875     -2541.2155      4422.3477     -137167.32    
    617800   2605.6062     -2524.0549      4464.2291     -137160.42    
    617900   2489.6516     -3179.8996      4472.1719     -137153.54    
    618000   2541.627      -6492.0055      4426.2194     -137159.85    
    618100   2609.1474     -704.42872      4351.3634     -137169.56    
    618200   2332.5277      16537.389      4293.8008     -137165.03    
    618300   2513.6863      4994.6664      4308.7548     -137168.39    
    618400   2562.0556     -3757.7796      4383.1429     -137166.43    
    618500   2695.7299     -573.23525      4470.834      -137162.7     
    618600   2481.0653      3133.1013      4581.6385     -137151.33    
    618700   2672.591      -22239.556      4662.8301     -137156.4     
    618800   2339.3278     -6799.2386      4584.7332     -137159.32    
    618900   2443.753      -1480.5402      4443.976      -137162.84    
    619000   2576.5         9422.9445      4308.5058     -137164.48    
    619100   2544.9065      8660.0384      4259.5429     -137168.01    
    619200   2243.9762     -2356.7993      4293.9991     -137166.95    
    619300   2312.2388      9157.8158      4319.646      -137166.71    
    619400   2435.8551     -11043.658      4374.7969     -137164.16    
    619500   2621.2416     -2633.247       4411.7045     -137167.7     
    619600   2523.7303      1477.9069      4442.7397     -137164.83    
    619700   2563.6014     -9257.637       4480.9666     -137162.59    
    619800   2643.9422     -5839.938       4477.5857     -137158.03    
    619900   2805.96        7477.2201      4429.1656     -137159.41    
    620000   2516.3084      2766.8389      4413.6855     -137163.26    
    620100   2470.0662     -13201.287      4415.7205     -137167.2     
    620200   2522.2828     -2024.495       4355.438      -137170.14    
    620300   2543.3014      2687.3087      4290.2447     -137166.48    
    620400   2594.7109      23588.975      4269.8822     -137164.63    
    620500   2486.7992     -5355.4179      4340.684      -137168.47    
    620600   2272.9721     -7744.1598      4404.2242     -137167.02    
    620700   2352.9959     -9127.8111      4425.3693     -137163.4     
    620800   2542.8984      6235.1394      4393.104      -137163.7     
    620900   2599.4794     -2557.3878      4381.0549     -137165.76    
    621000   2533.4046     -1885.2771      4357.2463     -137169.75    
    621100   2338.6104     -3270.5825      4305.2399     -137167.43    
    621200   2622.2408      13175.301      4254.8306     -137173.19    
    621300   2539.5251      1316.9564      4294.5112     -137170.35    
    621400   2529.8807     -3684.1621      4368.0449     -137169.36    
    621500   2361.984      -3734.7976      4433.3976     -137162.72    
    621600   2718.7319     -15563.561      4472.5197     -137165.82    
    621700   2727.7097     -5866.58        4430.4248     -137165.78    
    621800   2327.7911      2830.0704      4370.0438     -137166.48    
    621900   2288.3405     -4654.5861      4354.2588     -137166.38    
    622000   2630.1658      189.02679      4337.1669     -137170.4     
    622100   2629.1675      6713.1222      4356.8804     -137168.95    
    622200   2379.1592     -7865.0538      4426.2423     -137164.63    
    622300   2390.7808     -2156.6275      4449.3273     -137164.6     
    622400   2536.7452      1488.974       4433.5881     -137161.85    
    622500   2644.5283     -842.70913      4407.4212     -137162.17    
    622600   2454.8434     -1981.8233      4375.7679     -137164.56    
    622700   2422.9143      4209.9832      4340.6062     -137168.17    
    622800   2484.5113      20.096026      4328.4074     -137169.81    
    622900   2393.2717     -1975.7231      4330.2472     -137166.83    
    623000   2530.8511      11320.57       4320.3557     -137166.69    
    623100   2808.4694      3571.7997      4361.305      -137163.56    
    623200   2508.9803      1818.5592      4418.041      -137160.42    
    623300   2405.3497     -13216.208      4461.3026     -137163.36    
    623400   2354.3505      698.35825      4434.1658     -137161.92    
    623500   2679.4909      3516.2049      4395.9902     -137166.85    
    623600   2613.0527      7231.2279      4374.1447     -137164.16    
    623700   2285.2676      4219.244       4376.6808     -137162.39    
    623800   2334.3668      9715.2455      4390.2255     -137165.19    
    623900   2430.8428     -1727.1101      4414.1507     -137164.88    
    624000   2569.9268      654.29285      4425.8901     -137161.33    
    624100   2623.6872     -7337.9819      4421.2982     -137160.48    
    624200   2419.0791     -4201.0657      4398.2556     -137162.7     
    624300   2320.0171     -7019.848       4376.1849     -137165.33    
    624400   2490.0564     -3592.1039      4324.9079     -137165.86    
    624500   2586.9167      20068.896      4251.275      -137164.39    
    624600   2632.6854      8852.5748      4292.3673     -137167.99    
    624700   2420.3735     -4936.8577      4397.8763     -137169.5     
    624800   2322.492      -17875.719      4476.7361     -137164.38    
    624900   2497.2009     -3290.2967      4449.5485     -137164.45    
    625000   2593.2997     -4467.4701      4389.5639     -137168.36    
    625100   2440.0172      5380.5016      4347.2584     -137167.17    
    625200   2369.3087     -6123.6967      4351.3593     -137166.77    
    625300   2279.7116      3964.4756      4350.9156     -137165.47    
    625400   2438.3464     -4067.8967      4356.6143     -137163.08    
    625500   2735.3434      6730.4027      4336.665      -137166.43    
    625600   2414.1633     -5285.1192      4342.3485     -137162.6     
    625700   2490.771      -6225.8694      4344.8683     -137167.98    
    625800   2392.7409      1060.0152      4336.7352     -137166.3     
    625900   2492.9372      9347.1997      4331.2304     -137165.41    
    626000   2552.632       3644.2097      4353.3777     -137163.03    
    626100   2599.5872     -1546.8384      4393.864      -137163.48    
    626200   2356.1582     -9615.8864      4417.3986     -137160.73    
    626300   2485.0584     -2476.9877      4373.8004     -137168.69    
    626400   2439.3654      5311.6553      4313.1413     -137172.86    
    626500   2252.8012      8987.8206      4294.408      -137169.28    
    626600   2444.0732     -427.20232      4315.0278     -137164.38    
    626700   2566.1273      1440.8807      4332.8132     -137164.03    
    626800   2521.3658     -8849.5435      4366.6025     -137161.58    
    626900   2646.1555      5195.3177      4380.7143     -137162.79    
    627000   2465.5668     -11293.937      4391.0394     -137164.79    
    627100   2461.3846     -277.50386      4346.2538     -137171.13    
    627200   2375.5298     -1921.7368      4310.6771     -137164.97    
    627300   2622.2017      5829.1538      4300.1263     -137167.41    
    627400   2423.7485     -2201.7924      4331.5652     -137164.02    
    627500   2560.6373     -5890.4254      4361.0894     -137166.85    
    627600   2505.2294      2418.0418      4372.815      -137162.23    
    627700   2929.7084      192.0987       4389.0102     -137165.03    
    627800   2614.7615     -58.736377      4413.57       -137158.51    
    627900   2393.61        3316.618       4430.2313     -137161.25    
    628000   2473.1357      6044.3882      4433.0431     -137165.17    
    628100   2417.0385     -4755.1694      4430.617      -137162.1     
    628200   2709.8275      11300.055      4392.1677     -137165.73    
    628300   2614.3975      10932.599      4423.553      -137160.6     
    628400   2376.1293     -10935.044      4523.5329     -137161.01    
    628500   2225.2223     -16194.791      4570.7347     -137160.52    
    628600   2350.308      -2514.6901      4475.0192     -137158.48    
    628700   2765.0274      2645.7139      4317.877      -137166.4     
    628800   2653.9578      7088.6277      4226.4828     -137169.28    
    628900   2485.7559      9539.7975      4232.9006     -137171.64    
    629000   2415.6095     -5068.3911      4302.0695     -137170.71    
    629100   2414.8138      6730.8443      4367.6346     -137164.34    
    629200   2461.1693     -11193.059      4449.5459     -137159.91    
    629300   2676.0843     -4516.2512      4469.6424     -137165.71    
    629400   2448.2741     -1764.9909      4485.502      -137162.8     
    629500   2500.8483     -13326.336      4500.4887     -137165.91    
    629600   2629.9904     -2102.7766      4454.6966     -137163.27    
    629700   2658.9654      2013.8847      4405.5641     -137160.41    
    629800   2513.5548      3976.1094      4362.734      -137163.42    
    629900   2538.0723     -3663.9583      4330.507      -137169.33    
    630000   2447.7248      4097.4598      4301.037      -137167.52    
    630100   2540.0767     -7797.4081      4290.8718     -137168.69    
    630200   2500.1222      14482.819      4279.0306     -137166.41    
    630300   2546.7378     -6157.5196      4317.6016     -137167.2     
    630400   2468.478      -374.91599      4341.5593     -137167.49    
    630500   2515.1884      207.96732      4341.4313     -137171.17    
    630600   2441.3823      683.64833      4328.2185     -137167.15    
    630700   2474.4325      13215.908      4330.9476     -137162.11    
    630800   2734.8876     -3062.3504      4387.9841     -137165.68    
    630900   2454.4444     -22333.176      4467.1397     -137161.24    
    631000   2391.6779      502.86601      4438.2873     -137167.86    
    631100   2404.5306      12515.496      4368.3584     -137169.02    
    631200   2382.1596      5700.3207      4313.1854     -137163.05    
    631300   2806.7024      12713.181      4303.0103     -137165.26    
    631400   2489.072       4736.9436      4391.9271     -137161.95    
    631500   2439.7455     -10717.043      4491.118      -137164.24    
    631600   2297.9197     -1640.9964      4527.9518     -137158.92    
    631700   2586.7567     -1997.2463      4497.9793     -137160.85    
    631800   2557.3975     -903.7219       4420.1403     -137159.93    
    631900   2599.7636      3946.2423      4351.4279     -137167.07    
    632000   2416.9335      568.57833      4337.3577     -137166.78    
    632100   2491.6088     -3382.2759      4365.2618     -137167.46    
    632200   2401.2656      6690.7277      4411.238      -137161.43    
    632300   2571.3584     -4322.6544      4494.685      -137163.19    
    632400   2472.8062     -13972.508      4573.9816     -137157.11    
    632500   2635.3483     -2161.1238      4577.0555     -137155.78    
    632600   2666.1564     -10809.667      4552.0069     -137157.81    
    632700   2557.7085     -11522.805      4487.8904     -137165.58    
    632800   2539.9136      2995.7058      4370.6007     -137168.58    
    632900   2366.4366      11646.743      4267.37       -137162.87    
    633000   2682.7524      5414.6326      4222.9984     -137167.61    
    633100   2626.2357      17699.224      4252.7224     -137167.08    
    633200   2202.8528     -2968.0796      4356.0664     -137163.42    
    633300   2419.8511     -3129.9195      4424.5785     -137168.9     
    633400   2551.9678      6455.0861      4482.1303     -137165.39    
    633500   2518.4238     -15436.729      4521.3882     -137160.72    
    633600   2544.8439     -5490.1168      4472.2591     -137161.95    
    633700   2654.5698      1311.4985      4396.4839     -137166.75    
    633800   2604.3064      1317.8766      4334.4986     -137168.62    
    633900   2492.7687      11086.26       4318.2255     -137167.64    
    634000   2418.753      -8980.0364      4360.0568     -137167.37    
    634100   2427.7949      3118.7303      4364.76       -137166.48    
    634200   2544.1407     -4257.3892      4371.0109     -137169.04    
    634300   2446.111       8143.4431      4387.8878     -137167.72    
    634400   2384.3641     -2766.0459      4425.4165     -137164.64    
    634500   2610.9938      3294.5016      4440.421      -137162.14    
    634600   2668.1108     -2787.4348      4464.9729     -137162.21    
    634700   2467.5003     -8292.1091      4468.5196     -137163.7     
    634800   2426.5229      746.57875      4429.0412     -137164.71    
    634900   2429.2643      2601.8901      4372.7931     -137163.37    
    635000   2701.1297      6930.8069      4323.5844     -137166.67    
    635100   2441.5325      5935.1499      4322.9366     -137160.58    
    635200   2317.8107      2177.2432      4377.8757     -137165.84    
    635300   2238.7524     -9819.284       4440.158      -137167.77    
    635400   2376.3169     -8020.7092      4453.1988     -137164.05    
    635500   2466.6729     -3576.963       4400.3509     -137162.35    
    635600   2568.5604      11465.927      4295.6146     -137164.77    
    635700   2560.3852      10129.072      4252.1345     -137170.42    
    635800   2241.9433      9655.5144      4300.5937     -137167.45    
    635900   2263.3152     -8564.852       4388.2644     -137164.49    
    636000   2432.9301     -9612.6664      4425.3075     -137164.52    
    636100   2523.2359     -370.40524      4390.1011     -137164.21    
    636200   2679.9164      3965.1116      4336.1536     -137166.01    
    636300   2553.2581      5757.1999      4301.4644     -137167.12    
    636400   2497.4945     -3799.7575      4310.0753     -137174.56    
    636500   2372.227       3246.6391      4342.2734     -137170.26    
    636600   2427.1659      6072.7494      4402.5395     -137166.51    
    636700   2456.3096     -6367.6613      4485.6745     -137163.55    
    636800   2365.7229     -4408.8323      4540.8796     -137156.97    
    636900   2411.9762      4163.23        4541.7246     -137154       
    637000   2563.1625     -2111.5768      4523.332      -137156.86    
    637100   2666.2959     -1211.6582      4458.8219     -137164.05    
    637200   2416.0949      79.783118      4374.5521     -137161.13    
    637300   2437.1957      7320.0888      4298.1192     -137163.61    
    637400   2472.1159      7314.1089      4270.4298     -137167.21    
    637500   2306.1277      4853.157       4286.3886     -137168.51    
    637600   2335.7885     -6967.186       4307.0882     -137175.36    
    637700   2369.4123      481.76255      4310.9918     -137172.48    
    637800   2571.1652      6782.4639      4349.4725     -137168.75    
    637900   2481.901      -5582.1206      4441.5289     -137162.02    
    638000   2600.6103     -3297.9999      4500.6886     -137160.88    
    638100   2589.7552     -438.7781       4527.9403     -137160.21    
    638200   2477.8565     -14816.8        4534.88       -137166.38    
    638300   2496.4284     -1791.6794      4466.8337     -137169.37    
    638400   2408.9969      825.14112      4365.5424     -137164.42    
    638500   2384.1105     -1051.8497      4274.1444     -137159.72    
    638600   2777.9938      9632.9877      4194.7735     -137170.26    
    638700   2385.7641      22323.063      4218.1367     -137165.69    
    638800   2336.4256      398.8734       4334.5916     -137166.06    
    638900   2470.0931     -8256.8512      4429.1442     -137164.34    
    639000   2657.1109     -4331.5448      4453.8777     -137162.68    
    639100   2721.2191     -4747.0785      4441.6827     -137163.97    
    639200   2594.6002     -6808.7464      4425.048      -137165.06    
    639300   2468.9967     -7502.9531      4377.8493     -137164.14    
    639400   2631.9728      5030.1061      4301.6518     -137170.82    
    639500   2443.7339     -1236.4521      4256.3892     -137173.03    
    639600   2334.1528      13268.698      4214.7283     -137172.34    
    639700   2485.4395      3156.5773      4222.9867     -137172.7     
    639800   2656.1845      8440.6032      4274.9835     -137167.69    
    639900   2578.622      -3619.8197      4397.5624     -137163.81    
    640000   2578.139      -5659.7344      4485.4939     -137164.8     
    640100   2442.9347     -9136.8498      4510.7934     -137164.09    
    640200   2438.0049     -4317.2653      4481.8801     -137164.01    
    640300   2748.9517     -8789.0598      4398.2101     -137164.59    
    640400   2718.9839      16500.95       4307.2915     -137162.18    
    640500   2614.012       2718.5784      4320.3362     -137168.06    
    640600   2439.3617     -2585.7738      4381.3078     -137165.85    
    640700   2452.9866     -13713.383      4411.3032     -137164.47    
    640800   2487.7147      13407.793      4377.6775     -137160.75    
    640900   2719.9368      9843.6624      4379.3833     -137160.28    
    641000   2750.2197      338.851        4420.4967     -137160.46    
    641100   2393.4241     -11262.153      4455.73       -137160.79    
    641200   2466.974       2507.6467      4397.0838     -137165.59    
    641300   2392.4843      9666.375       4330.2009     -137163.3     
    641400   2578.8536      5163.3265      4307.4358     -137169.47    
    641500   2379.8925     -6841.2265      4340.351      -137169.05    
    641600   2329.2682      2680.1238      4360.8823     -137168.73    
    641700   2511.056       6784.9008      4380.2223     -137164.29    
    641800   2449.0556      2887.6476      4417.6116     -137159.88    
    641900   2538.8597      4873.7547      4452.8933     -137162.03    
    642000   2568.4705     -1602.4752      4487.6359     -137167.43    
    642100   2287.5225     -16727.676      4520.4602     -137166.36    
    642200   2321.489      -13281.844      4474.3153     -137163.43    
    642300   2646.13        18318.341      4368.341      -137165.82    
    642400   2666.2686      381.10375      4366.4042     -137168.54    
    642500   2292.5795      2625.6661      4399.0853     -137162.61    
    642600   2365.4067     -6170.0826      4428.3491     -137163.58    
    642700   2722.4689     -5802.8161      4446.1937     -137163.71    
    642800   2647.8686     -2585.8607      4464.4781     -137160.43    
    642900   2523.7576     -7712.4662      4494.2249     -137162.96    
    643000   2338.9942     -257.5961       4495.957      -137161.6     
    643100   2272.7766     -4684.6155      4477.4325     -137158.69    
    643200   2688.7483     -4301.1009      4419.5257     -137165.56    
    643300   2790.5481      5423.9122      4341.4862     -137165.07    
    643400   2615.9809      13063.486      4329.0591     -137165.24    
    643500   2320.5113      6179.9937      4414.2636     -137165.03    
    643600   2224.8897     -12183.333      4523.6119     -137160.03    
    643700   2575.3891     -14938.547      4542.8393     -137161.99    
    643800   2558.3935      1364.0118      4466.7391     -137160.44    
    643900   2691.6179     -601.2034       4381.2086     -137168.19    
    644000   2454.9245      13677.324      4316.7488     -137168.78    
    644100   2418.1613      79.032388      4301.405      -137168.26    
    644200   2484.9379      5813.7773      4297.8847     -137168.23    
    644300   2460.7328      6330.4869      4341.2817     -137165.11    
    644400   2571.9391     -855.7959       4412.295      -137161.88    
    644500   2834.5841     -11469.207      4498.8331     -137163.75    
    644600   2527.6144     -13050.785      4557.6249     -137160.69    
    644700   2377.3205     -8391.9937      4534.7456     -137162.91    
    644800   2428.1517      2717.6938      4454.4876     -137161.9     
    644900   2641.656       4359.4101      4371.094      -137165.8     
    645000   2674.9326     -3430.4902      4313.1175     -137170.28    
    645100   2336.0734      4668.0054      4277.6115     -137168.01    
    645200   2368.7593     -4893.5242      4273.1876     -137169.18    
    645300   2539.0146      6676.8556      4267.1716     -137167.02    
    645400   2659.8629     -1431.4535      4305.6586     -137166.39    
    645500   2434.2914     -1888.9137      4368.3606     -137163.62    
    645600   2154.4668     -4401.874       4401.2324     -137166.54    
    645700   2276.7641     -5939.0824      4381.1546     -137172.41    
    645800   2446.7185     -8794.4938      4335.5433     -137170.95    
    645900   2526.0475      4454.8194      4263.4516     -137167.73    
    646000   2576.2981      24625.567      4213.8287     -137167.52    
    646100   2485.5638      5540.9967      4277.0729     -137172.82    
    646200   2309.6574     -5704.0253      4360.5535     -137171.04    
    646300   2234.4545     -11122.368      4378.5744     -137165.06    
    646400   2546.4134     -1037.5818      4327.122      -137167.74    
    646500   2541.6372      15832.69       4313.0262     -137164.19    
    646600   2451.2428      1337.8252      4377.2149     -137162.47    
    646700   2286.2477     -314.76725      4439.186      -137161.53    
    646800   2274.5081     -12316.183      4456.7399     -137167.09    
    646900   2408.7537      8658.641       4400.7698     -137167.2     
    647000   2645.4319      0.35772882     4376.5402     -137166.68    
    647100   2564.5374      3331.113       4384.8622     -137164.73    
    647200   2547.7526     -3464.9139      4386.5873     -137167.34    
    647300   2270.4944      3773.7063      4366.1742     -137165.62    
    647400   2231.9659     -4608.6146      4331.8625     -137172.31    
    647500   2352.7757      14838.887      4282.0195     -137172.03    
    647600   2538.816       5963.8791      4294.9019     -137169.78    
    647700   2485.7936      2230.5921      4345.5966     -137166.39    
    647800   2471.625      -1579.6858      4399.395      -137165.05    
    647900   2506.1472      1447.0363      4456.1909     -137160.29    
    648000   2688.774      -5859.3349      4488.3759     -137159.71    
    648100   2531.6815     -18968.165      4484.8148     -137160.4     
    648200   2323.3779     -354.97873      4412.7152     -137164.41    
    648300   2538.4446      2431.1562      4322.1333     -137169.27    
    648400   2525.7988      9410.5835      4256.1073     -137166.82    
    648500   2475.522       17581.702      4271.9767     -137165.39    
    648600   2341.1533     -7122.5733      4374.3748     -137166.14    
    648700   2453.1866     -15485.125      4429.7613     -137169.12    
    648800   2439.2359      8966.6515      4411.0285     -137161.55    
    648900   2496.7465      11325.162      4410.5283     -137160.67    
    649000   2533.464      -3695.8775      4432.9981     -137165.13    
    649100   2392.2012     -2889.634       4424.1896     -137170.06    
    649200   2242.3447     -2960.2679      4383.939      -137166.32    
    649300   2357.1656      9807.1993      4308.7861     -137160.83    
    649400   2575.7309      19233.797      4276.206      -137166.36    
    649500   2394.2872     -99.541807      4357.4466     -137167.03    
    649600   2452.3041     -10452.777      4446.2914     -137166       
    649700   2602.5069     -5145.5556      4473.1958     -137162.54    
    649800   2463.3238     -8579.6111      4456.7897     -137158.98    
    649900   2734.7051      1571.2419      4396.2416     -137167.92    
    650000   2442.2698     -3590.6461      4353.7876     -137164.16    
    650100   2669.758       451.89286      4309.521      -137173.67    
    650200   2265.6371      4867.7639      4308.191      -137169.11    
    650300   2247.2282     -3032.8445      4340.5613     -137174.63    
    650400   2414.0512      1389.4021      4360.8271     -137171.58    
    650500   2463.8673      6190.1633      4370.7093     -137167.42    
    650600   2440.9872      982.46955      4364.4688     -137165.08    
    650700   2626.9663      1894.3278      4337.8264     -137169.19    
    650800   2486.1089      2753.3845      4302.1023     -137170.47    
    650900   2362.3237     -1980.7459      4293.0953     -137172.27    
    651000   2483.915       2211.1596      4293.7957     -137170.31    
    651100   2562.1568      9259.3889      4310.1698     -137165.11    
    651200   2515.4225      5884.5827      4364.5804     -137165.03    
    651300   2383.9255     -10350.829      4421.0489     -137164.61    
    651400   2342.4614     -1977.2796      4409.5041     -137162.01    
    651500   2674.9701      8480.8849      4384.3718     -137160.42    
    651600   2698.5611     -1840.062       4398.8083     -137160.93    
    651700   2477.9174      5004.1768      4391.0234     -137162.49    
    651800   2478.667      -14872.753      4357.841      -137167.1     
    651900   2608.8585      4814.5416      4278.5801     -137172.72    
    652000   2373.4998      18528.125      4261.1586     -137171.07    
    652100   2259.3751     -5811.4967      4324.9891     -137172.49    
    652200   2492.1444     -5596.7557      4393.08       -137168.45    
    652300   2361.1694      9550.8401      4453.9939     -137158.99    
    652400   2620.4976     -4812.6958      4522.6704     -137160.79    
    652500   2501.1257      1113.7094      4572.8402     -137155.17    
    652600   2593.1284     -14498.556      4595.8928     -137156.92    
    652700   2381.8975      3094.1382      4529.7765     -137156.01    
    652800   2419.7504     -8300.8         4429.8004     -137164.55    
    652900   2529.9114      7137.4206      4312.6224     -137169.16    
    653000   2362.2992      11298.399      4243.7688     -137169.3     
    653100   2174.6918      5832.9142      4247.5393     -137171.71    
    653200   2202.392       9324.5188      4286.3421     -137169.79    
    653300   2422.4611      2394.2512      4340.2656     -137165.26    
    653400   2600.5525      1871.8672      4389.947      -137166.64    
    653500   2458.4671     -2718.552       4424.8308     -137160.1     
    653600   2637.1939     -2218.9035      4435.1993     -137160.75    
    653700   2559.3476      2920.088       4430.9749     -137159.89    
    653800   2331.9567     -14044.924      4425.8032     -137162.26    
    653900   2434.3156      3285.8241      4365.2041     -137166.57    
    654000   2497.4441      4983.3756      4316.4551     -137166.12    
    654100   2743.8618      2567.8761      4309.4686     -137168.22    
    654200   2825.5923     -336.30151      4328.8724     -137168.45    
    654300   2387.9335      4954.2905      4371.2232     -137164.38    
    654400   2340.255      -313.35203      4420.6503     -137166.46    
    654500   2437.4061      402.67434      4449.4752     -137164.28    
    654600   2701.1474     -10524.653      4473.4064     -137164.84    
    654700   2526.901      -6775.5787      4449.5265     -137161.76    
    654800   2518.7692      1549.2593      4388.5465     -137164.53    
    654900   2487.7693      12548.118      4332.7132     -137166.79    
    655000   2328.639       672.96064      4348.0203     -137163.9     
    655100   2449.5573     -3078.7957      4373.1915     -137162.38    
    655200   2813.6159      2403.7867      4397.9127     -137160.96    
    655300   2590.1607     -5549.7262      4443.3938     -137162.49    
    655400   2384.2702     -9804.8827      4445.7597     -137162.94    
    655500   2350.3443      1918.0055      4379.9294     -137164.72    
    655600   2512.742       4149.7095      4317.4346     -137166.48    
    655700   2712.6258      12900.13       4319.599      -137167.78    
    655800   2379.5252     -5563.9403      4389.1979     -137164.72    
    655900   2373.6114      791.41095      4427.5442     -137169.4     
    656000   2391.1155     -15970.943      4461.1713     -137164.78    
    656100   2491.9241      4196.3443      4439.1163     -137162.2     
    656200   2432.945       3322.0902      4440.1169     -137158.53    
    656300   2622.7821     -3485.0707      4435.0805     -137162.67    
    656400   2510.8055      6633.251       4428.1706     -137161.38    
    656500   2346.9411      3479.7604      4442.3992     -137164.19    
    656600   2357.8706     -8663.0634      4444.4356     -137168.74    
    656700   2293.9514      11128.825      4411.5459     -137160.87    
    656800   2551.0088     -9277.5436      4363.4045     -137163.9     
    656900   2457.1871      12757.581      4278.9006     -137163.4     
    657000   2576.1465      76.052401      4255.7966     -137169.7     
    657100   2417.096       9088.3639      4250.156      -137171.84    
    657200   2111.8337     -7830.915       4285.4753     -137169.99    
    657300   2338.6591     -6298.3928      4296.2878     -137170.32    
    657400   2486.1624      9127.0831      4299.6286     -137165.57    
    657500   2504.7784      7511.9671      4353.9457     -137165.5     
    657600   2286.8278     -5227.7423      4434.6712     -137163.73    
    657700   2315.9227     -3974.7542      4483.4652     -137163.64    
    657800   2502.0376      2123.6534      4492.6951     -137159.82    
    657900   2606.3903     -7865.5471      4477.2562     -137161.35    
    658000   2452.9425      15343.211      4434.5324     -137159.96    
    658100   2469.1134     -5770.25        4428.2329     -137163.57    
    658200   2285.1077     -6175.1496      4383.5114     -137164.05    
    658300   2392.6018      2957.7536      4283.9558     -137172.76    
    658400   2405.365       25370.754      4206.6069     -137170.88    
    658500   2642.3424      8999.6716      4256.3426     -137169.3     
    658600   2357.9061      4411.966       4368.9158     -137161.81    
    658700   2289.9857     -3356.5958      4504.8456     -137159.38    
    658800   2826.9176     -9690.1481      4595.5472     -137162.5     
    658900   2555.3403     -4927.459       4610.7599     -137152.35    
    659000   2526.9121      2036.8552      4553.6048     -137156.57    
    659100   2320.7793      3211.6369      4477.8675     -137156.32    
    659200   2616.2022      602.01052      4411.8639     -137166.49    
    659300   2385.0015     -6632.74        4364.1455     -137165.18    
    659400   2190.4596     -292.33386      4315.7415     -137165.63    
    659500   2303.2837      1236.0004      4276.4311     -137167.22    
    659600   2420.6441      10364.882      4256.2057     -137161.32    
    659700   2662.3565     -4.3324166      4288.1034     -137167.33    
    659800   2441.274       4429.7802      4337.4421     -137168.09    
    659900   2295.9204     -8865.516       4372.2687     -137165.51    
    660000   2489.7414      59.216889      4333.965      -137166.26    
    660100   2603.198       12975.753      4301.7444     -137167.6     
    660200   2417.7534      7524.8994      4337.5283     -137166.94    
    660300   2404.4371     -3025.5116      4409.9999     -137167.66    
    660400   2388.5403     -1602.8811      4444.1348     -137159.48    
    660500   2652.5007     -2592.9357      4434.4932     -137158.45    
    660600   2527.1092      4384.7776      4421.2418     -137157.84    
    660700   2507.3287     -2856.1425      4421.7787     -137163.49    
    660800   2451.8805     -8908.6738      4401.3943     -137165.23    
    660900   2399.8971      12249.122      4343.7589     -137163.23    
    661000   2437.142       3150.2177      4358.1776     -137164.81    
    661100   2459.3665     -762.07684      4398.7359     -137165.26    
    661200   2364.218       3750.9028      4415.8842     -137161.64    
    661300   2454.8954      3894.3447      4426.6303     -137160.01    
    661400   2670.4899      7683.4622      4435.6846     -137159.9     
    661500   2748.6857     -6472.1924      4481.1397     -137160.44    
    661600   2414.3922      575.35038      4486.6213     -137162.34    
    661700   2393.4028     -4630.4723      4450.5671     -137163.28    
    661800   2618.4107     -7964.557       4382.0978     -137166.6     
    661900   2513.5143      10409.156      4332.3454     -137161.73    
    662000   2394.1252      808.03204      4341.6586     -137163.72    
    662100   2472.065      -6822.2811      4358.4673     -137171.46    
    662200   2405.9792      7498.9588      4376.874      -137167.53    
    662300   2725.8065     -13824.906      4424.0311     -137166.71    
    662400   2556.889       1492.0966      4422.3966     -137161.18    
    662500   2546.8746      108.60619      4413.0794     -137164.24    
    662600   2389.5728     -8352.3291      4400.9494     -137162.75    
    662700   2653.7363     -840.27712      4357.6711     -137171.5     
    662800   2453.0447     -7602.9145      4314.08       -137173.01    
    662900   2240.5419      7720.4763      4267.5008     -137172.96    
    663000   2288.1824      12875.251      4264.9501     -137168.15    
    663100   2494.2872      5825.6957      4325.2219     -137168.05    
    663200   2523.1406     -8216.4688      4420.6384     -137166.37    
    663300   2537.478      -13759.692      4480.737      -137164.31    
    663400   2658.7027     -5741.0827      4479.3128     -137160.97    
    663500   2718.8919     -467.69705      4458.2968     -137157.92    
    663600   2530.1116      2090.2404      4428.6959     -137163.72    
    663700   2507.2873      2766.9706      4395.7166     -137165.79    
    663800   2537.7839      10795.117      4377.1372     -137168.88    
    663900   2395.5943     -2747.4816      4408.7329     -137166.15    
    664000   2419.5577      2085.9312      4425.9868     -137163.4     
    664100   2469.3154      523.85478      4455.1136     -137157.53    
    664200   2645.8373     -7355.0491      4501.9964     -137158.22    
    664300   2432.1572     -3538.2045      4519.0907     -137154.99    
    664400   2509.1873     -12880.644      4480.913      -137164.43    
    664500   2288.4806      3251.9763      4364.1909     -137166.17    
    664600   2472.4343      13702.548      4247.7981     -137167.42    
    664700   2591.8647      18114.544      4219.3445     -137167.03    
    664800   2327.0852     -2325.9566      4300.7744     -137165.07    
    664900   2232.1026      3763.5994      4392.3415     -137169.83    
    665000   2191.9399     -15699.023      4485.0148     -137163.11    
    665100   2360.9138     -3483.2009      4501.8967     -137160.77    
    665200   2567.0643     -16.820906      4493.6608     -137162.13    
    665300   2653.8596     -4596.6353      4473.918      -137163.71    
    665400   2389.5023      1224.8989      4385.782      -137163.46    
    665500   2431.8685      11954.439      4258.8246     -137170.66    
    665600   2461.7864      19866.686      4194.854      -137172.5     
    665700   2406.6305      3651.0844      4250.2621     -137169.27    
    665800   2475.2403      3363.865       4354.8175     -137167.42    
    665900   2271.12       -11268.214      4478.3057     -137159.3     
    666000   2511.2074     -427.78038      4556.1364     -137158.75    
    666100   2657.2891     -15951.304      4605.2573     -137159.54    
    666200   2414.9626     -1116.2537      4552.2564     -137155.28    
    666300   2462.1933     -7394.261       4464.4684     -137163.54    
    666400   2298.5777      3550.0363      4358.275      -137165.51    
    666500   2474.018       3229.2281      4272.1684     -137169.01    
    666600   2677.9706      14844.342      4241.3782     -137168.49    
    666700   2616.7384      14341.1        4297.1687     -137158.87    
    666800   2472.8305     -13004.346      4408.4129     -137162.16    
    666900   2335.6854     -10317.813      4444.3441     -137164.93    
    667000   2381.1648      1091.7916      4416.7424     -137163.28    
    667100   2417.9714     -1720.506       4379.8507     -137157.62    
    667200   2770.4727      13370.327      4344.6103     -137165.1     
    667300   2492.0397     -5204.2438      4373.9306     -137163.44    
    667400   2586.3873     -11848.553      4391.2953     -137168.27    
    667500   2557.3944      2613.1927      4377.6805     -137169.13    
    667600   2289.7687      2779.7394      4375.9462     -137166.74    
    667700   2408.1306     -6604.1252      4371.8382     -137171.22    
    667800   2613.2669      183.41035      4335.8317     -137168.21    
    667900   2629.3739      4715.49        4298.9279     -137164.61    
    668000   2624.7897      7641.9081      4288.4838     -137168.1     
    668100   2442.6211     -4775.6425      4315.6672     -137171.31    
    668200   2289.6019      7225.7827      4330.6866     -137168.22    
    668300   2373.5755      5402.2707      4350.4334     -137166.29    
    668400   2552.3557     -4889.5765      4365.2593     -137167.41    
    668500   2578.0163     -11678.921      4354.1839     -137168.51    
    668600   2494.1909      864.83234      4310.8335     -137166.95    
    668700   2522.4223      1335.1121      4282.3788     -137168.35    
    668800   2436.4574      6248.1942      4276.7038     -137170.17    
    668900   2309.4044      9126.0824      4294.3415     -137171.05    
    669000   2349.07       -3370.4578      4348.828      -137169.84    
    669100   2422.3311     -442.6016       4411.1516     -137163.26    
    669200   2477.7515     -4437.1315      4460.7063     -137161.79    
    669300   2622.2467     -3804.3403      4476.7359     -137163.77    
    669400   2566.0811     -10581.797      4454.1963     -137159.75    
    669500   2759.0125      1829.8244      4355.2903     -137163.55    
    669600   2651.2613      6343.8504      4275.0144     -137168.56    
    669700   2437.4058      7963.8212      4275.698      -137168       
    669800   2392.1813      2415.5481      4342.4811     -137166.99    
    669900   2514.7081     -10949.56       4414.2696     -137165.17    
    670000   2704.6078     -2628.4196      4467.838      -137163.48    
    670100   2472.3165     -14146.01       4528.3792     -137158.58    
    670200   2297.4413     -9796.6672      4498.7497     -137163.75    
    670300   2454.5372     -2840.7541      4389.7496     -137168.7     
    670400   2609.185       8555.2208      4284.4092     -137167.32    
    670500   2649.8384      8683.781       4233.4112     -137169.53    
    670600   2339.3444      16924.065      4227.0917     -137165.04    
    670700   2327.3456      1774.0947      4298.5007     -137166.22    
    670800   2456.7565     -2793.3504      4388.0173     -137163.62    
    670900   2510.6686      3812.6771      4445.9086     -137158.61    
    671000   2639.0319     -550.81273      4476.5107     -137162.68    
    671100   2556.0879     -7965.0162      4480.6433     -137164.74    
    671200   2530.7271     -1419.926       4436.618      -137166.51    
    671300   2463.772      -7458.7838      4380.5352     -137167.46    
    671400   2263.9683      1240.8305      4302.7393     -137169.27    
    671500   2362.2946      10155.451      4227.4451     -137173.26    
    671600   2480.8998      6103.9122      4233.4468     -137169.87    
    671700   2695.1846     -4974.4008      4291.4822     -137170.41    
    671800   2534.8211     -4963.3674      4361.1893     -137165.92    
    671900   2682.4891     -6424.1382      4416.3532     -137170.03    
    672000   2370.5505     -5638.9346      4437.7882     -137166.21    
    672100   2298.6707      3526.1933      4413.3838     -137169.11    
    672200   2323.3172      1682.103       4380.7153     -137166.05    
    672300   2592.9211      4291.3115      4381.6544     -137166.73    
    672400   2399.2268      36.403827      4406.9399     -137162.02    
    672500   2505.3343     -6846.0804      4398.4555     -137165.89    
    672600   2375.2978      5488.2736      4349.9944     -137163.04    
    672700   2506.7481      7631.2348      4311.3523     -137167.45    
    672800   2432.9669      3056.9374      4318.9185     -137169.99    
    672900   2317.5575      2603.0221      4332.9608     -137169.6     
    673000   2549.1688     -414.1349       4327.333      -137169.26    
    673100   2546.2076      4967.434       4306.1835     -137163.53    
    673200   2351.6163      279.86272      4316.9215     -137159.32    
    673300   2602.4407      11168.273      4339.2465     -137166.75    
    673400   2401.2409     -9411.4033      4407.542      -137164.96    
    673500   2358.5538     -14791.027      4444.7563     -137169.57    
    673600   2438.6051     -4323.3176      4411.2825     -137165.87    
    673700   2556.9342      1692.6949      4354.8364     -137163.16    
    673800   2586.8077      1419.8862      4333.2269     -137164.24    
    673900   2582.8852      2102.108       4343.9843     -137165.47    
    674000   2425.7355     -5367.1088      4395.969      -137167.71    
    674100   2295.003      -4295.6042      4443.5096     -137168.49    
    674200   2453.7683     -9375.7468      4469.1258     -137165.3     
    674300   2656.5196      300.64569      4452.38       -137168       
    674400   2473.0122      1126.6574      4420.1922     -137168.56    
    674500   2400.5136     -9953.998       4389.6559     -137167.99    
    674600   2512.4588      6650.9676      4348.8908     -137164.3     
    674700   2630.1849      1966.5009      4333.8499     -137165.49    
    674800   2397.5153      4996.6013      4332.8326     -137161.93    
    674900   2365.5673      5305.8471      4338.2912     -137162.97    
    675000   2595.6127     -3425.6643      4348.7215     -137167.71    
    675100   2649.5437      6116.6723      4371.7281     -137167.04    
    675200   2384.3943     -3663.6771      4445.1029     -137161.45    
    675300   2467.4736     -12988.884      4500.3467     -137161.06    
    675400   2608.8774     -1335.4893      4475.7068     -137158.42    
    675500   2756.8425      8449.7807      4434.7815     -137160.66    
    675600   2461.1765      869.66546      4422.2981     -137162.73    
    675700   2409.8077      214.97733      4394.1075     -137163.2     
    675800   2530.1187     -2140.5126      4327.8141     -137163.33    
    675900   2787.4177      19575.795      4252.2015     -137166.53    
    676000   2356.999       678.34122      4293.064      -137164.09    
    676100   2539.1498      242.87461      4364.4383     -137170.65    
    676200   2372.8496     -8655.8077      4438.089      -137162.19    
    676300   2549.251      -10064.631      4483.3275     -137160.41    
    676400   2594.1314     -2231.8423      4478.7307     -137159.42    
    676500   2511.7413      2616.2326      4418.4584     -137161.48    
    676600   2527.8935     -5132.9167      4331.1725     -137168.36    
    676700   2438.1849      3611.0256      4247.7929     -137166.27    
    676800   2729.2701      8274.1438      4213.3832     -137173.78    
    676900   2432.0866      4390.8663      4239.3304     -137170.46    
    677000   2217.6513     -2410.3122      4279.5605     -137168.14    
    677100   2652.7082     -1483.0819      4301.2618     -137169.94    
    677200   2520.979      -1351.3543      4325.4556     -137165.38    
    677300   2580.5193      693.33407      4362.1174     -137170.85    
    677400   2291.3292     -10083.19       4432.7075     -137164.5     
    677500   2481.7678     -11606.341      4462.2557     -137161.51    
    677600   2510.3874      2919.1506      4428.6114     -137157.32    
    677700   2546.5049      5412.8978      4379.1262     -137161.95    
    677800   2462.889       7085.7178      4322.4969     -137166.28    
    677900   2479.5352      12629.21       4296.3241     -137170.67    
    678000   2483.0446     -10404.837      4356.6407     -137170.54    
    678100   2489.3728      133.92887      4398.3924     -137166.88    
    678200   2661.2057     -4542.1783      4437.1228     -137167.9     
    678300   2629.4794      2227.5178      4457.9726     -137163.28    
    678400   2597.2747     -5998.11        4487.8413     -137155.38    
    678500   2612.7463      7833.29        4494.9616     -137158.18    
    678600   2526.8882     -9507.4553      4495.678      -137164.91    
    678700   2436.1669      3272.7371      4425.0103     -137164.13    
    678800   2581.7053      6708.5469      4345.0669     -137169.36    
    678900   2340.4136     -7773.5979      4319.3324     -137168.49    
    679000   2397.5313     -3237.1699      4289.6854     -137172.36    
    679100   2587.4979     -2352.0542      4277.2578     -137169.9     
    679200   2676.9344      1286.0542      4276.3683     -137166.83    
    679300   2420.1021      5139.2612      4308.6129     -137161.37    
    679400   2410.5475      6889.0159      4384.2948     -137165.69    
    679500   2231.5178     -16223.894      4479.3072     -137169.65    
    679600   2289.3421     -10607.163      4471.2306     -137167.12    
    679700   2555.4754      8836.3955      4373.5602     -137168.06    
    679800   2491.8322      3309.5093      4328.5613     -137165.34    
    679900   2470.5268     -9431.6098      4349.459      -137164.13    
    680000   2563.5399      6379.1959      4366.984      -137163.47    
    680100   2709.8955     -471.36626      4405.1719     -137168.31    
    680200   2396.8451     -7050.784       4442.0981     -137165.4     
    680300   2368.4752     -9934.2589      4430.7179     -137166.27    
    680400   2631.0327     -580.7774       4381.6874     -137165.25    
    680500   2548.9227      8032.4276      4321.9319     -137159.86    
    680600   2653.2152      8264.0481      4309.5712     -137166.52    
    680700   2581.8751      2395.9427      4356.333      -137171.82    
    680800   2301.4998     -3276.6249      4405.8977     -137165.56    
    680900   2524.2778      5696.192       4408.2734     -137166.44    
    681000   2589.4659     -5919.6656      4419.2295     -137166.37    
    681100   2386.464      -367.98751      4408.3997     -137163.78    
    681200   2250.7361      1960.0807      4378.3116     -137166.37    
    681300   2449.0407     -246.26531      4362.9126     -137172.25    
    681400   2525.3584      7627.7192      4373.0144     -137166.62    
    681500   2574.5125     -261.05306      4411.0271     -137163.12    
    681600   2403.7358     -490.28209      4424.0445     -137159.81    
    681700   2477.3972      1.0064839      4414.5612     -137161.13    
    681800   2691.3943      8343.9911      4406.9618     -137158.62    
    681900   2897.5395     -2703.5671      4446.5596     -137160.99    
    682000   2348.2097     -6542.6541      4503.9816     -137155.22    
    682100   2495.5537     -10422.165      4496.2535     -137159.98    
    682200   2420.6792      1375.6133      4413.7821     -137158.22    
    682300   2456.832       2173.1849      4323.6204     -137163.47    
    682400   2254.1396      7222.0927      4267.6572     -137165.05    
    682500   2448.377       229.45502      4274.2158     -137166.9     
    682600   2441.5961      11667.015      4334.865      -137160.93    
    682700   2542.2495      2192.8266      4453.0592     -137165.18    
    682800   2336.5176     -4394.0091      4563.1572     -137161.04    
    682900   2431.7083     -1251.3087      4582.2175     -137158.63    
    683000   2678.472      -1282.3166      4527.5167     -137159.82    
    683100   2594.8035      4923.5382      4459.338      -137160.7     
    683200   2583.5553      1385.2608      4418.5427     -137164.75    
    683300   2441.0805      7744.4156      4385.9305     -137163.85    
    683400   2444.6218      6004.4586      4376.7269     -137165.66    
    683500   2551.3926     -9423.0509      4383.5188     -137168.96    
    683600   2372.9133      1310.4288      4362.0291     -137162.9     
    683700   2718.3407      2968.4947      4328.6663     -137166.59    
    683800   2699.8136      181.19164      4314.1832     -137164.53    
    683900   2417.1293      10470.541      4325.2078     -137163.15    
    684000   2363.7325      2848.9693      4366.9539     -137166.78    
    684100   2350.9885     -8544.1813      4417.396      -137163.01    
    684200   2715.4106     -10783.973      4406.7945     -137168.06    
    684300   2574.2943      6298.5751      4342.1656     -137166.11    
    684400   2600.5438      2617.8218      4307.1652     -137171.58    
    684500   2395.3225     -2389.2429      4313.6796     -137171.64    
    684600   2357.6542     -5162.0434      4338.4481     -137170.14    
    684700   2737.6167     -1219.5095      4365.1566     -137170.15    
    684800   2374.8009     -9108.1305      4378.7992     -137159.8     
    684900   2463.9367      3432.3247      4329.9299     -137164.65    
    685000   2423.067       9327.155       4284.721      -137165.34    
    685100   2542.5677      1509.459       4292.8919     -137166.16    
    685200   2643.7788      2421.4696      4325.9643     -137165.42    
    685300   2553.8003      1914.8944      4414.4476     -137163.64    
    685400   2483.9372     -14009.713      4526.4545     -137167.5     
    685500   2247.7929     -3344.7996      4551.2517     -137163.41    
    685600   2479.7834      615.4555       4509.5711     -137162.02    
    685700   2582.6982      2143.4801      4452.7831     -137161.89    
    685800   2516.8736      4151.5607      4418.4738     -137163.02    
    685900   2492.6968      414.66404      4400.9455     -137169.58    
    686000   2418.9039     -1614.7418      4378.7504     -137169.74    
    686100   2465.4819     -1522.0131      4346.6795     -137170.05    
    686200   2517.4629      711.2524       4285.6177     -137169.36    
    686300   2597.1784      16857.979      4237.3794     -137166.37    
    686400   3035.0775      13038.44       4294.41       -137170.34    
    686500   2590.528      -8033.3189      4462.302      -137166.12    
    686600   2323.1739     -13020.023      4608.6864     -137161.17    
    686700   2435.3935     -1520.2788      4637.4425     -137157.79    
    686800   2576.3872     -680.10622      4588.2842     -137157.99    
    686900   2657.6786      216.65604      4528.1098     -137161.09    
    687000   2571.2746     -14702.542      4472.3403     -137164.96    
    687100   2528.7023      4945.4308      4361.4914     -137166.21    
    687200   2662.7429      12983.827      4300.3894     -137170.11    
    687300   2451.5972      1305.674       4320.8987     -137168.55    
    687400   2209.0148      2629.8798      4372.3842     -137163.07    
    687500   2450.7841     -157.94376      4417.406      -137162.36    
    687600   2680.2822     -7266.9225      4444.1427     -137159.75    
    687700   2592.1256      4852.9475      4459.7986     -137158.81    
    687800   2532.3248     -9003.0436      4477.7644     -137163.72    
    687900   2499.2278     -10823.127      4446.0138     -137165.75    
    688000   2484.6329     -3829.4932      4365.0287     -137166.54    
    688100   2546.8425      13109.517      4292.0875     -137167.76    
    688200   2621.1286      3355.3671      4297.6042     -137169.24    
    688300   2398.1785      6276.6391      4362.084      -137163.4     
    688400   2494.1196     -384.42447      4434.4056     -137162.94    
    688500   2589.6127     -11067.066      4493.911      -137159.5     
    688600   2642.058      -2165.0424      4513.1583     -137157.69    
    688700   2654.6402     -7524.8055      4529.2312     -137161.66    
    688800   2433.5898     -15235.601      4504.9561     -137164.5     
    688900   2436.1795      8981.6286      4392.5757     -137166.7     
    689000   2586.8872      6679.6689      4327.5322     -137167.7     
    689100   2556.0798      13195.616      4346.3368     -137160.87    
    689200   2728.892      -7466.5483      4452.7652     -137163.51    
    689300   2545.7473     -11532.917      4553.8398     -137160.29    
    689400   2423.618      -7711.2321      4578.6252     -137163.65    
    689500   2202.3138     -11295.852      4539.8964     -137159.45    
    689600   2572.6509     -1407.5543      4422.6211     -137161.84    
    689700   2876.8658      15838.507      4332.732      -137168.5     
    689800   2447.1132     -5721.9392      4341.0429     -137162.58    
    689900   2469.7669      9147.3082      4333.572      -137164.88    
    690000   2434.3         4104.0089      4354.558      -137167.35    
    690100   2432.2858     -9987.591       4399.365      -137171.49    
    690200   2211.9778     -3879.506       4403.7578     -137165.6     
    690300   2571.9191      5892.4293      4369.2455     -137165.31    
    690400   2653.0817      1338.4138      4357.2434     -137165.85    
    690500   2554.9037      3267.4742      4374.5021     -137168.68    
    690600   2347.2839     -5052.4224      4401.8024     -137167.64    
    690700   2382.6924     -7846.4092      4396.1458     -137164.97    
    690800   2604.7375      13262.058      4339.8037     -137166.85    
    690900   2524.048       8191.9381      4326.9366     -137164.52    
    691000   2619.4121     -2782.244       4357.5175     -137169.38    
    691100   2226.1002     -969.96282      4383.9504     -137166.44    
    691200   2313.8038      3175.8196      4379.0191     -137168.64    
    691300   2352.0883      4220.4317      4362.6771     -137163.78    
    691400   2439.6859      10172.262      4353.7387     -137162.68    
    691500   2382.0894     -291.05222      4386.9966     -137158.73    
    691600   2608.8062     -978.05777      4426.7822     -137161.85    
    691700   2781.7992     -3519.4468      4463.1902     -137161.17    
    691800   2555.0246     -486.29519      4474.887      -137158.17    
    691900   2351.718      -1068.5862      4481.265      -137161.7     
    692000   2423.3932     -7497.1367      4471.7785     -137163.14    
    692100   2485.752       7258.8958      4427.5948     -137161.79    
    692200   2824.7371      4887.4421      4392.6638     -137165.79    
    692300   2663.5077     -2367.9831      4399.387      -137165.77    
    692400   2160.3962     -1052.104       4423.9355     -137159.51    
    692500   2505.9495     -12246.666      4427.7323     -137165.88    
    692600   2540.1395      2775.016       4376.321      -137161.72    
    692700   2431.489       6250.1956      4331.376      -137158.56    
    692800   2471.3042      643.37913      4313.0011     -137168.67    
    692900   2332.7655      5201.2871      4316.6377     -137169.84    
    693000   2433.4171     -1517.8839      4356.1818     -137167.89    
    693100   2620.0105     -1257.1614      4384.4835     -137167.71    
    693200   2387.5867      4317.0216      4406.4195     -137162.34    
    693300   2570.1327     -1954.1237      4439.6078     -137165.23    
    693400   2616.2218     -8767.8568      4478.2398     -137163.44    
    693500   2755.7791      3883.8585      4501.0744     -137158.02    
    693600   2638.8919     -1119.9188      4514.9215     -137161.17    
    693700   2490.4556      757.92636      4507.6294     -137164.83    
    693800   2331.176      -598.9445       4460.0161     -137163.21    
    693900   2414.9583      8428.5517      4379.258      -137165.39    
    694000   2484.5173      10011.797      4343.4651     -137163.58    
    694100   2760.6519     -567.34198      4345.3282     -137165.64    
    694200   2429.4917      1474.8146      4352.4891     -137162.43    
    694300   2215.4601     -6840.1104      4357.9435     -137163.52    
    694400   2449.6986      2096.1398      4317.1621     -137168.62    
    694500   2652.7363      482.52284      4290.8303     -137171.34    
    694600   2480.5745      7007.4372      4312.6088     -137163.77    
    694700   2788.9646     -6201.0752      4377.7559     -137163.29    
    694800   2687.4299      5666.4741      4460.9701     -137158.46    
    694900   2482.8961     -21451.624      4577.8778     -137162.07    
    695000   2323.4484     -6347.2296      4564.1095     -137160.1     
    695100   2482.7938     -7196.5761      4468.1017     -137161.24    
    695200   2758.951       10404.138      4366.449      -137166.01    
    695300   2479.1104      3335.2382      4335.3925     -137167.35    
    695400   2389.0835      4557.6838      4326.4114     -137168.73    
    695500   2446.0462     -4830.7876      4322.1        -137167.55    
    695600   2594.3281      4798.6661      4293.995      -137169.46    
    695700   2482.448       4739.9032      4274.0597     -137170.39    
    695800   2232.8142      6195.5821      4281.8088     -137171.54    
    695900   2387.2569     -4802.3922      4319.0123     -137171.1     
    696000   2462.921       6960.9013      4333.519      -137167.75    
    696100   2448.401       3990.8777      4368.2202     -137164.45    
    696200   2360.74       -1383.43        4408.3784     -137159.03    
    696300   2877.2927     -7886.466       4406.4007     -137167.07    
    696400   2506.1316      13810.924      4356.8037     -137165.41    
    696500   2339.1113      9013.2701      4351.1952     -137166.27    
    696600   2317.6098     -1082.4556      4380.1526     -137161.51    
    696700   2580.5076      831.47418      4405.8955     -137163.01    
    696800   2600.7563      3037.0718      4435.6542     -137162.84    
    696900   2442.9922     -7387.1917      4471.2768     -137165.44    
    697000   2392.496      -5657.5634      4453.6472     -137170.64    
    697100   2400.3612     -9623.1634      4374.1837     -137166.8     
    697200   2606.202       15826.971      4245.4232     -137168.43    
    697300   2515.8034      17109.336      4177.5005     -137167.71    
    697400   2336.5867      11021.97       4208.5791     -137166.5     
    697500   2375.2698      4350.4364      4309.202      -137166.82    
    697600   2701.1941     -11118.897      4423.1729     -137166.43    
    697700   2589.0265     -672.50035      4502.7763     -137159.59    
    697800   2595.8541     -19234.668      4552.9641     -137162.52    
    697900   2292.7452     -6394.9619      4510.6888     -137162.41    
    698000   2414.4818     -3122.3303      4415.9676     -137165.87    
    698100   2936.0098      9523.429       4303.418      -137169.7     
    698200   2808.6741      10339.796      4269.488      -137163.21    
    698300   2573.1365      6167.8629      4333.1735     -137167.18    
    698400   2424.8703     -8916.9621      4445.53       -137165.55    
    698500   2426.2043     -7662.2027      4496.3251     -137162.64    
    698600   2522.8664     -2342.4643      4490.9575     -137158.75    
    698700   2703.4369      7182.8454      4492.469      -137160.06    
    698800   2325.0102     -4996.3037      4517.9806     -137153.69    
    698900   2469.3139     -8733.5888      4485.7177     -137165.19    
    699000   2287.7219      6590.2757      4404.828      -137165.65    
    699100   2392.0956      9571.3829      4368.3189     -137164.14    
    699200   2749.5752     -8108.8733      4394.4233     -137164.2     
    699300   2480.3873      2017.591       4402.992      -137161.21    
    699400   2450.5978     -1600.4933      4408.2844     -137163.67    
    699500   2392.478       1222.6627      4415.0335     -137159.74    
    699600   2746.4535     -621.45503      4431.1447     -137159.69    
    699700   2784.6183      607.99573      4458.772      -137161.4     
    699800   2614.9024     -4346.6753      4476.6684     -137163.37    
    699900   2476.0272     -3277.2575      4469.7187     -137163.43    
    700000   2286.4262     -4346.9098      4437.6906     -137162.2     
    700100   2411.0469      4176.0077      4364.3657     -137163.75    
    700200   2906.8804      3378.3526      4287.1399     -137168.46    
    700300   2544.1702      16376.046      4250.7679     -137164.99    
    700400   2437.2127     -3683.671       4304.2976     -137167.65    
    700500   2379.1712     -2890.4402      4353.106      -137167.23    
    700600   2558.6612     -5120.9424      4372.5647     -137168.44    
    700700   2668.1851     -821.34399      4383.5107     -137164.21    
    700800   2494.3664      10376.064      4412.0674     -137160.43    
    700900   2453.2286     -7799.748       4447.8267     -137164.17    
    701000   2436.937      -7713.2089      4399.0151     -137165.64    
    701100   2436.733       1461.0272      4286.3812     -137164.08    
    701200   2406.4558      21057.743      4185.2272     -137164.85    
    701300   2461.7086      14924.69       4171.1331     -137173.45    
    701400   2321.8311      6493.2361      4236.987      -137173.46    
    701500   2304.6971     -9251.3629      4340.2251     -137168.92    
    701600   2514.7401     -9917.0863      4418.4874     -137166.2     
    701700   2410.5367     -5682.3152      4438.8045     -137161.53    
    701800   2586.7285     -1511.1695      4398.7949     -137162.09    
    701900   2664.4238      1772.8703      4342.0207     -137164.58    
    702000   2468.6449      1792.4044      4301.0372     -137168.61    
    702100   2484.2098      7858.8386      4296.0718     -137172.62    
    702200   2314.0849      412.19174      4325.1653     -137166.28    
    702300   2441.3171      14910.783      4349.6624     -137162.68    
    702400   2607.7962     -7642.4183      4418.535      -137167.55    
    702500   2372.9659     -3323.8417      4459.6964     -137161.82    
    702600   2454.26       -938.0729       4463.8637     -137160.31    
    702700   2732.32        11828.518      4453.9987     -137157.82    
    702800   2582.7695      3618.8965      4475.9175     -137156.4     
    702900   2530.9482     -5862.4274      4487.0479     -137160.8     
    703000   2531.118      -3327.8518      4463.716      -137160.97    
    703100   2635.6694      414.37823      4415.0538     -137165.25    
    703200   2315.3745      5598.821       4365.4176     -137163.39    
    703300   2588.305       555.77886      4323.2295     -137171.05    
    703400   2540.2896     -2108.1886      4289.9518     -137167.59    
    703500   2589.209       25070.264      4269.9866     -137161.4     
    703600   2633.2961      4867.8063      4365.3001     -137165.01    
    703700   2337.9038     -18120.252      4518.1756     -137164.95    
    703800   2303.908      -11822.361      4571.4084     -137161.63    
    703900   2304.8943      7761.4639      4530.1112     -137153.72    
    704000   2505.7696     -1382.6037      4500.801      -137156.67    
    704100   2426.9702      4170.2648      4491.1188     -137156.5     
    704200   2276.4301     -8390.2083      4467.7631     -137158.67    
    704300   2389.4895      3555.3399      4359.5773     -137165.82    
    704400   2505.686       5133.1742      4254.7129     -137171.25    
    704500   2544.6683      3201.0927      4208.283      -137175.64    
    704600   2345.8311      13890.916      4224.0244     -137173.1     
    704700   2279.1362     -2073.1015      4331.0284     -137168.41    
    704800   2574.8257     -5620.8946      4428.7729     -137166.66    
    704900   2472.0193     -8563.6613      4467.3946     -137161.01    
    705000   2576.7663     -3097.2049      4459.3823     -137160.35    
    705100   2640.4491     -3667.9465      4433.4104     -137162.9     
    705200   2471.6665     -16484.811      4368.6754     -137168.91    
    705300   2467.9858      13999.862      4229.1334     -137168.73    
    705400   2576.5108      18134.388      4143.9053     -137170.6     
    705500   2429.3596      17622.74       4175.926      -137170.01    
    705600   2291.0056     -8827.8474      4296.5464     -137171.73    
    705700   2274.7215     -8568.7557      4385.3115     -137169.85    
    705800   2517.0753     -16439.414      4427.8022     -137166.26    
    705900   2376.9908      9461.3863      4414.5509     -137158.91    
    706000   2385.504       4992.1734      4426.5489     -137156.39    
    706100   2512.514      -4843.4122      4451.5616     -137156.52    
    706200   2547.7915      6646.1375      4456.2082     -137159.75    
    706300   2358.7564     -15478.305      4473.3046     -137163.49    
    706400   2406.1803     -13124.312      4387.526      -137163.2     
    706500   2558.2938      18682.298      4213.2048     -137162.84    
    706600   2740.1647      14247.331      4124.7193     -137170.49    
    706700   2519.9124      12292.261      4162.8713     -137172.12    
    706800   2344.628      -5401.398       4304.8726     -137169.33    
    706900   2480.2612     -5280.6024      4426.9627     -137167.02    
    707000   2700.6474     -9340.1905      4503.5055     -137165.59    
    707100   2513.945      -8348.6296      4500.6513     -137160.71    
    707200   2563.0545      9748.3809      4442.5189     -137163.89    
    707300   2250.1636      4631.297       4401.0888     -137164.33    
    707400   2290.5811      8154.2016      4369.2935     -137166.55    
    707500   2376.5663      16287.014      4366.4634     -137166.64    
    707600   2462.1091     -9401.2704      4409.4296     -137166.74    
    707700   2455.4107      2479.573       4416.7505     -137162.94    
    707800   2524.27       -1486.6305      4424.6732     -137161.15    
    707900   2586.5186     -461.58526      4438.9814     -137163.49    
    708000   2483.8712     -9272.0785      4465.2629     -137161.6     
    708100   2544.899      -4621.6234      4439.5054     -137163.99    
    708200   2409.9595     -3385.0442      4381.0003     -137161.69    
    708300   2614.8693      7066.7987      4318.8212     -137166.88    
    708400   2585.203      -5873.4453      4306.2901     -137170.75    
    708500   2157.6431     -1904.3745      4280.53       -137164       
    708600   2638.5614      16214.558      4244.2704     -137169.92    
    708700   2593.4637     -884.59333      4299.9207     -137167.32    
    708800   2318.4361     -2100.6528      4375.272      -137161.17    
    708900   2588.4181     -39.808555      4422.4067     -137166.52    
    709000   2495.65        5928.0891      4451.5036     -137162.62    
    709100   2503.0917     -6370.7451      4483.1007     -137159.3     
    709200   2612.1714      6295.3955      4463.0457     -137158.94    
    709300   2602.5397     -8210.3346      4449.2205     -137165.15    
    709400   2445.2972      772.28083      4403.6907     -137165.96    
    709500   2505.7629     -705.96507      4332.616      -137166.05    
    709600   2624.3943      9759.2705      4276.4001     -137165.87    
    709700   2588.3162      19112.025      4279.4493     -137163.82    
    709800   2393.9734      8448.9964      4366.8134     -137167.02    
    709900   2365.048      -7704.8338      4467.7361     -137168.17    
    710000   2412.8211     -6029.1839      4495.9134     -137162.17    
    710100   2532.0435      7287.7153      4468.3669     -137160.17    
    710200   2511.0137     -3757.4574      4454.9547     -137159.71    
    710300   2420.9066     -10694.046      4415.3605     -137160.05    
    710400   2353.0282      7906.8654      4329.9822     -137163.55    
    710500   2354.0298      869.68502      4289.6045     -137169.89    
    710600   2322.2241      9276.4613      4289.7162     -137167.26    
    710700   2592.1064      10539.151      4328.0912     -137165.75    
    710800   2536.3918     -2109.7954      4392.8041     -137163.78    
    710900   2342.1211     -6615.6293      4441.0885     -137158.23    
    711000   2688.9694      6912.7637      4439.5307     -137162.63    
    711100   2737.6849     -2073.2645      4448.8747     -137160.51    
    711200   2500.6217     -7485.463       4451.351      -137161.64    
    711300   2396.3342      942.6774       4416.4651     -137163.83    
    711400   2359.0981      2912.0748      4359.0317     -137165.27    
    711500   2389.0392      16036.881      4318.5845     -137164.6     
    711600   2754.4568     -2208.2581      4327.3146     -137166.87    
    711700   2708.2383     -5628.9031      4352.0405     -137166.53    
    711800   2450.0518     -5789.5584      4371.2771     -137169.57    
    711900   2410.6681     -3049.7859      4369.5252     -137168.45    
    712000   2488.6714      7822.5535      4370.6784     -137165.69    
    712100   2518.1492      826.47267      4415.207      -137162.58    
    712200   2684.773      -4829.0061      4476.5742     -137163.96    
    712300   2497.9491     -7799.3727      4505.4422     -137158.91    
    712400   2409.7587     -1643.098       4475.8878     -137159.47    
    712500   2359.7785     -316.32874      4420.6409     -137160.47    
    712600   2558.7697      14007.013      4351.3669     -137165.45    
    712700   2520.0187      3652.2154      4348.4547     -137166.13    
    712800   2239.7369     -10586.532      4362.5459     -137164.99    
    712900   2408.932       11357.637      4301.2811     -137167.85    
    713000   2702.0669      7133.4839      4273.3323     -137167.37    
    713100   2583.2474      14202.245      4313.6981     -137165.5     
    713200   2244.9172     -6425.2345      4413.407      -137167.39    
    713300   2256.2258     -15754.2        4456.7027     -137167.43    
    713400   2347.2846      10637.706      4406.0592     -137163.77    
    713500   2521.6984      10030.15       4353.7728     -137163.94    
    713600   2577.8561      4366.0546      4333.212      -137165.61    
    713700   2432.1325      4409.0822      4341.687      -137167.12    
    713800   2159.704      -1703.959       4396.0735     -137164.94    
    713900   2301.9079     -262.5533       4464.0177     -137161.51    
    714000   2503.1443     -4250.2814      4486.1382     -137162.38    
    714100   2602.0231     -3990.6727      4444.1157     -137164.51    
    714200   2621.0644     -9857.9266      4375.0288     -137166.47    
    714300   2359.6417      10956.582      4285.7491     -137164.82    
    714400   2344.2445      2653.6553      4254.2135     -137170.83    
    714500   2461.7774      1425.4783      4262.9291     -137173.86    
    714600   2582.5347      7313.9514      4291.2981     -137167.31    
    714700   2431.0333      8126.3986      4371.1801     -137159.62    
    714800   2415.1821     -5234.3553      4498.6314     -137161.29    
    714900   2393.0935     -22644.879      4577.2342     -137157.14    
    715000   2662.192      -3319.5401      4512.7781     -137157.76    
    715100   2734.8235      4392.5641      4396.1664     -137163.71    
    715200   2502.7851      16709.105      4308.8978     -137162.88    
    715300   2611.2694      4198.7051      4295.8634     -137168.72    
    715400   2390.2298      219.01762      4324.9587     -137167.2     
    715500   2415.1169      3827.0402      4354.3697     -137167.14    
    715600   2466.7412      10438.477      4400.1486     -137159.1     
    715700   2739.891      -10803.659      4469.4415     -137161.25    
    715800   2662.4953     -1616.3818      4485.3062     -137159.95    
    715900   2414.0434      1322.6072      4480.5697     -137159.1     
    716000   2525.8606     -3210.4751      4457.0205     -137165.88    
    716100   2418.8282     -527.62016      4428.9939     -137162.97    
    716200   2381.6072     -5053.0284      4412.0421     -137160.71    
    716300   2471.9674      3453.5048      4364.6401     -137162.79    
    716400   2562.812      -2906.3193      4323.5237     -137169.72    
    716500   2206.6134      4752.8033      4300.0439     -137167.72    
    716600   2439.6068      2759.5417      4328.4352     -137171.51    
    716700   2345.3093     -7243.1246      4385.2191     -137165.01    
    716800   2649.7981     -482.01454      4394.4335     -137171.04    
    716900   2507.8728     -3198.6353      4411.7034     -137166.96    
    717000   2356.9879     -2855.2492      4400.9737     -137161.5     
    717100   2794.0705      12134.978      4374.8538     -137164.38    
    717200   2642.3189      9158.7091      4397.5283     -137162.88    
    717300   2377.4782     -2901.4389      4429.086      -137162.77    
    717400   2421.7574     -11441.406      4442.9033     -137163.39    
    717500   2616.0464      1282.7594      4398.4556     -137167.12    
    717600   2489.0599      10295.171      4347.9828     -137162.23    
    717700   2442.7528      11251.828      4344.9079     -137164.39    
    717800   2250.1087     -788.23678      4391.5372     -137165.49    
    717900   2207.6914     -7770.9757      4429.2653     -137160.29    
    718000   2603.4596     -5069.273       4392.9674     -137163.67    
    718100   2512.7588      18476.922      4325.3155     -137162.29    
    718200   2574.3804     -2406.2973      4335.0982     -137169.81    
    718300   2319.1753     -7094.118       4375.1844     -137164.64    
    718400   2459.1565      2378.2263      4371.0247     -137162.92    
    718500   2595.8842      6995.2721      4355.4402     -137163.34    
    718600   2599.0064      3431.1039      4371.5217     -137164.69    
    718700   2455.0218      3399.7502      4404.8685     -137166.45    
    718800   2489.3958     -6182.7479      4459.6287     -137172.63    
    718900   2303.4453     -9410.4396      4484.4437     -137165.49    
    719000   2565.845       3094.6449      4435.9265     -137164.01    
    719100   2566.2932     -2831.3459      4397.5613     -137162.78    
    719200   2543.3272      2258.5309      4356.1642     -137168.41    
    719300   2462.2815      10983.997      4313.5055     -137168.58    
    719400   2535.2161     -3117.5712      4312.4524     -137170.08    
    719500   2380.3507      2671.7405      4308.7939     -137165.7     
    719600   2820.2226     -7847.5888      4320.1344     -137167.7     
    719700   2649.7612      5654.4874      4328.2179     -137161.3     
    719800   2501.4486     -3079.0233      4371.7279     -137164.16    
    719900   2348.452       1142.9277      4401.6354     -137163.02    
    720000   2508.1995     -2393.4625      4406.3003     -137165.45    
    720100   2699.0839      6535.9544      4388.1476     -137159.82    
    720200   2831.3676     -5574.2224      4378.5954     -137165.35    
    720300   2563.0351     -5819.3682      4375.2804     -137164.33    
    720400   2315.9911      5262.0798      4368.0418     -137159.25    
    720500   2651.8082      2407.239       4372.7364     -137167.69    
    720600   2347.0778     -3617.4478      4381.0219     -137164.99    
    720700   2303.7478      978.31025      4366.0278     -137166.85    
    720800   2770.099       344.57879      4358.3377     -137173.32    
    720900   2451.2951      12626.573      4394.9633     -137160.58    
    721000   2448.5975     -15528.994      4483.8433     -137160.4     
    721100   2548.1851     -9548.9504      4517.3048     -137159.77    
    721200   2695.4809     -2701.309       4503.3183     -137159.03    
    721300   2541.0215     -4938.7551      4508.8994     -137157.57    
    721400   2391.977      -1345.2232      4509.6063     -137162.65    
    721500   2293.6284      5304.1573      4493.7456     -137160.8     
    721600   2598.6223     -1557.9637      4445.8284     -137165.9     
    721700   2581.6853      8789.2468      4369.6799     -137163.96    
    721800   2524.9863     -2669.3549      4313.7969     -137170.15    
    721900   2239.9225      4518.9002      4265.182      -137168.97    
    722000   2490.3005     -1196.4728      4238.8901     -137173.25    
    722100   2403.4036      15269.781      4254.7929     -137164.33    
    722200   2685.1133      5399.2317      4354.7608     -137166.96    
    722300   2475.43       -10437.257      4462.4264     -137161.86    
    722400   2506.5442     -10831.271      4522.479      -137161.03    
    722500   2564.9751     -9935.0925      4521.8999     -137159.34    
    722600   2798.1855     -434.83238      4464.0288     -137158.66    
    722700   2914.3248     -6414.1192      4406.2743     -137162.6     
    722800   2670.8311      5183.595       4364.6866     -137167.49    
    722900   2469.5076      125.40166      4367.9425     -137166.03    
    723000   2475.7513     -1802.352       4367.5393     -137166.29    
    723100   2411.3891      13449.007      4319.8197     -137162.62    
    723200   2532.104       9533.9493      4303.1795     -137164.4     
    723300   2429.2         4255.4585      4344.3181     -137167.16    
    723400   2280.0043     -6167.4115      4389.4977     -137167.61    
    723500   2439.8028     -8181.0724      4379.4596     -137166.38    
    723600   2569.384       6629.4185      4326.5168     -137164.38    
    723700   2721.3249      2613.165       4300.1546     -137170.95    
    723800   2409.8331     -1540.4269      4328.4106     -137166.72    
    723900   2319.8046     -2839.311       4378.4424     -137166.01    
    724000   2575.0316     -1362.1408      4410.7081     -137166       
    724100   2676.9382      1261.637       4429.4465     -137160.77    
    724200   2474.0382      6273.2725      4453.7564     -137157.71    
    724300   2431.7686     -5529.5045      4464.0927     -137160.85    
    724400   2283.7948      13130.869      4416.5732     -137161.67    
    724500   2249.1211     -6430.3419      4402.403      -137166.04    
    724600   2353.0651      3242.2248      4384.295      -137164.73    
    724700   2426.7853      6677.9102      4380.6711     -137159.31    
    724800   2512.5103      12456.431      4401.47       -137161.37    
    724900   2491.2482     -13164.729      4438.2936     -137165.78    
    725000   2241.9045     -3234.1527      4415.3663     -137163.96    
    725100   2289.7098     -6406.8825      4334.1993     -137163.16    
    725200   2681.8751      27430.173      4198.6824     -137164.19    
    725300   2704.042       9738.2447      4180.0166     -137168.84    
    725400   2332.3165      3252.4117      4259.5117     -137166.38    
    725500   2311.7008     -527.20083      4390.7312     -137164.16    
    725600   2445.4627     -7707.6269      4508.914      -137160.79    
    725700   2491.0749     -566.87445      4551.862      -137158.23    
    725800   2602.1701     -8930.0226      4540.7311     -137163.4     
    725900   2460.6091     -4232.1785      4471.5638     -137162.06    
    726000   2488.0541      5723.0111      4359.692      -137165.26    
    726100   2145.6887      5621.0689      4253.1546     -137166.62    
    726200   2368.8237      15271.967      4157.862      -137172.96    
    726300   2376.7334      25780.622      4161.8473     -137168.53    
    726400   2445.2901     -2158.1141      4306.9272     -137165.07    
    726500   2514.9994     -4926.0037      4471.2144     -137163.09    
    726600   2395.6902     -15807.397      4589.8036     -137158.59    
    726700   2552.4325     -6668.4862      4600.9836     -137160.27    
    726800   2708.1337     -10680.625      4535.0682     -137163.3     
    726900   2537.4105      7193.6544      4409.9938     -137163.38    
    727000   2379.1288      8181.3724      4310.8684     -137166.64    
    727100   2436.7164      5007.205       4243.8018     -137167.38    
    727200   2735.617       13511.768      4224.4551     -137171.54    
    727300   2442.2598     -860.96358      4294.2773     -137166.8     
    727400   2321.4349     -4637.8873      4377.6279     -137169.31    
    727500   2343.247      -4095.0933      4436.2646     -137165.73    
    727600   2425.0745      507.58838      4431.3783     -137159.68    
    727700   2637.8172      11279.76       4418.6557     -137163.34    
    727800   2664.8753     -10483.554      4469.9062     -137169.06    
    727900   2188.3154     -16137.202      4481.228      -137160.7     
    728000   2505.8742      5930.4283      4401.0784     -137165.34    
    728100   2571.9468      12129.294      4358.0532     -137164.78    
    728200   2451.7722     -6133.3456      4381.4303     -137162.04    
    728300   2480.2869     -7987.8898      4370.8951     -137166.4     
    728400   2299.8651     -7078.4796      4330.3484     -137166.29    
    728500   2517.9282      1413.2731      4280.6812     -137173       
    728600   2606.2226      3364.405       4280.4773     -137168.76    
    728700   2542.3947      8324.1471      4339.1234     -137162.92    
    728800   2368.6977     -10164.24       4415.1615     -137159.16    
    728900   2408.6441     -2704.9223      4429.5085     -137159.39    
    729000   2557.5361     -2047.4251      4417.1002     -137159.61    
    729100   2770.0567     -2099.4856      4397.2287     -137166.49    
    729200   2523.985      -1189.3129      4380.1756     -137169.25    
    729300   2408.0061      1189.7879      4370.2068     -137168.28    
    729400   2607.1341     -2562.6731      4384.524      -137169.38    
    729500   2497.6532     -620.60321      4394.8536     -137161.92    
    729600   2820.8252      2388.9542      4402.8557     -137164.91    
    729700   2788.4109      4454.1653      4451.9212     -137158.64    
    729800   2495.6017     -5653.6831      4527.8108     -137158.25    
    729900   2437.0386     -8652.9666      4552.7276     -137160.58    
    730000   2499.4253     -2605.5925      4501.5595     -137161.95    
    730100   2520.6741      10983.058      4423.1949     -137162.46    
    730200   2399.8586      5218.9671      4390.5207     -137162.14    
    730300   2443.4622      11455.388      4391.2058     -137166.36    
    730400   2385.2752      7593.4007      4433.2014     -137165.89    
    730500   2417.666      -11591.116      4477.7854     -137161.21    
    730600   2487.7389     -5224.683       4449.7144     -137155.35    
    730700   2871.2076      4534.7375      4376.3684     -137167.6     
    730800   2473.7926      372.77972      4336.9742     -137164.83    
    730900   2550.0054     -3128.4682      4324.5807     -137167.77    
    731000   2596.9929     -3292.0435      4332.7063     -137168.36    
    731100   2623.2        -551.20284      4354.9118     -137166.77    
    731200   2653.6612      6444.3235      4381.5697     -137165.48    
    731300   2395.46        7696.0202      4425.6477     -137161.14    
    731400   2510.6546     -12733.992      4463.1442     -137166.59    
    731500   2721.9316     -6245.5439      4446.4759     -137168.9     
    731600   2629.7411     -3321.052       4420.7839     -137161.93    
    731700   2629.6749     -5455.6977      4376.923      -137165.57    
    731800   2358.7381     -700.59281      4308.0345     -137167.98    
    731900   2339.1735      7639.8189      4254.3484     -137166.57    
    732000   2608.9174      12899.644      4259.5541     -137168.95    
    732100   2591.7136      5687.4596      4331.8335     -137164.25    
    732200   2690.8076      3177.1028      4413.2636     -137162.95    
    732300   2685.2125     -8892.2266      4489.1909     -137159.42    
    732400   2594.5449     -11060.31       4496.4937     -137163.38    
    732500   2371.3454      3639.8457      4443.7432     -137162.81    
    732600   2413.8591     -2367.938       4391.2908     -137165.2     
    732700   2803.3278      7435.3564      4347.8922     -137170.42    
    732800   2679.6409      10770.763      4353.2951     -137163.8     
    732900   2321.0243      7486.0226      4392.245      -137162.14    
    733000   2340.9921     -2960.9364      4451.4173     -137164.77    
    733100   2587.7293     -11574.956      4472.0704     -137164.21    
    733200   2667.8408     -3788.9802      4424.0771     -137160.69    
    733300   2732.4648      1212.8525      4373.5861     -137167.01    
    733400   2579.9684     -10369.665      4366.9276     -137170.6     
    733500   2413.3174      2275.896       4342.3744     -137168.29    
    733600   2613.5865     -10436.965      4334.2382     -137169.96    
    733700   2647.8911      338.87863      4320.8306     -137163.57    
    733800   2801.3151     -2935.2722      4326.4165     -137168.77    
    733900   2493.6074      8520.9723      4369.355      -137164.41    
    734000   2260.6653     -500.04942      4443.3387     -137160.46    
    734100   2442.9457     -1518.0224      4498.9419     -137160.87    
    734200   2679.2377     -9517.6108      4528.7625     -137161.34    
    734300   2621.4868     -1846.8646      4520.6499     -137161.35    
    734400   2512.5989     -7946.432       4473.8341     -137162.31    
    734500   2642.4072      1776.165       4385.0596     -137167.35    
    734600   2482.1291      7440.5073      4297.9446     -137166.83    
    734700   2245.2739      14094.57       4253.2783     -137167.23    
    734800   2211.1776     -5549.3865      4269.1531     -137173.37    
    734900   2409.0561      4872.06        4286.2469     -137171       
    735000   2452.0457     -1046.5475      4320.1476     -137165.3     
    735100   2673.0607      1094.0998      4359.2993     -137171.37    
    735200   2390.8015     -6651.7565      4412.3214     -137167.52    
    735300   2293.6833      41.165744      4401.229      -137165.67    
    735400   2585.3226     -543.7402       4346.0157     -137166.09    
    735500   2819.3876      2071.1922      4281.1686     -137170.78    
    735600   2475.7025     -4082.3879      4267.3186     -137172.44    
    735700   2260.8151      1679.6312      4276.6247     -137169.01    
    735800   2516.54        5317.0826      4304.6046     -137169.73    
    735900   2599.7624     -1557.6403      4368.4785     -137166.64    
    736000   2574.8126     -4866.7926      4415.9959     -137166.81    
    736100   2426.7397     -2743.7269      4431.5199     -137166.16    
    736200   2161.5401     -7804.0018      4423.8017     -137163.42    
    736300   2381.2133      7477.673       4372.1658     -137164.85    
    736400   2804.6954     -3893.4382      4336.632      -137169.6     
    736500   2695.8031      2849.3639      4314.5185     -137169.69    
    736600   2434.5287      2746.3012      4344.1451     -137169.05    
    736700   2525.1744     -16937.116      4387.7985     -137169.87    
    736800   2490.8987      5001.3778      4385.5901     -137165.31    
    736900   2694.7932     -117.71153      4417.9642     -137168.78    
    737000   2430.0074     -8418.3665      4463.0108     -137162.99    
    737100   2527.9749     -4897.4604      4467.9678     -137167.71    
    737200   2585.243      -13602.567      4446.9957     -137166.8     
    737300   2527.8904      2695.2317      4354.1046     -137158.77    
    737400   2701.8436      5370.5178      4240.3009     -137164.2     
    737500   2402.4189      19106.346      4165.6758     -137164.32    
    737600   2571.0685      9324.1001      4187.9148     -137171.5     
    737700   2391.5842      92.70266       4292.2315     -137167.28    
    737800   2540.9969     -8571.3727      4405.5793     -137166.58    
    737900   2585.3767     -3612.9633      4490.4625     -137158.08    
    738000   2618.1454     -3337.0868      4544.7689     -137159.75    
    738100   2612.6028     -4710.3595      4573.4202     -137163.81    
    738200   2217.7115     -12660.603      4557.6771     -137157.23    
    738300   2558.6134     -2775.0018      4447.1881     -137166.69    
    738400   2519.989       11065.922      4332.5914     -137167.46    
    738500   2430.6225      2152.6156      4281.4084     -137168.7     
    738600   2491.8892      10830.405      4261.9878     -137169.84    
    738700   2515.378      -2234.6379      4313.672      -137166.76    
    738800   2517.7768     -1434.0622      4361.6152     -137160.62    
    738900   2678.8938      4932.5573      4400.4112     -137159.86    
    739000   2519.6901      1427.8267      4455.4898     -137159.55    
    739100   2414.6764     -17202.828      4481.5805     -137166.48    
    739200   2387.0262     -6460.0449      4427.6184     -137164.3     
    739300   2426.5463      13129.421      4335.1159     -137162.17    
    739400   2516.8599      9336.0911      4293.8702     -137162.23    
    739500   2754.0862      859.34652      4318.8105     -137162.83    
    739600   2545.2245      4846.9406      4387.581      -137158.73    
    739700   2298.1862     -8661.876       4474.1653     -137160.14    
    739800   2311.0101     -1726.6092      4481.2758     -137159.47    
    739900   2540.7306     -6515.4503      4449.5616     -137160.79    
    740000   2741.6507      7578.1229      4425.7309     -137162.97    
    740100   2564.1876      75.931363      4468.4885     -137163.85    
    740200   2306.4271     -8271.6207      4514.4016     -137162.64    
    740300   2475.1827     -9107.2558      4502.1238     -137162.41    
    740400   2663.1202      7884.3988      4439.4562     -137161.77    
    740500   2544.8567      5879.0522      4402.749      -137161.49    
    740600   2464.2758     -3432.7923      4375.289      -137166.85    
    740700   2518.6435      1168.3943      4332.8884     -137170.87    
    740800   2485.1635      7397.0864      4305.2116     -137168.49    
    740900   2598.1678      4091.0204      4332.2976     -137165.67    
    741000   2788.0043     -12570.427      4387.1287     -137165.82    
    741100   2558.7905     -2247.6723      4418.1303     -137162.28    
    741200   2358.3162     -7691.3864      4422.5397     -137166.89    
    741300   2419.2208     -11158.026      4395.2047     -137167.73    
    741400   2559.4685      9507.5549      4339.0229     -137165.23    
    741500   2638.5961      5484.7456      4347.3044     -137166.27    
    741600   2314.3857      7501.472       4400.0098     -137163.22    
    741700   2298.7745     -7556.2684      4446.5465     -137167.67    
    741800   2450.601      -440.64142      4432.2128     -137164.75    
    741900   2506.0014     -2300.738       4401.2305     -137161.45    
    742000   2404.1405      8278.0529      4344.8351     -137162.76    
    742100   2462.0677      1985.5548      4314.3948     -137167.81    
    742200   2589.1009      876.61943      4300.5503     -137174.4     
    742300   2220.8906     -8320.2517      4324.5024     -137168.74    
    742400   2365.7116     -10636.437      4345.3117     -137165.57    
    742500   2676.8258      5420.7152      4330.7991     -137167.07    
    742600   2534.6932      5038.6165      4345.5542     -137164.28    
    742700   2391.2598      903.49691      4376.4629     -137165.76    
    742800   2483.9683     -7780.1984      4386.9138     -137170.7     
    742900   2396.806       8435.5612      4376.7899     -137163.41    
    743000   2618.9507     -1501.2982      4381.9006     -137161.38    
    743100   2615.7278     -4157.924       4376.7087     -137165.69    
    743200   2421.3934      3619.7175      4358.7347     -137166.18    
    743300   2409.9179     -1087.8794      4344.5667     -137166.45    
    743400   2367.2707      12878.475      4319.9784     -137162.09    
    743500   2565.2063      9841.5744      4331.2142     -137162.08    
    743600   2537.1755     -6837.4959      4393.0898     -137158.18    
    743700   2746.3148     -3034.3689      4463.1144     -137164.15    
    743800   2467.2312     -12930.875      4505.4635     -137165.16    
    743900   2348.1573      8330.2837      4449.4069     -137164.96    
    744000   2660.6502      415.88416      4381.1608     -137171.56    
    744100   2439.7524      9549.2942      4324.7395     -137167.82    
    744200   2275.7914     -7605.9171      4307.8615     -137168.53    
    744300   2532.1769      5768.2185      4264.7662     -137169.55    
    744400   2655.6865      7265.9001      4270.2918     -137167.31    
    744500   2473.2532      870.97094      4348.5425     -137164.88    
    744600   2420.8356     -8262.2025      4429.8755     -137164.15    
    744700   2754.7903     -4115.8235      4469.5757     -137165.95    
    744800   2642.6406     -1962.9249      4477.1096     -137158.58    
    744900   2487.8086     -9229.715       4462.4272     -137161.08    
    745000   2516.4858     -1576.0708      4414.5337     -137164.67    
    745100   2581.52        3698.8144      4377.1639     -137167.2     
    745200   2561.286      -2249.7122      4374.6839     -137167.07    
    745300   2510.1497      3151.5964      4374.8295     -137165.61    
    745400   2737.211      -5693.813       4389.6845     -137170.15    
    745500   2569.4361     -3332.156       4422.9972     -137166.17    
    745600   2536.7744     -3737.142       4455.1547     -137168.47    
    745700   2267.8202     -5645.9609      4467.9482     -137163.2     
    745800   2535.8955      5831.0453      4418.454      -137163.83    
    745900   2733.8281     -1238.4982      4352.1011     -137164.69    
    746000   2534.3912      10678.875      4319.3985     -137164.3     
    746100   2374.7316      8771.222       4331.3199     -137167.44    
    746200   2556.748       455.26386      4364.6951     -137172.85    
    746300   2456.1494      2605.2722      4405.8352     -137168.25    
    746400   2420.9189      1414.9562      4440.4653     -137161.84    
    746500   2732.1156     -2804.7692      4460.3072     -137164.64    
    746600   2576.332      -3197.6022      4456.5594     -137162.99    
    746700   2331.5799     -6269.5307      4409.9531     -137167.84    
    746800   2406.0865      6377.1287      4324.6285     -137168.89    
    746900   2373.6343      15783.819      4267.2821     -137165.85    
    747000   2573.4933      3822.431       4288.0166     -137164.45    
    747100   2593.5514      9807.6109      4344.3455     -137164.56    
    747200   2278.4298     -11368.841      4434.4912     -137166.04    
    747300   2371.0374     -5530.8853      4462.8374     -137167.08    
    747400   2512.9284     -6753.245       4452.7681     -137165.57    
    747500   2569.4456      259.96534      4423.0491     -137163.38    
    747600   2648.3675      620.39766      4403.0762     -137167.5     
    747700   2264.7089     -6372.5663      4409.8213     -137166.58    
    747800   2347.7908     -8117.9906      4383.1736     -137167.51    
    747900   2520.4192      7451.0078      4300.4627     -137167.5     
    748000   2641.877       12026.964      4236.1888     -137169.41    
    748100   2431.7026     -3349.7617      4276.1951     -137168.43    
    748200   2253.1518     -1080.052       4354.4083     -137167.31    
    748300   2409.6261     -12470.66       4408.5231     -137164.53    
    748400   2561.0788     -2450.8747      4393.9486     -137160.22    
    748500   2724.795      -3843.2496      4371.9056     -137165.59    
    748600   2585.7318     -2380.1943      4368.3051     -137169.56    
    748700   2410.563      -6966.3469      4367.8562     -137168.77    
    748800   2477.3144      4670.395       4340.9453     -137169.4     
    748900   2455.2345      14351.083      4341.623      -137163.03    
    749000   2597.4409      3387.6156      4408.7672     -137157.18    
    749100   2672.4336     -7439.2763      4499.067      -137162.15    
    749200   2431.7055     -17516.812      4565.8601     -137157.94    
    749300   2454.7991     -2159.4107      4514.0092     -137158.35    
    749400   2692.0419     -2524.1655      4417.1271     -137163.87    
    749500   2626.6892      5579.1435      4324.9661     -137167.81    
    749600   2424.4643     -3623.5617      4263.6967     -137170.16    
    749700   2405.5895      17768.916      4200.1566     -137170.23    
    749800   2384.0659      5769.2845      4216.9731     -137168.56    
    749900   2664.448      -5515.9906      4307.5006     -137168.89    
    750000   2801.2835     -5959.1572      4420.0743     -137164.83    
    750100   2697.703      -9669.3014      4525.8108     -137161.82    
    750200   2370.2521     -9825.7658      4562.9821     -137160.36    
    750300   2193.9894     -13713.235      4495.972      -137166.35    
    750400   2308.0006      15832.043      4342.6839     -137166.9     
    750500   2601.0606      1243.968       4268.4332     -137169.56    
    750600   2495.8471      17972.711      4244.1234     -137166.54    
    750700   2433.3253     -8253.1072      4308.3051     -137166.11    
    750800   2601.6539     -5426.5395      4355.6389     -137167.74    
    750900   2601.9332     -653.93022      4389.0403     -137161.27    
    751000   2504.9875      318.05364      4421.5023     -137160.32    
    751100   2282.2395     -5612.7116      4438.1577     -137162.52    
    751200   2372.1751      224.08463      4397.6259     -137164.44    
    751300   2558.8148      895.02259      4335.8764     -137167.21    
    751400   2483.9647      12150.645      4301.2022     -137165.81    
    751500   2569.5557      7011.6516      4336.3426     -137171.18    
    751600   2281.7589     -3311.6928      4398.1876     -137165.65    
    751700   2466.9281     -11234.175      4419.8368     -137164.94    
    751800   2511.1705      20304.665      4388.9263     -137159.55    
    751900   2475.8628      4615.1778      4409.6114     -137161.25    
    752000   2570.3987     -10983.313      4441.3185     -137167.25    
    752100   2408.6098     -5108.4614      4416.1096     -137166.32    
    752200   2479.8977      5885.3478      4354.9976     -137166.12    
    752300   2496.5969      8493.075       4324.4548     -137162.26    
    752400   2634.8612      10038.425      4316.123      -137167.5     
    752500   2357.7436      1832.4524      4344.0085     -137167.71    
    752600   2337.0896     -3463.1671      4363.8351     -137168.35    
    752700   2422.646       9612.1058      4353.2591     -137163.33    
    752800   2556.9234     -371.80439      4375.5097     -137163.08    
    752900   2456.0276      4476.2533      4411.5613     -137161.25    
    753000   2437.5354     -4992.8033      4449.9589     -137161.59    
    753100   2377.0701      6558.326       4463.8166     -137157.48    
    753200   2847.3896     -611.64669      4491.3158     -137162.74    
    753300   2370.6748     -4285.8266      4526.3216     -137155.57    
    753400   2394.7124     -9784.7834      4520.7867     -137161.61    
    753500   2637.2256     -9147.0533      4440.2915     -137168.57    
    753600   2590.7189      4486.3903      4324.8323     -137168.04    
    753700   2641.2523      13884.359      4242.7717     -137171.06    
    753800   2193.3376      4663.3569      4234.9718     -137166.87    
    753900   2196.6584     -5515.0349      4246.9886     -137171.22    
    754000   2446.1127      4461.0269      4245.7903     -137171.6     
    754100   2492.3046      4490.5548      4283.1776     -137169.63    
    754200   2636.0276     -64.919917      4349.4861     -137170.3     
    754300   2534.4995      3699.1565      4423.6868     -137166.6     
    754400   2335.1704      2682.0143      4494.4214     -137161.77    
    754500   2360.3197     -7536.2077      4538.922      -137161.15    
    754600   2671.4958     -13538.788      4535.6188     -137162.86    
    754700   2668.7523      6546.9325      4472.4674     -137164.69    
    754800   2376.8059     -11500.25       4420.7461     -137165.29    
    754900   2462.4711      4227.9865      4305.1047     -137167.94    
    755000   2576.0087      9410.2134      4221.6679     -137168.42    
    755100   2633.4812     -68.071496      4218.145      -137172.69    
    755200   2463.8722     -300.27781      4260.1714     -137172.28    
    755300   2384.6661     -4882.1019      4320.052      -137168.93    
    755400   2515.8959      8456.3253      4376.3747     -137160.43    
    755500   2533.083      -2024.4326      4443.7013     -137158.63    
    755600   2571.8503     -6882.2604      4482.0267     -137161.74    
    755700   2396.2287     -12550.929      4493.7793     -137161.32    
    755800   2616.1032      1661.0634      4435.2319     -137169.13    
    755900   2373.2549     -5195.3731      4376.9492     -137166.23    
    756000   2430.3394     -6652.2161      4310.1965     -137168.83    
    756100   2671.9538      9187.4775      4252.5843     -137167.16    
    756200   2674.7637     -3732.4633      4277.6474     -137164.65    
    756300   2553.0798     -11382.114      4341.5278     -137163.46    
    756400   2440.5225      1902.0793      4393.5571     -137165.85    
    756500   2275.3837     -10654.539      4443.8383     -137169.29    
    756600   2376.7086     -5982.3183      4411.6893     -137168.69    
    756700   2651.5092      826.69234      4332.6158     -137170.47    
    756800   2521.7214      6726.1171      4267.2831     -137167.77    
    756900   2433.9222     -3774.3762      4259.3473     -137167.77    
    757000   2536.1072      1291.6425      4279.5002     -137172.95    
    757100   2272.1363     -99.698953      4326.6086     -137169.2     
    757200   2260.8784      543.4346       4365.7335     -137162.9     
    757300   2703.0313     -3465.5747      4380.042      -137168.25    
    757400   2562.6838      805.50731      4382.9455     -137165.98    
    757500   2279.4831     -4705.3969      4392.5413     -137162.98    
    757600   2365.3458     -3605.1288      4389.1273     -137166.98    
    757700   2531.695       9362.0178      4370.1955     -137166.3     
    757800   2658.712       7056.0379      4350.9388     -137166.35    
    757900   2537.2083      1759.1332      4372.3199     -137165.5     
    758000   2414.9341     -1125.859       4419.474      -137168.65    
    758100   2333.6234     -9214.1304      4459.9561     -137169.47    
    758200   2469.5644     -6090.0337      4470.3888     -137163.13    
    758300   2634.7376      713.29375      4434.3699     -137164.91    
    758400   2581.6314     -6500.0271      4390.4455     -137167.16    
    758500   2527.815      -5521.1366      4322.6124     -137170.42    
    758600   2335.2254      17194.995      4244.136      -137167.39    
    758700   2373.4311      8664.2838      4244.8122     -137168.84    
    758800   2632.7375      10119.121      4309.6919     -137168.82    
    758900   2643.3734     -4639.8623      4437.9161     -137165.85    
    759000   2425.5874     -5992.1271      4553.3061     -137159.06    
    759100   2495.8512     -10963.244      4594.6157     -137157.39    
    759200   2713.554       8005.0789      4535.4745     -137158.91    
    759300   2476.9707      1003.899       4471.5126     -137159.38    
    759400   2399.5661      9026.5139      4390.2858     -137164.21    
    759500   2457.1062     -1841.687       4330.3057     -137164.92    
    759600   2598.5443      15121.008      4307.7119     -137165.51    
    759700   2562.3222     -11812.808      4369.3548     -137165.68    
    759800   2302.6789     -2094.7626      4390.6682     -137167.46    
    759900   2344.8345      471.26926      4391.6204     -137170.01    
    760000   2530.3658      154.80297      4385.2671     -137167.68    
    760100   2577.2869      10705.647      4381.3255     -137165.47    
    760200   2357.9477      501.99706      4422.3473     -137161.1     
    760300   2474.8081     -8546.258       4439.9712     -137164.39    
    760400   2610.2221     -687.26335      4414.7084     -137161.9     
    760500   2752.9074      16006.651      4409.7033     -137159       
    760600   2549.2313     -6469.8808      4505.8703     -137159.8     
    760700   2362.9153     -5743.1891      4552.8595     -137159.1     
    760800   2539.6818     -13248.674      4514.79       -137165.03    
    760900   2358.6372      4585.1354      4424.6622     -137160.6     
    761000   2541.433       18585.287      4362.4336     -137162.4     
    761100   2428.8131      9588.8287      4392.5805     -137158.65    
    761200   2582.8292     -7668.4045      4433.5456     -137167.55    
    761300   2282.0891     -5777.9557      4414.5502     -137164.58    
    761400   2573.0136     -12172.048      4362.6137     -137169.17    
    761500   2787.3601     -895.75428      4294.6733     -137170.62    
    761600   2406.8879      9920.2457      4262.2205     -137171.31    
    761700   2319.3153      11993.206      4285.012      -137171.67    
    761800   2387.6137      3035.7581      4341.9241     -137168.48    
    761900   2414.9253      6915.6506      4383.6183     -137162.94    
    762000   2727.7418     -5861.9673      4434.061      -137167.98    
    762100   2550.1539     -9512.2126      4468.4799     -137163.9     
    762200   2589.2208     -7520.7951      4464.3647     -137164.08    
    762300   2403.0618     -1763.7368      4416.8029     -137161.27    
    762400   2699.3381     -2086.6575      4373.1501     -137168.98    
    762500   2593.4444     -4141.4694      4376.0863     -137166.48    
    762600   2384.5614     -2364.9796      4399.9063     -137162.67    
    762700   2430.291      -1915.955       4420.105      -137162.3     
    762800   2761.2879     -2183.8226      4441.2174     -137165.55    
    762900   2537.0739     -9047.4766      4463.2698     -137161.75    
    763000   2304.1632     -325.5306       4429.2788     -137162.55    
    763100   2422.0112      7302.0117      4377.2064     -137164.8     
    763200   2691.549       6451.8676      4343.1453     -137165       
    763300   2790.1031      16833.349      4350.0601     -137160.81    
    763400   2643.6317     -2142.6358      4418.7782     -137165.24    
    763500   2451.1343     -13204.039      4481.7298     -137162.87    
    763600   2405.6504     -5593.8621      4461.2162     -137158.95    
    763700   2595.3319      2431.525       4388.2561     -137158.97    
    763800   2580.1726      15327.161      4323.6792     -137162.97    
    763900   2466.4902     -5858.0733      4313.9927     -137169.57    
    764000   2556.3579     -4784.811       4309.3828     -137170.33    
    764100   2520.7129      1798.9201      4291.7589     -137165.08    
    764200   2782.2881      1826.5204      4290.1242     -137167.83    
    764300   2536.6798      6067.7687      4341.6331     -137164.14    
    764400   2398.8629     -22824.439      4441.841      -137168.83    
    764500   2364.5128     -5533.1086      4456.2271     -137165.64    
    764600   2517.9447     -6206.7694      4409.585      -137163.14    
    764700   2361.0137      15155.541      4337.5221     -137157.51    
    764800   2502.4571      519.90927      4310.9823     -137164.65    
    764900   2564.6747     -3.1116104      4303.2191     -137170.17    
    765000   2454.2586      3001.2982      4298.3247     -137170.3     
    765100   2355.0344      1215.6826      4304.1076     -137173.46    
    765200   2291.3005     -537.84379      4318.4891     -137170.84    
    765300   2516.4361      148.42314      4334.4722     -137167.89    
    765400   2431.5701      5043.8242      4381.0076     -137161.84    
    765500   2506.0903     -7879.7459      4446.3605     -137163.17    
    765600   2649.6543     -2193.011       4474.0819     -137166.37    
    765700   2438.0985      1639.468       4491.5295     -137157.38    
    765800   2773.4562     -4644.8868      4478.6799     -137163.54    
    765900   2503.84        1299.5816      4440.32       -137164.55    
    766000   2382.5622     -5750.9421      4411.7505     -137164.75    
    766100   2502.5161      3262.1158      4356.5686     -137165.9     
    766200   2534.207       2966.8357      4306.2388     -137162.37    
    766300   2695.66        19791.145      4266.6802     -137164.52    
    766400   2353.4607      1980.5747      4327.6202     -137165.13    
    766500   2489.9507     -6963.19        4422.5575     -137170.53    
    766600   2321.3734      1447.2651      4476.9065     -137160.63    
    766700   2608.4247     -5219.7587      4487.2107     -137161.63    
    766800   2574.5995     -5685.8732      4454.0128     -137161.24    
    766900   2525.1849     -2689.0912      4387.3981     -137162.46    
    767000   2428.5786      6994.2418      4304.4811     -137162.99    
    767100   2403.8892      3035.7896      4258.264      -137169.91    
    767200   2231.2314      2292.5152      4221.6628     -137172.23    
    767300   2343.7546      3144.0826      4180.609      -137170.12    
    767400   2501.5356      12607.76       4173.835      -137168.94    
    767500   2481.494       3698.1025      4260.3268     -137166.5     
    767600   2312.9677      3527.038       4387.843      -137158.42    
    767700   2873.7831     -11354.85       4486.8172     -137163.16    
    767800   2631.6324      459.21271      4520.7535     -137157.06    
    767900   2467.4147     -3447.6895      4500.7396     -137158.65    
    768000   2475.2856      3088.7746      4448.672      -137160.97    
    768100   2492.9717      3987.1792      4399.4687     -137163.78    
    768200   2627.1557     -6951.6095      4358.1599     -137169.37    
    768300   2422.589       6894.0274      4320.0858     -137170.33    
    768400   2234.8967      303.13311      4322.2517     -137168.79    
    768500   2595.6116      5957.4163      4334.4929     -137170.6     
    768600   2572.1092      2757.7464      4381.6177     -137166.97    
    768700   2455.6662      1709.7418      4431.2704     -137164.35    
    768800   2580.4718     -8215.6669      4471.1763     -137165.94    
    768900   2663.0264      4123.1204      4490.5831     -137161.37    
    769000   2798.0041     -8407.4871      4514.0731     -137159.58    
    769100   2571.2935     -3631.5779      4494.0638     -137162.33    
    769200   2363.1219      524.79491      4443.3607     -137162.31    
    769300   2467.1198     -3434.9297      4365.8481     -137166.5     
    769400   2457.9934      1160.3431      4281.3594     -137169.22    
    769500   2194.734       13949.577      4239.2868     -137167.91    
    769600   2154.9618      10326.285      4246.8545     -137167.95    
    769700   2629.198       8238.2571      4296.958      -137170.93    
    769800   2560.6403     -2526.9455      4377.0413     -137167.37    
    769900   2537.2396     -4523.3017      4425.3925     -137166.85    
    770000   2588.2679      2382.6294      4442.1979     -137167.64    
    770100   2429.0544     -7224.5133      4460.2975     -137160.77    
    770200   2611.3802     -1705.6583      4448.4253     -137159.74    
    770300   2734.2279     -3019.0709      4432.0968     -137163.83    
    770400   2479.3621     -4856.5902      4428.8052     -137166.32    
    770500   2423.9602     -11867.562      4428.9741     -137166.47    
    770600   2444.7037      4487.5153      4373.8622     -137165.68    
    770700   2751.015      -1181.5084      4336.872      -137168.19    
    770800   2728.9435      3826.8952      4352.5905     -137161.96    
    770900   2408.7983     -4962.4344      4404.2758     -137162.29    
    771000   2374.479      -3986.4596      4410.9698     -137165.94    
    771100   2479.2653     -3113.3252      4378.4937     -137166.95    
    771200   2571.9598     -7188.5388      4331.4112     -137164       
    771300   2691.7786      8409.1175      4285.5791     -137163.99    
    771400   2369.9648      4568.5232      4309.6648     -137166.16    
    771500   2321.4395     -8126.6767      4375.0416     -137166.49    
    771600   2452.7849      6886.5336      4413.2783     -137164.1     
    771700   2528.3843     -7722.2398      4470.6122     -137161.51    
    771800   2642.6674     -3958.3723      4496.7122     -137162.68    
    771900   2550.2673     -609.91551      4500.5243     -137163.6     
    772000   2356.8477     -11970.337      4483.3354     -137166.74    
    772100   2438.4261     -688.979        4399.1496     -137168.74    
    772200   2637.5622      3574.8397      4303.3686     -137169.27    
    772300   2898.6274      13886.014      4258.8283     -137171.64    
    772400   2506.7063     -6875.163       4303.2123     -137171.27    
    772500   2319.2438      2882.8084      4326.6281     -137170.75    
    772600   2477.3262      1660.7438      4334.2782     -137172.26    
    772700   2639.8902      5768.0476      4350.6521     -137169.1     
    772800   2612.4453     -8488.9816      4395.5079     -137167.04    
    772900   2512.7008     -2273.7549      4391.6432     -137167.75    
    773000   2368.1136      2478.1273      4352.9977     -137167.96    
    773100   2243.0811     -34.252894      4316.9517     -137169.36    
    773200   2337.0077      5866.2481      4271.7694     -137170.01    
    773300   2417.3542      13849.716      4263.5858     -137163.89    
    773400   2399.1143      11176.342      4327.7745     -137162.13    
    773500   2371.9489     -11036.396      4432.445      -137163.78    
    773600   2224.9914     -8187.6809      4446.987      -137162.63    
    773700   2469.793      -136.74428      4366.9502     -137163.49    
    773800   2835.0358      15670.951      4290.3178     -137167.57    
    773900   2558.6834     -3631.8275      4314.6538     -137166.38    
    774000   2287.8116     -4440.9099      4361.0618     -137163.2     
    774100   2271.1037      17489.688      4389.4308     -137160.11    
    774200   2551.1268     -441.1265       4471.4877     -137163.91    
    774300   2421.1809     -7434.835       4541.1873     -137158.31    
    774400   2402.3356     -641.50807      4532.0834     -137156.31    
    774500   2513.3453     -2793.6758      4475.2791     -137157.9     
    774600   2690.9941     -4542.5104      4391.5696     -137164.36    
    774700   2352.0991      1434.2733      4309.866      -137167.4     
    774800   2440.4321      6054.606       4249.5812     -137170.59    
    774900   2470.8714      12104.8        4234.1316     -137170.26    
    775000   2266.2064      12720.898      4285.3068     -137165.55    
    775100   2687.9448     -13112.401      4370.9868     -137168.48    
    775200   2574.809       8351.3326      4402.9395     -137161.41    
    775300   2672.4662     -6858.6839      4452.3329     -137165.73    
    775400   2298.8514     -12376.561      4470.2851     -137162.12    
    775500   2296.8649      1969.4367      4400.6437     -137164.14    
    775600   2657.4374      4099.5895      4334.38       -137162.9     
    775700   2682.8131      1596.3266      4324.4758     -137164.06    
    775800   2516.8702      2142.053       4333.2571     -137166.87    
    775900   2302.7549      4520.686       4353.5476     -137163.04    
    776000   2545.9038      3599.1095      4394.1145     -137166.98    
    776100   2514.4631     -3466.3141      4460.5696     -137163.01    
    776200   2571.6863      1400.4094      4503.4837     -137155.86    
    776300   2976.1877     -5222.6055      4516.3011     -137161.46    
    776400   2548.3069      1314.3373      4488.9707     -137158.55    
    776500   2685.5379     -3582.3035      4435.4692     -137166.77    
    776600   2360.5746      2985.3221      4380.2989     -137160.29    
    776700   2612.9855      14437.882      4325.3759     -137165.39    
    776800   2456.0444      4882.8793      4332.5911     -137165.04    
    776900   2313.9019     -7712.7677      4346.2596     -137168.68    
    777000   2407.7537      12393.381      4324.3536     -137169.99    
    777100   2485.2062      7192.8588      4342.5286     -137166.37    
    777200   2478.189       6534.8984      4376.7603     -137160.21    
    777300   2919.5847      1423.846       4438.8638     -137162.24    
    777400   2553.1138     -6053.2175      4513.7552     -137160.68    
    777500   2459.979      -10125.818      4528.1549     -137160.87    
    777600   2550.9518      12176.211      4449.0308     -137162.33    
    777700   2594.8913      11616.586      4392.9924     -137166.49    
    777800   2158.464      -1605.471       4388.1411     -137162.48    
    777900   2410.4705     -3236.4797      4357.1699     -137167.59    
    778000   2462.1336      14969.036      4298.1033     -137165.55    
    778100   2360.082       3437.0668      4312.9384     -137161.94    
    778200   2474.2649      165.49071      4350.8775     -137163.62    
    778300   2568.296       13543.553      4392.1028     -137160.18    
    778400   2810.3696     -4742.3907      4491.6584     -137158.43    
    778500   2698.0708     -10737.785      4581.2134     -137158.8     
    778600   2410.9094     -7633.6802      4594.4976     -137160.22    
    778700   2350.7681      4525.3505      4549.7224     -137159.24    
    778800   2704.0013      1546.6766      4504.0318     -137165.81    
    778900   2628.863      -2099.1919      4470.0314     -137164.21    
    779000   2434.7467     -12733.579      4429.1216     -137166.67    
    779100   2430.7768     -1901.6688      4326.2343     -137170.62    
    779200   2389.3585      19291.985      4225.3773     -137168.25    
    779300   2722.799       6114.1038      4221.8564     -137167.77    
    779400   2700.6088      1153.2959      4292.6378     -137164.19    
    779500   2583.1476     -4928.0746      4417.5475     -137167.42    
    779600   2387.2627     -16241.261      4535.3573     -137164.83    
    779700   2470.652      -12572.406      4540.8293     -137164.25    
    779800   2434.0403     -5390.4291      4457.021      -137159.33    
    779900   2730.7104     -1017.3904      4356.8377     -137163.95    
    780000   2591.9807      10119.197      4292.2295     -137167.28    
    780100   2327.5109      5252.7238      4271.5116     -137164.75    
    780200   2462.14        11123.148      4283.2767     -137166.81    
    780300   2555.6973     -169.16262      4338.7111     -137164.95    
    780400   2514.9361      3468.8856      4411.2872     -137159.22    
    780500   2547.0115     -2985.7443      4480.9464     -137155.11    
    780600   2773.7419     -9840.7296      4477.4665     -137159.27    
    780700   2675.7539     -289.94707      4418.0287     -137166.79    
    780800   2446.387      -4185.0756      4371.3529     -137167.37    
    780900   2335.4687     -1989.6246      4298.5807     -137166.56    
    781000   2626.2186      5636.9948      4233.3595     -137171.78    
    781100   2568.2256      14013.493      4245.6553     -137165.99    
    781200   2607.0307      10723.744      4332.2386     -137162.76    
    781300   2648.9294     -4666.2182      4450.5215     -137161.85    
    781400   2375.0967     -8520.4635      4501.3738     -137160.81    
    781500   2304.9798     -4035.0865      4472.3704     -137163.99    
    781600   2537.1741     -9888.7313      4420.3218     -137166.83    
    781700   2588.4536      7486.943       4331.4389     -137163.78    
    781800   2593.4451      13764.444      4278.6637     -137165.85    
    781900   2451.7052      6557.0571      4307.6344     -137165.13    
    782000   2495.5642      395.15711      4362.8935     -137168.78    
    782100   2329.8958     -7804.3987      4412.8605     -137166.35    
    782200   2523.9847      2832.3562      4430.1613     -137164.49    
    782300   2463.2073      2877.4111      4444.0761     -137157.77    
    782400   2567.4889     -3279.0667      4449.4396     -137162.78    
    782500   2504.9902     -1751.2402      4450.4117     -137165.09    
    782600   2236.679       716.54478      4457.8464     -137163.66    
    782700   2235.5991     -10844.924      4451.402      -137169.56    
    782800   2269.0146     -2746.0377      4367.4786     -137168.96    
    782900   2539.3653      11669.614      4278.7791     -137166.32    
    783000   2611.4073      5769.4937      4278.0319     -137167.26    
    783100   2528.553      -3249.7397      4334.3563     -137168.83    
    783200   2459.232      -1184.9429      4378.0498     -137169.62    
    783300   2433.7038     -2737.0626      4400.0157     -137168.56    
    783400   2698.8925      9373.5617      4411.5993     -137167.88    
    783500   2605.0268     -7263.3624      4459.6236     -137162.89    
    783600   2567.8351     -6048.4288      4462.768      -137165.3     
    783700   2202.2541      5491.8516      4428.7671     -137163.69    
    783800   2469.9628     -6635.7491      4390.6703     -137168.59    
    783900   2639.1937     -839.97565      4334.3642     -137169.7     
    784000   2590.5234      4248.3275      4310.1345     -137170.14    
    784100   2335.2102     -21.639776      4339.4081     -137165.85    
    784200   2440.8845     -1692.0247      4359.2538     -137166.26    
    784300   2768.8248     -674.67847      4363.8372     -137165.37    
    784400   2746.0439      4450.0418      4389.1457     -137166.55    
    784500   2399.4467     -2966.9258      4427.2288     -137162.85    
    784600   2485.2739     -7650.6516      4427.3383     -137163.76    
    784700   2649.3141      3137.2555      4386.8356     -137164.69    
    784800   2707.9499     -8308.2006      4358.366      -137164.77    
    784900   2490.9548      9303.7135      4322.1929     -137166.77    
    785000   2318.4709      4716.3711      4323.3707     -137169.47    
    785100   2463.0962      1652.6975      4355.9804     -137172.32    
    785200   2428.8737     -4600.7048      4402.2493     -137163.91    
    785300   2496.4445     -4891.1146      4422.4893     -137161.29    
    785400   2729.5814     -7219.8899      4425.2147     -137168.1     
    785500   2502.302      -1845.8354      4411.3294     -137166.21    
    785600   2250.2506     -7065.153       4361.2382     -137162.34    
    785700   2766.8229      10899.768      4268.305      -137170.49    
    785800   2898.3516      21542.933      4247.7602     -137161.87    
    785900   2721.2969      3980.874       4351.8164     -137158.27    
    786000   2550.1668     -15014.313      4472.7655     -137162.86    
    786100   2339.1323     -3619.4703      4504.8933     -137158.78    
    786200   2434.1027     -3979.62        4464.5933     -137159.09    
    786300   2653.0531      7163.5673      4388.65       -137161.8     
    786400   2397.5413      7161.1604      4356.4775     -137162.37    
    786500   2509.6487     -4480.3539      4365.5784     -137171.68    
    786600   2400.7069     -594.54974      4352.4901     -137168.2     
    786700   2587.2619      5928.0406      4330.2436     -137169.79    
    786800   2650.8801      2829.6375      4366.3125     -137167.2     
    786900   2838.8528      5062.8297      4454.2242     -137163.31    
    787000   2741.6908     -17943.977      4562.0334     -137164.09    
    787100   2355.513      -9403.9595      4587.0023     -137159.79    
    787200   2471.1485     -10274.116      4516.5705     -137163.57    
    787300   2444.9569      7044.3943      4381.2041     -137160.87    
    787400   2732.0486      776.01988      4292.6389     -137168.41    
    787500   2577.3072      10167.404      4264.4708     -137168.15    
    787600   2417.344       8840.7136      4293.92       -137165.9     
    787700   2461.4072      660.33361      4351.662      -137165.81    
    787800   2765.9281     -2383.0675      4418.2003     -137163.75    
    787900   2718.563      -9834.5302      4465.1442     -137161.76    
    788000   2650.2538     -3648.7257      4444.4574     -137166.8     
    788100   2498.3243     -9672.8848      4395.2398     -137166.08    
    788200   2483.729       8882.3211      4343.8956     -137166.35    
    788300   2563.3996      7332.9666      4352.7129     -137166.13    
    788400   2701.5254      122.65734      4396.8569     -137162.03    
    788500   2596.4345     -4798.6804      4469.0225     -137158.36    
    788600   2322.8917     -958.25628      4505.9327     -137159.38    
    788700   2425.3294     -3873.6134      4496.7987     -137162.09    
    788800   2500.9688     -482.2636       4465.0057     -137161.46    
    788900   2575.2205      729.68961      4428.1994     -137164.64    
    789000   2493.7618     -4965.5635      4404.2979     -137165.73    
    789100   2379.3588     -13964.148      4367.5057     -137166.55    
    789200   2390.9195      3784.701       4294.2617     -137169.42    
    789300   2486.3858      12869.655      4251.0114     -137169.35    
    789400   2522.9153      6376.7887      4291.1744     -137166.85    
    789500   2524.2947      1735.9328      4351.5945     -137167.15    
    789600   2409.0289      459.93624      4392.6146     -137165.82    
    789700   2391.3796     -7559.8115      4399.3037     -137166.67    
    789800   2560.9157     -930.97197      4376.0581     -137165.51    
    789900   2661.9865      10438.974      4368.354      -137165.18    
    790000   2260.1428      2581.0299      4407.0827     -137160.44    
    790100   2271.7811     -1315.5806      4430.3037     -137164.62    
    790200   2459.8518     -5032.5289      4417.7836     -137162.58    
    790300   2646.8135      9833.153       4368.9963     -137165.32    
    790400   2563.7765      1744.9283      4387.6165     -137164.28    
    790500   2524.5084     -7216.1655      4444.2593     -137165.56    
    790600   2410.5077     -9886.1096      4469.0001     -137163.11    
    790700   2574.9332     -785.7074       4442.6468     -137161.64    
    790800   2791.6727      2130.1936      4403.1282     -137163.55    
    790900   2465.5002      2549.7952      4390.6623     -137162.89    
    791000   2361.3173      5172.7829      4387.9123     -137163.83    
    791100   2482.0624      478.55466      4381.0755     -137165.06    
    791200   2485.6146      4876.449       4367.5821     -137163.7     
    791300   2559.4263      194.46531      4373.2261     -137167.75    
    791400   2262.0021     -3141.4465      4378.2261     -137164.84    
    791500   2591.7772      1196.6869      4349.0359     -137168.45    
    791600   2663.623       8214.1242      4343.4726     -137165.53    
    791700   2457.7416      5071.7927      4409.1965     -137162.96    
    791800   2530.7061     -13282.072      4503.1444     -137167.34    
    791900   2451.0342     -11393.045      4546.9895     -137161.24    
    792000   2902.379      -9356.2627      4524.1002     -137161.74    
    792100   2678.2861     -3117.4503      4480.1882     -137163.16    
    792200   2500.6645      5826.9639      4429.5222     -137165.69    
    792300   2422.9284      4036.0887      4408.6879     -137168.04    
    792400   2452.7804     -4034.6664      4411.5267     -137169.97    
    792500   2556.6057     -8696.5687      4414.2039     -137164.57    
    792600   2629.4574      1544.3715      4386.4122     -137161.95    
    792700   2551.9095     -644.89584      4339.8775     -137163       
    792800   2413.2255      13606.838      4300.5173     -137163.45    
    792900   2336.4342      259.88143      4319.3139     -137167.13    
    793000   2190.2905     -6236.8313      4343.4744     -137168.43    
    793100   2414.0211     -2602.6799      4335.1574     -137167.88    
    793200   2497.8622      11059.989      4325.0015     -137162.43    
    793300   2517.0938     -6693.9347      4362.3362     -137163.53    
    793400   2501.575       5174.6203      4376.5935     -137166.43    
    793500   2471.5138      1213.2175      4367.0527     -137171.59    
    793600   2219.4058      715.90982      4371.2789     -137167.95    
    793700   2499.4798      2618.9697      4362.942      -137167.23    
    793800   2588.5142     -3210.8298      4384.1785     -137163.98    
    793900   2631.871      -2079.6029      4407.4419     -137167.64    
    794000   2417.9005     -4829.3456      4418.3101     -137167.31    
    794100   2470.8827     -7835.6488      4405.9533     -137169.97    
    794200   2570.8951      2123.1411      4357.1081     -137164.74    
    794300   2760.2628      13705.699      4304.9374     -137164.62    
    794400   2588.1788      8966.9593      4294.1295     -137167.01    
    794500   2431.6016      6201.0183      4349.4653     -137166.17    
    794600   2401.2655     -14401.306      4442.9771     -137163.12    
    794700   2711.2072     -7752.5319      4464.6472     -137164.88    
    794800   2623.9902     -3831.4622      4443.2871     -137165.68    
    794900   2376.3385      136.71236      4400.2401     -137168.67    
    795000   2488.8067     -4261.7127      4350.3115     -137169.72    
    795100   2606.2526      7978.9374      4297.1452     -137167.95    
    795200   2606.8043      7446.8142      4300.1582     -137166.83    
    795300   2256.2015      1830.1989      4357.6517     -137165.46    
    795400   2214.8694     -945.63133      4413.5712     -137164.25    
    795500   2496.3519      85.379056      4416.6267     -137163.74    
    795600   2605.3698     -160.20493      4411.9625     -137166.64    
    795700   2456.3783     -2726.99        4424.8459     -137164.75    
    795800   2275.9925     -3302.5868      4434.4485     -137158.64    
    795900   2809.7         10665.81       4409.0616     -137165.69    
    796000   2641.1106     -1654.3213      4447.3534     -137162.73    
    796100   2460.5632     -16393.941      4468.9188     -137167.37    
    796200   2465.9709      3573.6773      4418.6681     -137167.81    
    796300   2583.6236     -562.56332      4378.2774     -137169.37    
    796400   2505.2705     -336.64141      4352.7423     -137165.5     
    796500   2790.1191      2323.9765      4330.7144     -137166.06    
    796600   2584.5251     -1100.4801      4333.5673     -137162.38    
    796700   2302.5004      3516.6983      4330.4953     -137162.33    
    796800   2511.5877      5496.2383      4326.1377     -137170.03    
    796900   2365.221       1324.4464      4368.0028     -137166.35    
    797000   2381.282      -8668.4519      4445.2504     -137162.18    
    797100   2371.3251     -3540.3308      4474.7836     -137158.23    
    797200   2634.0811     -4304.7299      4452.4295     -137162.62    
    797300   2641.8188      6206.2221      4389.158      -137163.56    
    797400   2459.4443     -9018.6266      4341.4044     -137166.68    
    797500   2290.5598     -2662.7328      4268.5403     -137164.44    
    797600   2688.5662      13084.403      4167.4133     -137171.6     
    797700   2564.9613      21265.431      4168.8646     -137170.58    
    797800   2415.7702     -7041.0055      4285.2124     -137169.43    
    797900   2502.7871     -7083.2971      4353.6548     -137169.16    
    798000   2416.281      -13117.427      4379.055      -137162.84    
    798100   2822.3656      1985.9829      4365.3371     -137165.68    
    798200   2747.7061      304.12529      4356.2471     -137169.17    
    798300   2356.3139     -4018.4111      4363.0589     -137167.9     
    798400   2491.6261      3944.5723      4370.392      -137167.06    
    798500   2573.1964      2500.6376      4396.2497     -137165.63    
    798600   2415.8296     -8157.8984      4424.9929     -137165.33    
    798700   2438.649      -7251.6821      4445.1617     -137169.27    
    798800   2352.5702     -10815.288      4429.409      -137161.16    
    798900   2755.118       7200.4938      4363.1199     -137164.63    
    799000   2531.5086      13197.046      4350.4376     -137165.63    
    799100   2411.8141     -6287.6252      4379.2725     -137167.64    
    799200   2460.0225     -5307.2966      4386.7414     -137166.83    
    799300   2675.9615      2239.4688      4370.3769     -137167.25    
    799400   2641.6262      10666.812      4367.9195     -137163.08    
    799500   2536.9815     -5440.9647      4418.1082     -137165.38    
    799600   2348.4438     -5979.9912      4450.0804     -137166.39    
    799700   2413.1991     -1520.5364      4431.0631     -137167.08    
    799800   2476.683       1988.645       4393.1504     -137162.83    
    799900   2739.3342     -677.8806       4359.959      -137163.21    
    800000   2832.684      -2789.3853      4364.4284     -137168.65    
    800100   2290.5628      2463.0741      4398.5642     -137165       
    800200   2380.2077     -7251.4803      4432.4551     -137165.28    
    800300   2634.0819     -11379.866      4417.5265     -137166.13    
    800400   2598.4491      5721.9528      4353.4998     -137164.08    
    800500   2525.0005      11981.099      4312.3475     -137169.4     
    800600   2302.8095      318.23949      4318.6513     -137168.75    
    800700   2429.1451      3173.7744      4321.8308     -137169.15    
    800800   2504.9931      2739.9535      4348.4251     -137167.88    
    800900   2319.0339     -1009.8387      4373.4196     -137161.27    
    801000   2722.5669      13502.673      4389.5191     -137166.4     
    801100   2820.5951     -4890.8453      4482.3614     -137157.42    
    801200   2539.6086     -12445.109      4572.3208     -137152.95    
    801300   2463.1989     -11477.622      4600.2028     -137157.58    
    801400   2493.8053     -4373.8497      4531.2505     -137158.75    
    801500   2469.1583      2002.75        4408.4745     -137158.09    
    801600   2477.8201      6232.2714      4306.2121     -137162.66    
    801700   2465.2177      3452.7462      4234.2418     -137170.59    
    801800   2381.6928      8003.2424      4201.0926     -137168.96    
    801900   2617.5134      1193.597       4219.3721     -137172.09    
    802000   2475.9798      8661.4822      4271.1246     -137166.84    
    802100   2678.7954      648.13808      4358.2011     -137164.68    
    802200   2772.133       2446.8838      4494.3225     -137159.78    
    802300   2459.8337     -16127.567      4636.0097     -137153.49    
    802400   2439.161      -9378.9999      4664.6103     -137150.69    
    802500   2838.9156     -8246.7361      4628.8413     -137158.21    
    802600   2391.2093     -13075.077      4544.131      -137155.82    
    802700   2537.8297      2342.2205      4403.9783     -137164.27    
    802800   2554.7362      13148.773      4293.7456     -137165.35    
    802900   2701.0011      3602.7324      4285.5805     -137170.87    
    803000   2416.8063     -11163.403      4327.521      -137173.38    
    803100   2259.5879     -5999.2316      4320.1966     -137169.84    
    803200   2420.3333      4159.6245      4278.0281     -137168.23    
    803300   2508.2137     -528.81798      4274.0733     -137165.73    
    803400   2658.4471      493.25422      4286.4644     -137169.27    
    803500   2292.5324      54.096376      4322.0142     -137164.84    
    803600   2241.3139     -5707.095       4353.1076     -137168.46    
    803700   2473.0959      5479.2286      4346.4979     -137163.78    
    803800   2710.718       10990.943      4356.4234     -137168.14    
    803900   2225.5296     -2398.9459      4419.1524     -137160.5     
    804000   2452.6898     -6894.9514      4442.797      -137165.1     
    804100   2703.361       14.104406      4397.4394     -137165.22    
    804200   2668.3944      6241.7049      4337.9592     -137161.95    
    804300   2508.38       -4686.7223      4314.0949     -137168.45    
    804400   2505.5993     -8177.785       4313.9635     -137171.9     
    804500   2596.8318     -8422.7092      4302.8131     -137170.55    
    804600   2511.1589      7504.9073      4299.8708     -137163.09    
    804700   2641.9729      9398.7525      4356.7429     -137164.45    
    804800   2267.7406     -12695.226      4475.7469     -137161.57    
    804900   2376.8736     -12453.334      4539.9033     -137165.46    
    805000   2552.7604     -1915.7983      4494.3746     -137162.61    
    805100   2648.3908      8502.7392      4446.2581     -137163.49    
    805200   2573.2271     -10575.56       4440.8472     -137164.51    
    805300   2378.2995     -4485.5194      4394.1543     -137163.15    
    805400   2326.6847      5283.5757      4345.8053     -137166.31    
    805500   2235.3342      208.99011      4302.6772     -137169.81    
    805600   2426.6696      15267.635      4266.9651     -137170.34    
    805700   2800.0137      2125.7254      4305.3403     -137173.6     
    805800   2619.2994     -2016.043       4377.4608     -137169.92    
    805900   2357.0268      5466.9132      4428.6041     -137166.59    
    806000   2491.6173     -10638.076      4473.9684     -137168.34    
    806100   2777.9273     -6492.2968      4463.0016     -137163.71    
    806200   2765.6555     -279.02098      4422.3218     -137165.58    
    806300   2548.4979     -5524.0046      4403.3334     -137167.55    
    806400   2470.6622      4886.7878      4366.7076     -137166.69    
    806500   2587.7357      1669.2513      4335.8144     -137166.75    
    806600   2709.2118      6183.1364      4327.1254     -137166.6     
    806700   2671.8777     -5511.3211      4344.8465     -137169.27    
    806800   2352.2795     -9891.9974      4354.5256     -137168.15    
    806900   2348.9085      6400.0819      4348.1363     -137166.94    
    807000   2651.4332     -4119.0201      4367.8552     -137168.67    
    807100   2611.244       4215.7963      4393.225      -137167.68    
    807200   2138.6521     -334.64331      4439.6967     -137164.31    
    807300   2329.9349     -1299.7129      4459.3148     -137171.71    
    807400   2404.5999     -4701.06        4443.8454     -137167.99    
    807500   2458.2855     -1824.2953      4377.0738     -137165.24    
    807600   2628.6266      5787.7048      4309.8229     -137167.89    
    807700   2374.3918      241.14628      4293.0854     -137164.09    
    807800   2327.1368     -379.72084      4295.2841     -137168.39    
    807900   2215.2395     -396.93353      4290.1873     -137169.74    
    808000   2418.1026      3432.9501      4286.3567     -137165.6     
    808100   2576.4781      10889.299      4320.53       -137166.13    
    808200   2408.9077     -9750.4404      4417.0153     -137162.37    
    808300   2513.1863     -10644.137      4466.6513     -137163.72    
    808400   2614.6904     -2765.6903      4459.2408     -137163.43    
    808500   2574.9426      8019.5946      4431.0416     -137160.4     
    808600   2500.9781     -11114.105      4406.5271     -137166.28    
    808700   2445.4758      2702.6392      4359.7536     -137169.21    
    808800   2431.7332      8422.1225      4345.3939     -137167.12    
    808900   2655.6365     -9771.3035      4381.2566     -137166.6     
    809000   2759.3442      1003.7624      4410.7715     -137161.88    
    809100   2522.157      -5859.0508      4455.1517     -137160.26    
    809200   2275.0214     -3613.2965      4434.3079     -137164.07    
    809300   2655.9949     -1955.7582      4383.0771     -137171.69    
    809400   2475.6361     -2896.5218      4356.266      -137165.47    
    809500   2562.1895      1916.0675      4333.2986     -137166.21    
    809600   2502.645       5477.303       4315.0738     -137164.71    
    809700   2435.5089      3739.0119      4326.9542     -137168.56    
    809800   2406.1376     -5177.545       4365.6389     -137169.54    
    809900   2508.5843      7398.9617      4408.1539     -137163.33    
    810000   2566.9629     -9289.696       4468.7375     -137161.3     
    810100   2589.7754     -13506.07       4491.489      -137162.48    
    810200   2510.0821      2373.0866      4423.8588     -137166.01    
    810300   2261.7856      7311.5445      4319.3161     -137166.24    
    810400   2453.838       8579.9569      4230.1938     -137170.27    
    810500   2396.1132      22356.833      4214.4825     -137167.36    
    810600   2566.52       -4033.3002      4317.0203     -137173.92    
    810700   2423.2567     -9142.2312      4444.0102     -137168.98    
    810800   2544.3162     -5741.9444      4525.1743     -137160.65    
    810900   2600.6391     -13721.018      4572.4302     -137158.12    
    811000   2680.7472     -9426.3489      4582.1173     -137159.56    
    811100   2592.4105     -12935.798      4533.7736     -137163.41    
    811200   2427.9629      1039.1247      4422.8481     -137164.59    
    811300   2451.8645      8021.6973      4316.9268     -137168.63    
    811400   2218.5628      8260.7071      4248.6448     -137171.45    
    811500   2215.5404     -5914.8062      4204.5517     -137171.74    
    811600   2458.8773      17442.645      4150.0158     -137170.19    
    811700   2587.7071      10388.083      4205.4638     -137170.88    
    811800   2449.5857     -1605.37        4333.3775     -137166.25    
    811900   2544.8583     -5633.7917      4458.1188     -137164.99    
    812000   2580.3538     -8650.3062      4526.4273     -137159.31    
    812100   2729.6941     -5477.9738      4527.4659     -137159.77    
    812200   2340.1826     -6238.8919      4476.464      -137159.31    
    812300   2432.8129      6288.4824      4409.8155     -137164       
    812400   2512.8043      399.378        4389.6625     -137164.17    
    812500   2553.6629      2432.5649      4367.1231     -137163.78    
    812600   2369.8353     -5412.4213      4372.794      -137161.77    
    812700   2499.6556      4172.1988      4369.5649     -137168.29    
    812800   2400.309       5587.4943      4370.1868     -137164.7     
    812900   2599.5535      2717.2339      4395.1305     -137166.48    
    813000   2403.134      -11925.165      4424.4164     -137156.41    
    813100   2798.4325     -4994.9809      4396.6371     -137160.17    
    813200   2660.2518      7992.3102      4358.3232     -137164.18    
    813300   2481.3689      4908.8018      4368.1017     -137165.44    
    813400   2529.7304     -69.244536      4396.3509     -137169.87    
    813500   2343.9201     -368.73117      4401.7226     -137165.15    
    813600   2573.0728      4054.0545      4380.8025     -137164.72    
    813700   2513.0066      3790.5341      4387.3158     -137157.71    
    813800   2671.2139     -891.20786      4410.6995     -137164.25    
    813900   2361.4752     -595.78564      4443.0892     -137167.01    
    814000   2357.8924     -6482.5657      4484.3514     -137164.53    
    814100   2467.5143     -7185.9877      4511.9369     -137159.41    
    814200   2510.8846     -6940.6979      4497.5141     -137155.9     
    814300   2644.4602     -1704.9464      4441.7887     -137159.71    
    814400   2539.8549      5806.5579      4353.6107     -137165.22    
    814500   2450.2427      6728.0773      4306.8993     -137169.08    
    814600   2324.7332     -3257.6348      4324.5418     -137165.57    
    814700   2537.4444      6263.2552      4343.7314     -137167.02    
    814800   2693.344       157.15279      4396.1372     -137166.08    
    814900   2542.4833     -824.75617      4449.1389     -137160.99    
    815000   2635.1154     -8995.5195      4473.2115     -137166.05    
    815100   2394.4863     -112.07421      4468.1019     -137165.27    
    815200   2373.9349     -6871.7507      4452.7746     -137164.18    
    815300   2602.8875      9965.9029      4397.1849     -137163.03    
    815400   2763.2685      3355.0515      4382.5095     -137167.46    
    815500   2550.6667     -2356.0135      4399.363      -137168.37    
    815600   2536.5812     -10767.879      4388.4142     -137169.88    
    815700   2403.7272      9450.9645      4329.6822     -137164.79    
    815800   2525.8938     -1214.5169      4313.4919     -137164.08    
    815900   2635.3881      11918.67       4310.974      -137161.69    
    816000   2507.5847      11826.125      4341.7614     -137164.1     
    816100   2233.6889     -9015.7254      4424.4644     -137164.66    
    816200   2341.6536      2984.1441      4455.1683     -137163.65    
    816300   2669.7645     -7112.879       4463.3417     -137166.89    
    816400   2626.9264     -6731.3294      4455.5569     -137166.62    
    816500   2262.691      -1929.5744      4421.1493     -137159.68    
    816600   2397.7889     -2932.3549      4361.5307     -137167.76    
    816700   2453.0043     -411.0866       4311.3572     -137171.83    
    816800   2350.7929      14800.499      4279.9309     -137167.91    
    816900   2498.8261      2960.5185      4312.9544     -137165.94    
    817000   2517.0231      9608.9018      4382.7158     -137161.12    
    817100   2490.2787     -736.25576      4481.7183     -137159.26    
    817200   2325.4506     -8275.924       4543.3882     -137161.34    
    817300   2409.9847     -18719.009      4512.2459     -137166.56    
    817400   2620.0597      8174.4193      4386.5861     -137165.49    
    817500   2549.7778      21989.48       4315.1493     -137159.35    
    817600   2667.644       117.42217      4350.5448     -137166.82    
    817700   2431.7368     -4754.579       4408.7127     -137164.98    
    817800   2448.561      -6454.862       4428.9783     -137164.54    
    817900   2606.2117      5144.2864      4424.0845     -137162.78    
    818000   2589.0168      5042.5905      4431.2981     -137160.1     
    818100   2394.3613      9634.8331      4449.82       -137161.18    
    818200   2416.1734     -14305.805      4514.1011     -137164.25    
    818300   2500.0631     -9832.2158      4488.0838     -137165.13    
    818400   2523.8324     -9415.0622      4406.5967     -137164.4     
    818500   2517.7022     -2191.5634      4318.0898     -137164.61    
    818600   2476.3748      14765.547      4272.9287     -137168.81    
    818700   2369.5029     -5074.986       4330.2603     -137170.98    
    818800   2294.6859      42.024005      4365.8026     -137168.43    
    818900   2503.8388      8586.3148      4375.7779     -137164.28    
    819000   2509.5035      943.67601      4414.0645     -137160.52    
    819100   2482.3097     -3164.2384      4441.6948     -137160.28    
    819200   2593.6075     -11187.998      4413.6571     -137168.39    
    819300   2370.9582     -2134.4457      4331.3864     -137172.2     
    819400   2453.3305      5406.5489      4250.5132     -137173.58    
    819500   2656.1356      10664.958      4207.0814     -137175.19    
    819600   2408.602       6554.4432      4234.9766     -137168.57    
    819700   2403.8435     -235.30555      4303.7444     -137171.18    
    819800   2333.5273     -2417.2053      4379.766      -137172.07    
    819900   2460.3311     -8143.9922      4416.4918     -137170.26    
    820000   2542.1853      5079.9917      4408.6185     -137164.25    
    820100   2717.7309      908.20665      4420.6263     -137166.48    
    820200   2465.4119     -12171.754      4454.6671     -137163.25    
    820300   2582.2279     -9795.1986      4429.3206     -137172.26    
    820400   2302.1189      5342.1703      4381.3296     -137170.68    
    820500   2085.9716     -79.163144      4355.7814     -137169.53    
    820600   2477.8068      5809.6351      4287.0676     -137172.96    
    820700   2586.8914      20410.456      4237.2668     -137169.67    
    820800   2424.9728      1570.7158      4281.421      -137166.47    
    820900   2599.5954     -4148.2517      4345.9949     -137170.93    
    821000   2390.9344      3281.3432      4409.3302     -137162.4     
    821100   2575.0899     -4756.1449      4467.6854     -137159.22    
    821200   2730.6961     -436.90972      4472.8339     -137161.28    
    821300   2405.4155     -4114.1721      4474.6291     -137160.23    
    821400   2238.006       226.82518      4460.7713     -137160.38    
    821500   2578.3832     -8514.3888      4414.5694     -137165.16    
    821600   2543.6526      4767.8841      4314.3629     -137162.29    
    821700   2554.8363      9571.7033      4235.5648     -137167.87    
    821800   2480.1755     -2.6000138      4221.1738     -137173.73    
    821900   2353.5042      7683.7139      4247.8279     -137170.4     
    822000   2528.2745     -1073.9857      4314.8968     -137171.02    
    822100   2334.9984     -1258.1403      4387.0088     -137161.28    
    822200   2513.7654      1263.6886      4429.7467     -137162.24    
    822300   2603.6212      898.99589      4445.1236     -137162.34    
    822400   2578.3359     -2417.006       4419.8639     -137163.47    
    822500   2385.5405     -238.21086      4381.9052     -137164.82    
    822600   2455.3574     -10219.665      4350.1208     -137169.86    
    822700   2486.0646     -7329.1196      4316.2709     -137168.35    
    822800   2643.9386      4729.1051      4299.4906     -137165.28    
    822900   2683.8035      10103.906      4319.9769     -137166.2     
    823000   2485.213      -11855.651      4387.6624     -137170.6     
    823100   2302.9152     -6872.09        4413.5473     -137165.17    
    823200   2319.8248      7298.8013      4387.5492     -137160.69    
    823300   2563.6104      4892.4551      4366.4213     -137161       
    823400   2708.256      -4170.3884      4378.3437     -137165.74    
    823500   2453.7094     -5301.0014      4389.383      -137164.91    
    823600   2548.8826     -3941.751       4395.2321     -137168.4     
    823700   2449.6316      14541.076      4368.8873     -137165.6     
    823800   2566.3318      2070.483       4382.6866     -137165.38    
    823900   2731.2241     -9957.9621      4410.2846     -137164.26    
    824000   2891.7679     -5336.9524      4408.0411     -137161.31    
    824100   2649.6204     -3855.8559      4410.2193     -137164.8     
    824200   2471.1667     -6888.1193      4421.8563     -137163.74    
    824300   2450.2622      3899.9606      4398.8449     -137166.76    
    824400   2399.9517      717.45111      4385.9222     -137168.48    
    824500   2503.7457     -1813.7021      4372.2553     -137167.37    
    824600   2656.3106      7206.3965      4372.3565     -137162.69    
    824700   2542.4793      212.57431      4424.2693     -137162.91    
    824800   2600.3975     -10064.288      4491.6861     -137167.72    
    824900   2299.0895     -9443.9784      4509.2075     -137160.87    
    825000   2702.3331      1450.7366      4452.4602     -137164.17    
    825100   2633.8558      9399.5554      4399.3556     -137158.2     
    825200   2444.8231      3151.3668      4383.1583     -137160.5     
    825300   2457.2116      4714.6482      4367.36       -137164.85    
    825400   2556.1977     -1056.9748      4342.8767     -137167.87    
    825500   2538.3731      4244.3397      4330.8143     -137168.63    
    825600   2291.4943      3092.7124      4327.2931     -137170.5     
    825700   2202.5751     -4397.5187      4321.486      -137171.06    
    825800   2390.334      -556.97899      4288.7763     -137168.93    
    825900   2650.3683     -3930.2948      4272.1917     -137172.64    
    826000   2443.6384      11734.171      4281.7641     -137168.51    
    826100   2390.5817     -9829.4695      4364.6788     -137167.46    
    826200   2490.7841      6738.6444      4424.5938     -137162.76    
    826300   2658.825      -6466.7953      4506.6753     -137160.83    
    826400   2667.0361     -12302.797      4586.3005     -137160.07    
    826500   2484.0888     -1574.099       4583.8909     -137158.81    
    826600   2434.5238     -15516          4529.3515     -137163.82    
    826700   2237.4367      540.83098      4404.0537     -137168.95    
    826800   2284.3766      11441.336      4285.7299     -137169.4     
    826900   2530.5718      16332.618      4219.4666     -137171.98    
    827000   2492.7375      6272.3578      4246.8044     -137170.05    
    827100   2496.9415      3082.4553      4337.6517     -137168.48    
    827200   2536.1903     -9634.4941      4434.8788     -137167.14    
    827300   2605.8831     -4175.7333      4474.018      -137158.16    
    827400   2823.7584      342.67587      4463.0853     -137162.19    
    827500   2397.4183     -5090.2125      4466.2209     -137158.56    
    827600   2397.1837     -14387.055      4438.0652     -137161.47    
    827700   2503.3102     -416.64392      4345.6318     -137162.42    
    827800   2741.4999      13668.47       4260.2        -137171.92    
    827900   2150.8321      10241.207      4263.5283     -137166.53    
    828000   2379.825      -8696.281       4311.8464     -137168.19    
    828100   2570.4471      545.28117      4325.1634     -137166.09    
    828200   2410.9404      5873.7975      4361.4218     -137158.77    
    828300   2575.8731     -5280.8153      4421.5987     -137160.64    
    828400   2434.484       8828.8922      4444.8009     -137160.67    
    828500   2309.1952     -6056.7228      4484.477      -137165.42    
    828600   2291.1983     -6030.3207      4479.1627     -137162.34    
    828700   2410.8788      3906.6199      4421.9254     -137158.58    
    828800   2606.9795     -3331.5951      4359.772      -137163.76    
    828900   2409.1316      396.15483      4292.1493     -137165.22    
    829000   2455.2653      4532.1413      4248.9969     -137169.53    
    829100   2491.8532      6010.418       4253.7603     -137169.05    
    829200   2627.4037      2577.8713      4316.3815     -137168.89    
    829300   2661.5602     -30.46604       4424.3443     -137163.15    
    829400   2605.0635     -10559.413      4545.1504     -137155.3     
    829500   2612.334      -7521.6022      4595.8978     -137157.27    
    829600   2320.4323     -15752.923      4585.3353     -137157.4     
    829700   2528.0423      524.09133      4472.3196     -137163.2     
    829800   2661.7851      406.59085      4339.0001     -137165.81    
    829900   2755.9809      13703.439      4244.6769     -137170.74    
    830000   2518.8585      7221.3679      4240.8828     -137168.37    
    830100   2289.9113      3409.8755      4273.9029     -137165.46    
    830200   2412.9948      10421.637      4310.243      -137165.64    
    830300   2700.0331     -4702.2629      4378.697      -137165.03    
    830400   2481.9104     -1425.7792      4422.6533     -137161.39    
    830500   2526.3984     -4819.0679      4442.4615     -137164.82    
    830600   2404.7725     -3447.1876      4433.4983     -137159.66    
    830700   2773.317       8055.3953      4377.4508     -137160.04    
    830800   2814.5215      5351.1674      4369.3345     -137163.06    
    830900   2555.5692     -802.78977      4410.6061     -137163.77    
    831000   2439.7489     -4650.5983      4452.3479     -137161.69    
    831100   2465.3789      992.93418      4473.1549     -137160.03    
    831200   2687.7502     -1005.6083      4472.9603     -137162.04    
    831300   2731.0277     -5128.4818      4464.074      -137164.12    
    831400   2486.1252     -8580.2834      4451.9868     -137166.7     
    831500   2323.1877      1949.1502      4398.8729     -137165.28    
    831600   2441.5924      3635.3581      4346.789      -137165.51    
    831700   2737.0246      3894.0983      4323.9476     -137166.7     
    831800   2765.0609      6416.1798      4359.0467     -137166.23    
    831900   2227.4538      7132.4258      4442.8469     -137163.73    
    832000   2197.648      -8567.7289      4515.5587     -137160.48    
    832100   2612.9218     -10515.527      4501.4234     -137163.26    
    832200   2791.4597      8814.8714      4410.668      -137165.35    
    832300   2414.1436      3749.207       4370.4764     -137160.81    
    832400   2405.9963     -3158.8707      4353.3337     -137166.53    
    832500   2541.9029      636.04854      4327.4256     -137170.53    
    832600   2386.0329      3878.106       4327.6457     -137167.06    
    832700   2486.3067      4902.7999      4349.2657     -137169.07    
    832800   2465.1243     -8280.9233      4375.7773     -137165.57    
    832900   2530.9166      602.39732      4366.7216     -137166.17    
    833000   2602.13        2114.6539      4392.0462     -137166.97    
    833100   2509.3616     -8579.8461      4413.3264     -137166.1     
    833200   2335.914      -719.40258      4374.2729     -137169.55    
    833300   2303.3591     -312.63545      4330.6733     -137168.66    
    833400   2650.4719      5032.1943      4293.5128     -137169.57    
    833500   2528.1416      9428.729       4301.7064     -137165.63    
    833600   2440.846       5208.114       4346.4794     -137166.53    
    833700   2377.1855     -6031.4555      4388.861      -137165.13    
    833800   2585.0072     -726.62315      4382.0828     -137164.64    
    833900   2698.1956      9747.4626      4371.5126     -137160.3     
    834000   2380.7918     -3798.9126      4403.9831     -137160.12    
    834100   2582.7053      4290.2571      4398.0992     -137168.67    
    834200   2328.6362      1167.1635      4392.412      -137162.19    
    834300   2510.981      -1200.7113      4395.3171     -137165.72    
    834400   2363.9735     -3156.6425      4396.7899     -137164.36    
    834500   2418.8997     -1140.9862      4377.6827     -137170.32    
    834600   2290.8864     -1028.8819      4365.6303     -137165.62    
    834700   2550.2135      13725.707      4359.8056     -137163.77    
    834800   2587.2868     -11307.409      4415.5918     -137164.36    
    834900   2487.7807     -6273.7738      4431.7118     -137163.81    
    835000   2498.8941     -1011.1731      4392.4871     -137165.99    
    835100   2286.7969     -2433.2956      4354.5448     -137168.11    
    835200   2442.5324     -2908.9078      4314.125      -137173.74    
    835300   2643.3701     -1621.7869      4280.1702     -137172.66    
    835400   2640.7889      4192.7516      4273.313      -137168.93    
    835500   2417.0413      4731.0279      4301.4385     -137164.77    
    835600   2184.0014      439.74444      4330.5285     -137168.68    
    835700   2205.0504     -3740.8638      4365.8352     -137166.96    
    835800   2376.2307     -9925.3692      4387.9143     -137164.26    
    835900   2575.7234      6050.33        4356.053      -137165.82    
    836000   2610.0519      1222.8678      4356.3457     -137165.54    
    836100   2409.9808     -6945.3633      4372.5333     -137163.79    
    836200   2369.1714      6607.7784      4351.3426     -137166.1     
    836300   2477.3759     -3761.0695      4340.1055     -137165.16    
    836400   2641.3521      7024.0059      4336.8531     -137161.83    
    836500   2689.2907      456.47885      4396.6603     -137166.84    
    836600   2405.5647     -18151.116      4493.9571     -137163.64    
    836700   2580.0117     -6904.902       4502.8644     -137166.44    
    836800   2631.8716     -6958.574       4465.0809     -137167.59    
    836900   2481.8425      5954.935       4390.3573     -137164.92    
    837000   2426.8094      320.55466      4327.9654     -137167.2     
    837100   2365.3242     -4308.6787      4290.0554     -137173.05    
    837200   2355.4037      6411.3793      4264.415      -137171.25    
    837300   2638.0856      3532.8988      4252.0674     -137170.76    
    837400   2382.9605      6681.6201      4278.904      -137162.7     
    837500   2417.5578     -3746.8362      4343.6397     -137162.73    
    837600   2544.4994      4512.5726      4399.3229     -137164.31    
    837700   2423.5241      1302.904       4482.177      -137163.81    
    837800   2208.7415     -12491.051      4558.3518     -137160.43    
    837900   2420.4034      4361.9651      4547.8567     -137159.58    
    838000   2709.1187     -12652.253      4518.4205     -137161.4     
    838100   2511.2458      9003.8552      4434.4429     -137157.13    
    838200   2459.5694      4614.6045      4395.3814     -137162.53    
    838300   2466.932      -3954.7979      4389.9549     -137167.18    
    838400   2481.5706     -10718.661      4353.396      -137166.61    
    838500   2605.4882      12440.992      4271.9139     -137166.38    
    838600   2753.3713      6151.8664      4276.7983     -137170.46    
    838700   2392.2608     -12662.336      4339.7031     -137170.02    
    838800   2395.7128     -4518.0688      4373.3026     -137171.71    
    838900   2383.9589      1009.3368      4416.6127     -137165.59    
    839000   2580.6706     -1238.2763      4461.6696     -137166.69    
    839100   2282.3994      12645.055      4479.9557     -137157.85    
    839200   2596.3287     -8864.8496      4500.9704     -137161.85    
    839300   2728.2878     -11725.299      4479.0932     -137160.56    
    839400   2580.4804      2088.7093      4407.2841     -137162.61    
    839500   2402.9994      2690.4197      4350.2688     -137168.11    
    839600   2511.8678      6566.9652      4305.3038     -137169.8     
    839700   2579.0749      12389.181      4326.0612     -137167.24    
    839800   2626.0408     -7098.8416      4429.1399     -137167.18    
    839900   2461.221      -10970.89       4497.746      -137162.56    
    840000   2642.4642     -1869.7377      4514.2465     -137160.48    
    840100   2561.6704     -4788.7131      4520.3412     -137155.11    
    840200   2614.9075     -9973.703       4495.7034     -137163.13    
    840300   2449.5721     -545.19499      4425.9709     -137164.82    
    840400   2510.649       6082.4962      4346.2177     -137166.64    
    840500   2605.8149      5474.0696      4313.4484     -137169.91    
    840600   2425.0113      8291.0117      4330.5393     -137166.49    
    840700   2408.13        5393.7513      4388.3353     -137162.19    
    840800   2790.3068     -14051.963      4456.1771     -137164.7     
    840900   2561.5274     -1884.8541      4467.1696     -137160.17    
    841000   2412.782      -4286.7327      4435.9227     -137162.81    
    841100   2376.7616      4673.0286      4376.8933     -137164.35    
    841200   2604.7806      14005.668      4319.3317     -137168.13    
    841300   2825.4043      5927.2163      4322.5954     -137164.88    
    841400   2636.2549     -2216.9573      4365.2831     -137163.14    
    841500   2499.6301      3136.2749      4383.9072     -137168.02    
    841600   2428.7364     -2341.3885      4374.4049     -137167.84    
    841700   2659.2474     -5707.8299      4362.1684     -137170.49    
    841800   2632.0063      7057.0965      4354.3502     -137164.29    
    841900   2859.9452      4069.0051      4384.312      -137167.6     
    842000   2321.0567     -12877.263      4482.9004     -137160.74    
    842100   2257.8208     -15156.059      4545.2779     -137159.73    
    842200   2658.2638     -7288.566       4490.9654     -137162.97    
    842300   2757.8924      5213.8726      4389.608      -137165.7     
    842400   2631.2749      5892.0464      4334.986      -137169.57    
    842500   2400.4815      11461.373      4348.0718     -137167       
    842600   2484.8109      2843.8348      4415.0984     -137168.5     
    842700   2474.9972      4612.2799      4486.8133     -137161.12    
    842800   2534.8243     -13167.917      4553.4646     -137157.32    
    842900   2578.25        1500.3773      4529.8391     -137158.31    
    843000   2487.1247      3594.6953      4476.9938     -137163.16    
    843100   2428.5326      331.27404      4441.8568     -137165.55    
    843200   2453.7409     -13023.29       4383.4357     -137164.6     
    843300   2667.4898      16472.532      4286.4048     -137164.06    
    843400   2475.7379      12171.827      4283.4155     -137163.01    
    843500   2385.9145     -9280.9851      4332.0179     -137168.87    
    843600   2341.9058      550.47101      4345.0236     -137167.03    
    843700   2614.5697     -5121.2517      4355.7749     -137170.26    
    843800   2636.6231      4145.7193      4376.5287     -137166.35    
    843900   2498.7902     -1911.9772      4415.5947     -137161.97    
    844000   2468.0078     -1508.817       4433.8633     -137165.42    
    844100   2226.2861      668.35258      4447.485      -137161.57    
    844200   2467.3473     -6682.8306      4447.4951     -137162.22    
    844300   2692.499       7510.6001      4435.0468     -137162.78    
    844400   2720.5608     -15702.841      4465.9593     -137164.69    
    844500   2463.2991      8194.4313      4434.7208     -137166.52    
    844600   2409.1135     -566.38569      4436.6667     -137167.13    
    844700   2504.5065     -3640.1134      4460.216      -137166       
    844800   2605.7319     -4107.0775      4460.4282     -137164.13    
    844900   2583.3836      1821.5128      4436.6901     -137160.2     
    845000   2455.4247     -2451.5315      4398.2919     -137164.56    
    845100   2309.7153      1530.0868      4336.348      -137167.53    
    845200   2491.5595     -2812.1581      4259.2888     -137169.05    
    845300   2820.4641      12269.558      4225.7852     -137172.8     
    845400   2447.3839      296.10581      4310.3622     -137164.41    
    845500   2248.3786     -3647.7365      4416.5984     -137161.91    
    845600   2467.3823     -6281.3688      4457.445      -137163.94    
    845700   2598.2118     -65.730275      4437.749      -137159.84    
    845800   2610.2481     -773.61013      4412.2014     -137163.39    
    845900   2536.1892     -2402.9838      4392.9951     -137169.05    
    846000   2323.739      -3744.1941      4376.264      -137163.79    
    846100   2616.2053      2603.5978      4345.3574     -137168.47    
    846200   2542.0571      14336.101      4325.6745     -137167.73    
    846300   2333.4734     -4620.6223      4365.0583     -137169.29    
    846400   2257.1359     -10547.271      4379.1702     -137163.66    
    846500   2608.4857     -1424.4717      4342.2221     -137162.71    
    846600   2496.6373      6793.2214      4310.4703     -137162.32    
    846700   2403.3933     -4877.1555      4310.9993     -137165.04    
    846800   2561.468       4564.1622      4315.2803     -137168.3     
    846900   2612.0713      1958.8627      4350.0575     -137165.97    
    847000   2464.3357      6421.1672      4422.3422     -137160.12    
    847100   2501.1609     -6603.6706      4496.1251     -137159.42    
    847200   2413.8043      7306.2509      4518.0653     -137154.27    
    847300   2553.5626     -7927.4992      4523.4625     -137157.77    
    847400   2420.256      -1791.9387      4466.6399     -137162.2     
    847500   2483.7578     -5527.7422      4373.3705     -137168.59    
    847600   2441.7475      10940.428      4285.3676     -137166.21    
    847700   2447.7719      12028.426      4279.191      -137164.45    
    847800   2735.0306      819.40923      4338.958      -137165.8     
    847900   2730.3116     -14563.18       4405.6002     -137163.95    
    848000   2425.8358     -2840.2522      4400.4996     -137163.35    
    848100   2457.0752      6319.8944      4357.1486     -137166.89    
    848200   2468.9036      2929.9421      4343.1108     -137167.42    
    848300   2625.3637     -9703.3252      4360.3377     -137167.3     
    848400   2599.566       5300.5223      4376.8369     -137157.47    
    848500   2693.1274     -7180.9051      4427.4897     -137164.98    
    848600   2310.1293     -2035.4086      4467.2071     -137162.33    
    848700   2473.6421     -11385.275      4478.4197     -137166.46    
    848800   2562.1564     -2687.3623      4418.8913     -137164.71    
    848900   2686.4319      3299.1302      4351.42       -137163.73    
    849000   2601.808       4304.9976      4319.3126     -137170.48    
    849100   2434.3705      1113.1064      4340.231      -137169.71    
    849200   2451.6948     -1795.8413      4380.25       -137168.03    
    849300   2533.4739     -14477.049      4420.9966     -137165.98    
    849400   2566.9324     -5839.5965      4421.8425     -137160.31    
    849500   2880.7801      3285.8172      4406.929      -137163.48    
    849600   2454.1949      7575.9209      4418.0536     -137162.49    
    849700   2446.9416     -9703.7722      4460.5027     -137167.19    
    849800   2420.7985     -723.29343      4459.7159     -137162.74    
    849900   2642.0056     -6720.2301      4437.2743     -137163.66    
    850000   2362.6299      1319.2499      4374.7682     -137160.16    
    850100   2325.3373      8299.8024      4301.261      -137165.05    
    850200   2495.2534      11564.217      4276.4773     -137171.54    
    850300   2227.3868      2144.0213      4284.2009     -137170.94    
    850400   2383.2062      6252.9874      4280.5319     -137172.91    
    850500   2484.057      -751.78786      4302.5246     -137167.1     
    850600   2534.6547      6275.4705      4351.5212     -137166.61    
    850700   2355.1991      3649.5748      4437.431      -137161.32    
    850800   2735.0084     -16105.269      4510.5492     -137164.54    
    850900   2650.5634      650.22044      4532.9083     -137156.48    
    851000   2605.5828     -9436.1479      4537.5119     -137158.26    
    851100   2427.7219      4018.0235      4478.9526     -137164.55    
    851200   2432.0519     -11303.309      4397.8785     -137167.67    
    851300   2551.4945      15665.72       4293.0877     -137167       
    851400   2667.847       6848.1469      4265.5629     -137170.85    
    851500   2340.7794      7113.5211      4295.6549     -137170.28    
    851600   2344.5748     -10297.214      4354.2598     -137171.25    
    851700   2426.9619     -1806.1288      4358.7191     -137167.78    
    851800   2376.7588      3520.8911      4338.2785     -137162.44    
    851900   2554.2023      9861.2555      4349.6872     -137163.93    
    852000   2408.436      -1022.0317      4407.9789     -137158.72    
    852100   2550.0268     -3454.8883      4472.8302     -137155.66    
    852200   2914.8638     -10522.886      4505.5932     -137161.45    
    852300   2435.2499     -10921.872      4487.8736     -137157.57    
    852400   2542.5812     -210.13532      4413.6834     -137162.26    
    852500   2516.9078      11353.419      4345.2116     -137164.22    
    852600   2412.6842      1786.0955      4340.9215     -137165.69    
    852700   2369.4124      1847.8804      4359.8039     -137167.68    
    852800   2388.2435     -2944.7021      4401.1282     -137167.78    
    852900   2550.9881      120.39601      4441.7251     -137164.07    
    853000   2579.1006     -9434.521       4493.5876     -137159.88    
    853100   2546.9394      1461.7278      4528.2693     -137159.93    
    853200   2347.0292     -11432.16       4562.548      -137159.92    
    853300   2171.9023     -11338.571      4506.2479     -137162       
    853400   2638.9042      4140.9883      4369.781      -137168.37    
    853500   2813.8691      5596.6437      4258.5385     -137167.67    
    853600   2652.5967      12605.21       4203.4362     -137168.84    
    853700   2455.5193      10890.852      4232.3942     -137169.25    
    853800   2369.773      -2878.6475      4346.6458     -137166.9     
    853900   2310.2973     -595.93392      4461.8653     -137157.34    
    854000   2599.9227     -14438.561      4537.3025     -137159.34    
    854100   2559.1359     -15975.219      4530.0687     -137157.72    
    854200   2488.2919      4660.4375      4446.7085     -137159.14    
    854300   2488.7588      1982.7618      4385.8321     -137167.71    
    854400   2369.5326      3823.9207      4345.8437     -137167.64    
    854500   2309.2387      2274.6233      4328.7248     -137164       
    854600   2609.4384      593.29856      4321.4931     -137167.7     
    854700   2525.4254     -2973.7218      4331.701      -137164.65    
    854800   2469.3658      7048.5097      4326.5144     -137165.63    
    854900   2507.9895     -3034.8767      4317.9592     -137168.32    
    855000   2366.8316      10253.838      4303.0578     -137165.43    
    855100   2607.5191     -5329.971       4305.1917     -137171.39    
    855200   2567.5021      9906.2975      4303.242      -137164.63    
    855300   2748.1216      6335.0055      4356.9297     -137165.06    
    855400   2525.0189     -9322.8743      4450.0502     -137164.14    
    855500   2385.3789     -2885.1152      4480.3811     -137166.19    
    855600   2328.4563     -2322.6958      4454.0769     -137163.76    
    855700   2501.5015     -3403.3752      4389.4584     -137166.27    
    855800   2524.7246      16357.481      4332.7439     -137167.06    
    855900   2493.0018      3933.0196      4361.4908     -137169.34    
    856000   2349.9998     -4884.7465      4400.4029     -137170.54    
    856100   2300.4283     -6385.1184      4393.0786     -137169.85    
    856200   2440.6338      5390.7189      4334.9067     -137163.61    
    856300   2509.5         20460.6        4297.0207     -137162.25    
    856400   2532.7885     -224.78761      4355.8294     -137165.3     
    856500   2355.7513     -7884.1404      4418.3529     -137167.18    
    856600   2288.1417     -38.112838      4414.0313     -137166.2     
    856700   2525.7104      5160.7507      4356.7977     -137161.6     
    856800   2580.5012      17065.883      4313.7585     -137162.71    
    856900   2459.6483     -194.5872       4353.3661     -137165.38    
    857000   2287.814       3682.8834      4391.8315     -137164.15    
    857100   2486.6345      2650.3564      4432.5983     -137166.48    
    857200   2754.9823     -6022.2133      4470.2073     -137163.78    
    857300   2817.6659     -14690.16       4467.6683     -137164.97    
    857400   2482.3247     -857.04979      4435.7194     -137160.06    
    857500   2496.3825      4122.4992      4418.8943     -137162.11    
    857600   2443.4108      3212.8503      4414.8383     -137165.76    
    857700   2314.6639     -5103.5816      4421.797      -137166.31    
    857800   2705.6182     -5658.2192      4400.4844     -137170.3     
    857900   2746.6602      14533.557      4382.0384     -137164.61    
    858000   2649.7059     -5153.0816      4450.901      -137166.82    
    858100   2417.3164     -13686.946      4492.7688     -137165       
    858200   2511.699       63.268115      4454.4212     -137167.08    
    858300   2566.7022     -3209.7058      4420.7206     -137164.21    
    858400   2759.3825      9483.8075      4382.2661     -137164.88    
    858500   2443.3473      5219.4017      4379.1392     -137163.83    
    858600   2359.2458     -4448.3815      4405.8645     -137165.48    
    858700   2466.8825      2923.4445      4423.709      -137164.76    
    858800   2788.5614     -3109.6814      4437.6818     -137172.26    
    858900   2356.3584     -31.902576      4429.6559     -137165.87    
    859000   2171.2388     -3032.8447      4387.979      -137168.85    
    859100   2359.0871     -2513.4068      4323.7808     -137170.51    
    859200   2498.2418      21953.609      4274.1681     -137164.91    
    859300   2467.7836      5084.2371      4326.1762     -137162.56    
    859400   2456.2828     -8543.3743      4391.8925     -137162.55    
    859500   2495.9746     -13040.183      4413.453      -137166.4     
    859600   2442.9504     -1946.5422      4375.938      -137165.92    
    859700   2691.08        10061.895      4328.0888     -137164.4     
    859800   2749.9289     -2767.9954      4351.8162     -137165.44    
    859900   2529.6512     -5493.6073      4385.3858     -137165.99    
    860000   2413.1375      2892.1528      4398.4205     -137165.99    
    860100   2591.0254     -3208.7348      4438.3313     -137169.96    
    860200   2326.8577     -7790.3889      4485.1807     -137161.35    
    860300   2483.2889      8140.6218      4462.3144     -137160.6     
    860400   2607.4235     -2560.5799      4420.8379     -137164.06    
    860500   2341.3268      4483.3966      4361          -137164.6     
    860600   2372.1246      8262.2044      4305.1106     -137169.08    
    860700   2405.7496      5413.5684      4303.3522     -137167.9     
    860800   2463.5684      536.23484      4322.4775     -137168.19    
    860900   2546.9999     -952.74656      4332.8439     -137167.43    
    861000   2528.6692     -3757.5526      4342.0793     -137161.69    
    861100   2742.4469      1525.8545      4344.8791     -137161.81    
    861200   2672.4046      3956.2188      4388.4664     -137159.09    
    861300   2441.7202     -9996.4678      4464.294      -137162.38    
    861400   2313.9408      543.44336      4498.1318     -137160.83    
    861500   2435.1872     -917.05189      4496.9767     -137160.9     
    861600   2737.2294     -2160.7014      4455.9038     -137161.77    
    861700   2761.4629     -3052.0972      4397.6095     -137164.85    
    861800   2330.5573      11706.315      4318.8914     -137164.36    
    861900   2540.8896      5674.2538      4277.9508     -137170.25    
    862000   2550.3991      682.84415      4303.2541     -137169.56    
    862100   2658.7579     -9493.0142      4352.1482     -137168.38    
    862200   2709.6921     -4322.9694      4378.3857     -137167.8     
    862300   2396.4195     -2277.7042      4391.88       -137165.75    
    862400   2235.7866     -5160.4485      4348.9495     -137166.14    
    862500   2417.1872      10499.392      4246.1049     -137166.19    
    862600   2714.922       10969.113      4213.7395     -137169.39    
    862700   2494.0063     -2026.4436      4275.1935     -137167.07    
    862800   2531.3439     -6554.2302      4360.5663     -137167.24    
    862900   2523.387      -640.64743      4420.2678     -137165.64    
    863000   2512.274      -6252.9952      4440.1108     -137163.08    
    863100   2853.4203      8265.034       4423.2653     -137165.21    
    863200   2417.4438     -1712.9611      4437.8864     -137157.41    
    863300   2351.9054      4445.3506      4421.5741     -137162.61    
    863400   2515.8858     -7.6342691      4415.1014     -137165.83    
    863500   2388.5315     -2729.8804      4424.4873     -137161.75    
    863600   2516.149      -4011.1581      4417.8033     -137163.79    
    863700   2518.2709     -947.30576      4389.8856     -137161.94    
    863800   2564.9525     -3534.3965      4356.2844     -137165.36    
    863900   2333.8511      6574.1182      4303.7028     -137167.08    
    864000   2417.2521      2502.0164      4297.1161     -137169.58    
    864100   2499.324       5017.9467      4346.5123     -137165.18    
    864200   2589.9805     -2813.0137      4391.6028     -137163.59    
    864300   2611.0554     -8562.488       4410.5032     -137166.39    
    864400   2545.2113     -2299.8574      4402.4272     -137166.73    
    864500   2564.1332     -5879.7217      4396.6977     -137168.34    
    864600   2379.0755      5613.7708      4385.1453     -137164.22    
    864700   2575.2088     -10948.959      4370.607      -137167.64    
    864800   2771.8488      6573.0093      4335.4534     -137165.17    
    864900   2523.1211      2562.5302      4343.2086     -137162.09    
    865000   2465.0928     -9889.8775      4377.2389     -137166.9     
    865100   2530.8329      6573.0607      4373.3078     -137171.09    
    865200   2522.5523     -3437.7667      4383.928      -137170.15    
    865300   2511.4881      10520.389      4391.7846     -137165.69    
    865400   2509.3564     -2378.2425      4424.1098     -137162.37    
    865500   2601.0886      2213.9772      4428.8765     -137161.98    
    865600   2424.0931     -2233.4923      4427.1673     -137162.38    
    865700   2484.3344     -475.13325      4425.561      -137167.57    
    865800   2513.767      -5517.5405      4419.636      -137164.44    
    865900   2493.2973      3358.2741      4400.9592     -137156.87    
    866000   2713.4138      6727.1633      4418.1921     -137161.4     
    866100   2422.1574     -6961.2391      4487.1594     -137164.6     
    866200   2381.2414     -12933.642      4514.833      -137163.91    
    866300   2495.1432     -12371.301      4475.3706     -137160.55    
    866400   2666.621      -2828.5181      4375.6062     -137162.44    
    866500   2463.7912      13470.363      4277.6501     -137162.95    
    866600   2466.2341      8487.2398      4239.4548     -137168.13    
    866700   2544.8304     -354.50776      4240.4042     -137170.14    
    866800   2626.628       938.337        4258.1993     -137170.95    
    866900   2597.4723     -1363.9257      4299.2981     -137170.49    
    867000   2561.1729     -4944.6526      4369.4157     -137164.9     
    867100   2687.8633     -2428.3149      4427.1537     -137162.39    
    867200   2555.1614     -11142.464      4469.7236     -137162.79    
    867300   2378.1472     -6065.3241      4472.9482     -137166.5     
    867400   2349.5405     -7587.077       4435.4893     -137164.78    
    867500   2501.9432      15960.88       4342.4703     -137163.52    
    867600   2552.3222      7103.9099      4287.0327     -137165.24    
    867700   2399.3007      1249.0517      4269.7865     -137165.93    
    867800   2541.4486     -418.10557      4259.8268     -137172.25    
    867900   2514.7964      8120.6346      4256.1551     -137171.17    
    868000   2536.9596      7972.9042      4327.8809     -137162.96    
    868100   2605.405      -8482.7087      4448.9518     -137158.47    
    868200   2553.2466     -4138.1454      4513.5827     -137160.35    
    868300   2464.8577     -11768.394      4542.0485     -137162.58    
    868400   2400.9598      883.10799      4493.3256     -137163.76    
    868500   2430.5606      1655.1062      4410.4641     -137163.55    
    868600   2702.3455      17754.482      4303.1525     -137164.33    
    868700   2641.0459      9318.865       4270.4841     -137165.71    
    868800   2375.9471      5488.6148      4296.2456     -137166.84    
    868900   2263.0287      11798.651      4326.0582     -137163.97    
    869000   2451.0994      5955.5992      4373.6378     -137163.77    
    869100   2546.6777      673.48482      4433.3299     -137161.07    
    869200   2600.2154     -4705.1032      4480.8599     -137161.57    
    869300   2499.5374     -3843.0048      4502.3405     -137164.83    
    869400   2373.6087     -6858.574       4517.9137     -137165.68    
    869500   2484.191      -4481.8527      4492.1967     -137165.69    
    869600   2695.4341     -117.49008      4434.075      -137165.37    
    869700   2564.4098      1285.9845      4358.9771     -137164.16    
    869800   2222.4081      7445.3036      4260.4201     -137166.13    
    869900   2475.058       14462.503      4185.4564     -137172.28    
    870000   2496.9317      11859.247      4212.4502     -137169.74    
    870100   2520.3709     -5987.9937      4339.9621     -137167.52    
    870200   2677.9057     -7214.0505      4484.3047     -137163.02    
    870300   2832.3013     -7594.0907      4568.1927     -137163.63    
    870400   2432.4916     -5374.5046      4573.5262     -137158.66    
    870500   2569.1804     -10931.639      4534.8421     -137162.49    
    870600   2555.6326     -10103.838      4466.9854     -137163.06    
    870700   2446.6884      1136.6443      4352.2731     -137165.23    
    870800   2379.216      -3222.7346      4254.494      -137172.16    
    870900   2465.764       2981.7086      4199.8719     -137174.6     
    871000   2225.4707      17346.346      4227.8981     -137163.42    
    871100   2449.0154      1226.2738      4333.8646     -137166.68    
    871200   2268.4981      3145.1966      4465.7638     -137159.4     
    871300   2468.2418     -2799.0625      4574.8697     -137158.63    
    871400   2528.8082     -22747.736      4603.3951     -137154.95    
    871500   2752.9038     -2076.1783      4516.7094     -137160.35    
    871600   2656.2853      3245.1833      4447.7447     -137161.23    
    871700   2499.1014      2213.5609      4425.7119     -137161.65    
    871800   2448.2914     -7552.5557      4420.2873     -137164.85    
    871900   2513.1358      2514.208       4394.8257     -137166.15    
    872000   2676.3743     -1651.1997      4372.7987     -137166.75    
    872100   2789.2794      7810.9459      4352.6977     -137162.62    
    872200   2660.0961      78.692165      4382.772      -137164.2     
    872300   2404.9626     -7722.9244      4437.1383     -137164.03    
    872400   2304.0148      529.71137      4446.9772     -137160.37    
    872500   2527.3192      4381.7315      4431.1845     -137162.2     
    872600   2648.4716      2305.6813      4403.4747     -137159.97    
    872700   2871.4597      9680.3652      4378.2146     -137166.29    
    872800   2514.3658     -6216.8489      4407.4637     -137168.06    
    872900   2320.6101      300.95875      4434.9691     -137164       
    873000   2483.3875     -9881.728       4439.202      -137162.91    
    873100   2718.4659      4123.5524      4400.284      -137164.92    
    873200   2641.2267      1356.505       4387.6378     -137168.44    
    873300   2377.1347     -7653.2553      4397.9308     -137167.79    
    873400   2347.0277      4814.8657      4375.347      -137165.21    
    873500   2529.809       2029.1222      4359.0972     -137165.97    
    873600   2545.8049      5793.0979      4361.2494     -137163.99    
    873700   2480.4726     -14905.902      4376.9957     -137164.78    
    873800   2370.6516      6472.5557      4345.7956     -137168.9     
    873900   2329.8365     -5916.7394      4328.8461     -137168.14    
    874000   2508.4655      12390.991      4295.7796     -137165.6     
    874100   2579.395       9978.6552      4319.5188     -137163.44    
    874200   2578.3997     -10789.337      4399.0051     -137165.21    
    874300   2523.6077     -6816.5707      4441.3539     -137165.24    
    874400   2489.8506     -652.28521      4443.5855     -137164.68    
    874500   2434.4973      2955.3355      4401.2093     -137163       
    874600   2634.1516      5470.0631      4342.2843     -137167.39    
    874700   2575.4833      1572.3378      4325.9358     -137169.01    
    874800   2350.0423      6656.0118      4329.6255     -137166       
    874900   2520.6802     -12878.173      4368.011      -137167.55    
    875000   2771.5765      5202.0511      4386.044      -137166.55    
    875100   2551.7888     -2556.6815      4439.2687     -137161.13    
    875200   2204.1363     -11548.685      4465.4071     -137162.61    
    875300   2404.7682      2735.9846      4416.2679     -137167.01    
    875400   2583.0606     -504.52128      4342.1712     -137167.09    
    875500   2621.2123      11447.298      4268.5136     -137166.55    
    875600   2551.237       3235.0308      4261.1899     -137167.3     
    875700   2292.9845     -10778.701      4299.8898     -137170.73    
    875800   2322.0511      7594.0768      4342.7142     -137171.14    
    875900   2219.7232     -10535.592      4419.3223     -137162.87    
    876000   2368.7441     -3501.1461      4440.2216     -137160.46    
    876100   2704.8871     -4279.4145      4425.6319     -137165.96    
    876200   2475.5205     -4259.9173      4395.8207     -137162.49    
    876300   2381.8088      9600.7734      4353.2961     -137164.56    
    876400   2357.3128     -5308.723       4350.3315     -137166.65    
    876500   2507.8392      3680.5763      4330.8363     -137166.73    
    876600   2513.435       12769.8        4325.3563     -137160.3     
    876700   2748.367      -7854.8096      4386.4241     -137167.2     
    876800   2466.4338     -13462.455      4416.6315     -137168.37    
    876900   2493.4334      7159.6172      4386.8596     -137169.44    
    877000   2430.9411     -5007.48        4391.8612     -137164.92    
    877100   2601.6291     -9056.6144      4387.0195     -137167.16    
    877200   2648.9938      451.93699      4373.2046     -137165.98    
    877300   2597.0731     -522.57219      4388.4837     -137164.75    
    877400   2447.2503     -12166.097      4409.4094     -137165.07    
    877500   2506.8187     -9157.4966      4378.3496     -137168.6     
    877600   2483.3435      11251.777      4308.8148     -137169.66    
    877700   2367.8786     -1533.7808      4284.283      -137171.75    
    877800   2384.1355      22.065296      4265.9768     -137174.16    
    877900   2650.8026      1857.3286      4261.5732     -137173.03    
    878000   2614.8301      784.94605      4315.1877     -137167.14    
    878100   2402.2487     -1815.442       4398.0695     -137161.56    
    878200   2603.8919     -3724.2523      4466.6541     -137164.66    
    878300   2667.1586     -6358.0766      4505.1685     -137158.2     
    878400   2875.8496     -6799.5732      4513.56       -137160.14    
    878500   2490.3923     -6620.892       4503.9271     -137160.57    
    878600   2465.1142     -3409.3402      4467.505      -137163.55    
    878700   2447.3365      1490.3671      4394.9666     -137165.29    
    878800   2451.3798      5935.8222      4314.5015     -137168.47    
    878900   2360.8135      3122.2228      4258.3157     -137167.82    
    879000   2642.5324      11477.282      4237.9511     -137167.46    
    879100   2604.3138      1504.4398      4288.6271     -137165.22    
    879200   2456.809      -16.839663      4356.3582     -137167.67    
    879300   2309.1958     -11126.849      4422.7013     -137164.57    
    879400   2418.2804      393.84009      4426.2419     -137163.99    
    879500   2558.4692      612.41335      4407.1876     -137165.44    
    879600   2629.951       1892.0629      4389.7191     -137166.67    
    879700   2625.5163     -4170.2166      4382.4638     -137168.41    
    879800   2321.1944     -3714.7168      4368.1596     -137167.37    
    879900   2331.0544      711.31436      4312.0897     -137168.52    
    880000   2535.3682      977.60591      4239.5809     -137166.91    
    880100   2553.2078      26557.013      4187.943      -137165.5     
    880200   2302.9283      3142.3107      4253.9722     -137163.91    
    880300   2204.8149     -11107.88       4343.2622     -137171.27    
    880400   2362.3525     -7589.4727      4355.4249     -137172.65    
    880500   2553.5175      637.97228      4324.7056     -137172.99    
    880600   2525.6345     -5490.0764      4309.7951     -137168.9     
    880700   2451.242       3877.7953      4285.7347     -137165.64    
    880800   2292.4508      2127.5874      4269.3797     -137165.38    
    880900   2168.3425      7427.2177      4258.4942     -137165.4     
    881000   2352.622       8606.9746      4293.4269     -137163.36    
    881100   2556.3095     -1920.8032      4393.0248     -137163.66    
    881200   2578.2052     -12342.861      4507.2472     -137163.73    
    881300   2406.0861     -11185.768      4554.6002     -137157.92    
    881400   2709.1265      4903.2356      4520.5101     -137156.59    
    881500   2879.9064     -4119.3734      4503.6814     -137159.35    
    881600   2579.9365     -6511.9654      4456.4497     -137160.77    
    881700   2404.6813     -3777.2847      4381.7202     -137159.56    
    881800   2517.3285      7977.2275      4298.7872     -137165.86    
    881900   2338.2224      13727.133      4249.2111     -137166.63    
    882000   2450.1704      13422.287      4269.9685     -137173.93    
    882100   2456.7445     -10427.837      4356.638      -137172.22    
    882200   2640.8875     -9575.6897      4407.3372     -137167.32    
    882300   2695.3164     -12146.466      4404.6625     -137168.37    
    882400   2406.739      -3063.0461      4345.4842     -137166.89    
    882500   2446.4441      10245.733      4257.8808     -137169.48    
    882600   2720.7765      13326.535      4222.9452     -137169.58    
    882700   2841.7123      7698.7844      4270.4677     -137166.4     
    882800   2466.3588      1687.9461      4363.6529     -137163.69    
    882900   2541.1694     -15951.916      4433.1415     -137169.9     
    883000   2483.6096      2061.5514      4438.9374     -137166.69    
    883100   2535.3076     -108.4311       4448.2546     -137163.15    
    883200   2627.2586      612.59789      4436.1351     -137164.63    
    883300   2401.7766     -970.15483      4408.0129     -137166.58    
    883400   2242.3786     -3900.0149      4375.1047     -137167.22    
    883500   2425.7024     -591.68522      4324.6974     -137166.45    
    883600   2589.9389      15964.203      4291.4332     -137167.68    
    883700   2437.0088      366.96035      4315.5464     -137165.05    
    883800   2325.7006      2421.1269      4325.0959     -137158.76    
    883900   2698.9014      6967.6612      4328.6494     -137161.63    
    884000   2563.5077     -1032.6968      4389.9148     -137165.52    
    884100   2290.6038     -15992.204      4450.4534     -137164.52    
    884200   2309.6342      9917.8291      4419.9624     -137160.68    
    884300   2553.7241      3308.334       4408.9209     -137161.29    
    884400   2642.4037      3720.5633      4415.6879     -137164.72    
    884500   2500.4827     -15957.354      4443.1353     -137167.19    
    884600   2236.6388     -16465.154      4423.0679     -137165.84    
    884700   2398.11        11672.445      4319.8422     -137166.55    
    884800   2814.2531      11373.646      4243.5258     -137168.52    
    884900   2691.6362      4534.8036      4261.731      -137170.26    
    885000   2379.4874     -3569.0264      4354.1888     -137168.09    
    885100   2233.3742      2167.4423      4439.9747     -137162.22    
    885200   2456.562      -8035.7516      4495.5341     -137162.3     
    885300   2539.9654     -455.91486      4486.8546     -137163.25    
    885400   2503.6529     -8521.0903      4475.5275     -137160.78    
    885500   2578.9047      3323.4693      4427.2315     -137158.36    
    885600   2847.5881      8470.1759      4369.2054     -137159.75    
    885700   2601.9624     -184.3703       4353.0923     -137163.76    
    885800   2434.3059      6256.822       4380.4285     -137165.6     
    885900   2367.0442     -11245.637      4428.92       -137167.91    
    886000   2303.9185     -2420.2965      4429.0826     -137163.09    
    886100   2509.1226      2289.9011      4398.6653     -137161.33    
    886200   2592.8342      7077.5527      4361.2951     -137165.23    
    886300   2515.3322      2730.891       4351.377      -137167.92    
    886400   2345.5677      2045.6942      4362.724      -137165.91    
    886500   2557.4192     -11017.724      4371.4428     -137169.38    
    886600   2490.685       4223.6574      4332.8109     -137167.43    
    886700   2360.4576      1705.0849      4295.422      -137165.31    
    886800   2418.9291      11646.26       4265.4056     -137163.95    
    886900   2705.9988      5686.3052      4285.0318     -137162.12    
    887000   2617.6769      4335.2268      4352.5783     -137163.8     
    887100   2583.3507     -12002.707      4452.5956     -137167.11    
    887200   2479.9739     -15971.564      4502.2267     -137163.53    
    887300   2563.0941      3342.1938      4481.0925     -137160.11    
    887400   2694.1747      3148.9117      4476.7102     -137160.34    
    887500   2600.889      -9994.083       4478.8507     -137161.66    
    887600   2462.4571     -2924.5588      4431.9371     -137160.24    
    887700   2412.5655      104.65694      4373.2044     -137159.99    
    887800   2533.3632      9338.5328      4289.4169     -137165.53    
    887900   2462.2961      8816.4885      4212.8608     -137172.6     
    888000   2481.321       7210.3964      4181.9187     -137177.35    
    888100   2308.7351      12007.587      4209.4132     -137171.7     
    888200   2440.7966      1483.6019      4295.4853     -137168.9     
    888300   2515.007      -1130.6502      4398.6218     -137167.79    
    888400   2295.204       642.01227      4504.2055     -137159.23    
    888500   2763.1566     -20308.779      4559.0837     -137166.6     
    888600   2651.7146     -7210.7428      4496.2341     -137163.48    
    888700   2390.9185     -1867.1628      4399.3        -137166.22    
    888800   2372.2137      4650.705       4313.9313     -137167.68    
    888900   2546.4001      5556.7067      4268.7845     -137167.62    
    889000   2614.7272     -47.045003      4270.4685     -137165.54    
    889100   2649.8079      381.80743      4303.8295     -137170.54    
    889200   2395.6012     -1931.3657      4378.5908     -137173.47    
    889300   2354.4674     -4687.1996      4428.419      -137170.8     
    889400   2481.2177     -9429.7809      4432.6711     -137166.43    
    889500   2619.2197      2075.7731      4408.1836     -137167.05    
    889600   2332.5386      1204.9965      4384.2082     -137160.48    
    889700   2665.0901      1197.1073      4375.7345     -137166.14    
    889800   2637.6817     -4807.659       4390.6937     -137167.46    
    889900   2447.2235      1256.8981      4403.7163     -137169.19    
    890000   2420.6271     -20270.52       4444.2249     -137166.7     
    890100   2381.8538      6285.1839      4422.3594     -137157.13    
    890200   2630.9962     -7078.1944      4392.2068     -137163.33    
    890300   2705.5889     -7518.3415      4343.4516     -137170.09    
    890400   2551.4894      1902.4594      4310.4753     -137169.9     
    890500   2449.1551     -2201.3299      4299.6958     -137169.14    
    890600   2701.7208      16152.387      4298.0462     -137168.43    
    890700   2622.2798      9344.2622      4371.3456     -137160.83    
    890800   2505.803      -3603.252       4498.8903     -137163.92    
    890900   2253.4479     -12743.882      4563.7647     -137159.28    
    891000   2444.64       -3643.6622      4510.4641     -137160.74    
    891100   2599.579      -343.65265      4433.5243     -137162.62    
    891200   2590.0648     -2843.3735      4360.6204     -137164.7     
    891300   2538.2357      3705.8488      4295.7719     -137166.79    
    891400   2306.1136      7128.6464      4273.7825     -137165.81    
    891500   2536.4012      2107.6274      4295.609      -137170.48    
    891600   2625.2037      1117.5304      4338.7015     -137162.9     
    891700   2648.6426      11646.72       4404.944      -137159.95    
    891800   2462.5519     -1544.3833      4512.6984     -137158.45    
    891900   2391.4808     -8713.1713      4556.2357     -137160.67    
    892000   2467.951      -5682.6732      4519.231      -137164.68    
    892100   2510.1063      6780.6391      4450.2711     -137161.86    
    892200   2811.6563      1563.325       4411.5322     -137162.09    
    892300   2471.4993     -1040.7529      4383.7067     -137159.36    
    892400   2700.8269     -5462.7942      4336.6446     -137171.95    
    892500   2395.142       10168.452      4293.8098     -137166.92    
    892600   2427.2935      5418.9044      4291.2948     -137169.58    
    892700   2509.4298      9281.382       4334.2086     -137167.56    
    892800   2630.1339     -2483.4291      4412.2004     -137161.61    
    892900   2713.329      -2211.8697      4475.032      -137165.11    
    893000   2394.8702     -16775.608      4511.7763     -137160.52    
    893100   2562.0541     -12851.728      4441.6736     -137163.97    
    893200   2846.1442     -8902.1082      4291.6231     -137172.45    
    893300   2418.4841      22545.09       4162.5763     -137164.34    
    893400   2474.3804      3216.6833      4156.2261     -137171.58    
    893500   2427.9595      16466.036      4214.4171     -137171.33    
    893600   2481.0782      4843.4887      4334.0185     -137170.48    
    893700   2536.163      -1958.4255      4463.303      -137166.49    
    893800   2578.1637     -14714.326      4545.0962     -137158.43    
    893900   2693.2687     -11057.133      4555.3256     -137159.7     
    894000   2646.7992     -9404.4465      4524.7144     -137161.81    
    894100   2464.4851     -10380.156      4427.5995     -137163.64    
    894200   2455.1057      15613.115      4295.4106     -137165.76    
    894300   2566.2642      9107.9277      4230.9373     -137167.31    
    894400   2504.8167      9380.3797      4223.1755     -137169.53    
    894500   2190.1151      2807.0072      4279.5745     -137167.74    
    894600   2367.8221     -88.184626      4339.1399     -137166.83    
    894700   2501.8835      3725.1074      4387.5429     -137164.36    
    894800   2516.6329      3286.165       4439.9962     -137163.22    
    894900   2380.0236      1254.5564      4473.4984     -137157.04    
    895000   2633.0185     -2955.2255      4478.5418     -137157.88    
    895100   2754.6168      4362.8845      4475.8752     -137157.78    
    895200   2416.8168      441.44151      4501.7103     -137160.83    
    895300   2555.19       -13453.732      4503.4537     -137166.31    
    895400   2380.8368      10532.98       4441.6803     -137159.76    
    895500   2600.3966     -8394.6325      4396.1228     -137166       
    895600   2372.3131      4529.9264      4320.1679     -137166.38    
    895700   2350.7864     -1017.3344      4257.3241     -137170.39    
    895800   2448.0559      14108.752      4205.6765     -137171.87    
    895900   2607.9288      13387.051      4236.6679     -137166.94    
    896000   2635.2365      153.61525      4323.439      -137165.51    
    896100   2351.3374     -5899.6505      4425.8564     -137162.72    
    896200   2230.3731     -9517.8132      4491.394      -137159.85    
    896300   2631.6986     -667.21764      4493.023      -137159.06    
    896400   2844.5202     -14189.596      4487.6232     -137166.01    
    896500   2433.6762     -9809.612       4449.3487     -137162.47    
    896600   2408.3467      10152.721      4363.9164     -137164.26    
    896700   2494.1059      10669.31       4325.4255     -137166.43    
    896800   2474.6486      3763.7918      4352.2675     -137167.93    
    896900   2321.2417     -2460.3983      4406.8578     -137166.19    
    897000   2555.3102      4657.5072      4438.6337     -137165.98    
    897100   2544.1456     -2014.2912      4478.833      -137160.99    
    897200   2523.99        4312.8204      4510.809      -137161.55    
    897300   2520.2219     -11626.916      4567.1893     -137162.01    
    897400   2452.8137     -13952.029      4565.482      -137159.06    
    897500   2736.3513     -416.45858      4485.8505     -137166.83    
    897600   2408.1587      3534.2016      4404.801      -137164.96    
    897700   2296.6607      8866.0996      4338.4819     -137164.94    
    897800   2533.3919      10959.296      4308.1416     -137167.07    
    897900   2632.5579     -2542.3343      4328.6291     -137163.74    
    898000   2853.336      -4220.7612      4354.8486     -137164.04    
    898100   2525.0706     -3770.1068      4379.2949     -137163.8     
    898200   2250.1183     -5581.3758      4392.1994     -137160.44    
    898300   2608.2379     -3414.4254      4368.5107     -137167.75    
    898400   2675.7877      8584.9032      4351.873      -137170.54    
    898500   2305.5247     -5706.389       4388.548      -137169.28    
    898600   2221.5072     -6397.8697      4398.3382     -137166.24    
    898700   2433.8952      1793.9329      4347.3437     -137166.16    
    898800   2644.8567      10061.883      4296.7657     -137170.24    
    898900   2403.9915      6215.8793      4315.887      -137167.39    
    899000   2422.7342     -334.5085       4370.1127     -137169.85    
    899100   2489.115       2092.6741      4417.0225     -137164.84    
    899200   2640.7607     -75.527341      4461.2343     -137162.75    
    899300   2440.1715     -5436.7919      4475.5545     -137160.79    
    899400   2456.0894     -8838.1409      4438.4833     -137163.81    
    899500   2669.2599      1278.1423      4369.9084     -137167.29    
    899600   2497.3291      10248.96       4351.4989     -137158.92    
    899700   2479.4862      10564.915      4381.9788     -137162.16    
    899800   2282.0054     -7380.0283      4423.7711     -137163.68    
    899900   2469.7182     -6420.9568      4393.8131     -137169.29    
    900000   2552.2324      5045.8365      4325.4538     -137164.56    
    900100   2757.1198      11529.464      4288.955      -137165.17    
    900200   2602.3829      1652.3355      4322.2665     -137167.28    
    900300   2387.4634     -4273.5383      4404.2651     -137163.23    
    900400   2425.8335     -11225.956      4454.4326     -137160.68    
    900500   2658.7833     -301.62393      4427.2601     -137161.54    
    900600   2583.6086      4976.6247      4385.3473     -137161.19    
    900700   2338.8038     -51.764355      4368.1414     -137164.27    
    900800   2279.0587      928.44357      4351.8212     -137163.83    
    900900   2535.3902      7650.6952      4351.7353     -137165.73    
    901000   2422.3855      3567.8086      4384.2276     -137161.9     
    901100   2565.6917     -5708.0671      4439.5613     -137164.78    
    901200   2653.9134     -5287.0156      4489.7909     -137157.04    
    901300   2777.2361     -1880.8098      4515.8903     -137156.82    
    901400   2571.0465     -6311.8769      4523.8865     -137159.86    
    901500   2521.2991     -2079.9146      4485.0767     -137164.57    
    901600   2511.7352     -8263.4001      4416.5831     -137167.95    
    901700   2411.97        6563.6201      4297.7562     -137166.55    
    901800   2640.1412      9718.3954      4241.1633     -137169.45    
    901900   2614.6267      11997.281      4297.5923     -137168.18    
    902000   2328.3774     -4646.4088      4430.076      -137162.84    
    902100   2472.1244     -8526.3078      4493.1984     -137161.79    
    902200   2601.5623     -633.14         4467.7184     -137157.84    
    902300   2677.6014      1472.1226      4450.4128     -137162.26    
    902400   2448.994      -15040.221      4453.7594     -137160.94    
    902500   2568.5109     -12786.519      4400.1442     -137164.25    
    902600   2589.7333     -1071.0614      4313.8837     -137165.85    
    902700   2363.8559      16056.22       4256.8124     -137163.89    
    902800   2290.2924      2793.6568      4272.6761     -137170.88    
    902900   2101.8424      2062.0968      4296.3978     -137169.11    
    903000   2331.44        11447.647      4310.0603     -137168.94    
    903100   2516.6936     -7896.9536      4365.9399     -137168.74    
    903200   2529.1221     -3351.492       4411.9324     -137164.13    
    903300   2593.9582      2562.0378      4440.2057     -137162.1     
    903400   2522.2855     -5942.137       4451.3789     -137162.12    
    903500   2376.0326     -5564.9886      4420.2376     -137167       
    903600   2360.5666     -2364.7518      4370.8119     -137168.76    
    903700   2591.7687      5244.6393      4339.5058     -137168.63    
    903800   2431.4616      3071.9061      4366.8266     -137162.61    
    903900   2395.6633     -5985.7561      4393.4081     -137162.36    
    904000   2434.3832      8950.8141      4376.6236     -137160.99    
    904100   2463.607       2186.4634      4377.6454     -137159.55    
    904200   2527.227       2211.0874      4389.7742     -137162.86    
    904300   2378.972      -15032.626      4400.6975     -137165.01    
    904400   2347.4183      8402.339       4358.8284     -137164.73    
    904500   2576.5009      5320.2491      4338.6641     -137163.83    
    904600   2743.7464      3672.1823      4346.1954     -137164.88    
    904700   2562.1106      4568.3092      4374.5453     -137166.24    
    904800   2451.1364     -9817.4463      4413.4516     -137165.73    
    904900   2370.2353     -4045.4758      4391.3221     -137162.53    
    905000   2649.101      -518.63066      4355.7465     -137165.42    
    905100   2462.7066      7801.9951      4329.2861     -137160.62    
    905200   2159.4468      11353.18       4346.1537     -137160.61    
    905300   2416.8718     -3426.8038      4400.2013     -137168.61    
    905400   2582.189      -1179.0494      4424.8429     -137166.05    
    905500   2627.9167     -833.71345      4442.087      -137161.76    
    905600   2522.9788     -511.26302      4441.0502     -137160.58    
    905700   2412.6773      2463.1671      4428.2687     -137161.93    
    905800   2353.0508     -240.43876      4412.6595     -137161.79    
    905900   2676.4039      2522.3213      4386.057      -137165.46    
    906000   2809.6067      9104.2628      4398.8906     -137162.44    
    906100   2444.7473     -3039.5762      4469.6199     -137159.06    
    906200   2331.8554     -6970.3322      4514.3659     -137161.11    
    906300   2406.0919     -13265.678      4502.9106     -137161.97    
    906400   2623.2947      1856.7295      4426.0187     -137165.31    
    906500   2541.8586      1024.3196      4355.582      -137164.8     
    906600   2623.8874      3207.3555      4299.4433     -137169.14    
    906700   2556.7438      69.932759      4290.5115     -137169.01    
    906800   2509.3699     -2669.2544      4309.7369     -137172.12    
    906900   2259.4171     -7965.1951      4329.6049     -137172.29    
    907000   2296.9457      909.18245      4320.5296     -137170.18    
    907100   2403.428       13435.059      4300.375      -137163.55    
    907200   2526.9862     -6401.2976      4338.8348     -137163.68    
    907300   2512.5674     -4770.6158      4381.9018     -137161.65    
    907400   2692.6555     -3335.1952      4409.4275     -137165.63    
    907500   2396.2389     -5013.34        4417.6654     -137164.98    
    907600   2345.7137     -4762.3772      4375.6672     -137168.1     
    907700   2452.3141      6007.5121      4297.0359     -137168.02    
    907800   2681.7341      14512.999      4268.7751     -137167.23    
    907900   2628.8937      5667.1251      4331.1561     -137167.11    
    908000   2185.7038     -13565.67       4413.3204     -137167.71    
    908100   2237.3184      4967.2722      4420.3932     -137166.11    
    908200   2367.01        3901.7939      4433.6813     -137161.68    
    908300   2520.2948     -3330.4547      4461.3196     -137159.53    
    908400   2458.1043     -2729.3566      4438.0014     -137157.98    
    908500   2490.4729     -904.38428      4382.188      -137164.66    
    908600   2329.3033      8741.7395      4319.5825     -137167.82    
    908700   2492.0526      4599.6331      4274.711      -137171.25    
    908800   2373.4109      12672.094      4267.9816     -137165.07    
    908900   2611.1722      4063.0555      4349.6298     -137167.49    
    909000   2476.2072     -3416.3874      4465.4206     -137163.46    
    909100   2499.6885     -11506.563      4530.3773     -137162.82    
    909200   2472.7073     -3235.7082      4499.0103     -137160.65    
    909300   2664.2425     -1131.5473      4438.0629     -137162.91    
    909400   2694.7811      14684.958      4378.6988     -137162.35    
    909500   2538.0941     -8022.3717      4373.969      -137166.5     
    909600   2550.9765     -9523.3839      4338.7704     -137172.08    
    909700   2373.6369      2077.8068      4268.6959     -137166.77    
    909800   2829.5752      8361.1951      4229.5642     -137175.6     
    909900   2353.1323      9050.1149      4278.0638     -137170.24    
    910000   2250.5706     -9553.9046      4387.1059     -137169.79    
    910100   2406.7727     -11738.731      4445.4952     -137166.32    
    910200   2301.8383      6806.6015      4432.2025     -137159.61    
    910300   2488.2861      5348.5381      4400.8354     -137162.15    
    910400   2736.8014     -9880.8176      4378.5971     -137168.02    
    910500   2411.2159      4633.8794      4342.7444     -137165.43    
    910600   2304.4477      4038.0021      4314.7847     -137169.04    
    910700   2529.3973      2020.0668      4311.0923     -137173.37    
    910800   2469.1576      8018.9205      4336.4421     -137163.05    
    910900   2555.1362      4352.7532      4376.5299     -137162.44    
    911000   2320.8838     -3669.8382      4427.8092     -137158.39    
    911100   2400.4896     -3276.2539      4463.3935     -137159.58    
    911200   2501.0172      4930.2167      4469.0283     -137157.57    
    911300   2538.8398     -3197.0604      4474.77       -137157.59    
    911400   2497.1587     -19168.086      4436.1156     -137165.43    
    911500   2418.8657      4195.5049      4308.8183     -137167.77    
    911600   2621.509       14270.363      4206.6532     -137172.9     
    911700   2483.9362      7405.3993      4206.7561     -137172.6     
    911800   2205.2302     -3487.2014      4272.9712     -137174.58    
    911900   2336.4985      3108.2798      4318.1264     -137175.32    
    912000   2372.0133      8672.8992      4371.3256     -137168.71    
    912100   2478.2627     -10200.104      4459.5163     -137167.08    
    912200   2487.738      -10709.454      4481.0786     -137161.67    
    912300   2616.4213     -146.14512      4429.6608     -137161.27    
    912400   2644.5251     -2472.5716      4373.0666     -137166.61    
    912500   2388.1384     -3057.186       4324.2756     -137165.99    
    912600   2563.6939     -766.83288      4276.9246     -137170.72    
    912700   2322.1025      14571.931      4256.7995     -137164.44    
    912800   2580.2511      5763.2009      4302.0994     -137167.75    
    912900   2657.2047      7187.8109      4386.3024     -137163.31    
    913000   2734.9921     -4225.1139      4493.8066     -137163.66    
    913100   2320.5096     -11155.908      4560.6687     -137159.73    
    913200   2300.2442     -13501.571      4524.6654     -137161.7     
    913300   2723.4656      8006.8951      4408.4775     -137167.02    
    913400   2626.3718      14821.418      4355.5394     -137161.44    
    913500   2561.4138     -4155.2961      4364.6669     -137164.31    
    913600   2400.7063      4473.3133      4365.5139     -137161.84    
    913700   2476.1162      13783.934      4377.6635     -137163.84    
    913800   2507.0176     -2008.6985      4458.9168     -137164.92    
    913900   2406.5835     -13074.241      4529.4348     -137161.98    
    914000   2560.1084     -4110.7268      4517.5413     -137158.53    
    914100   2824.7868     -10674.445      4473.4191     -137163.66    
    914200   2566.1222     -331.97096      4418.4474     -137163.89    
    914300   2520.3276      7210.7455      4366.5175     -137166       
    914400   2412.3923      12776.783      4338.0127     -137163.24    
    914500   2594.3579      9691.7047      4368.137      -137166.58    
    914600   2451.0195      2256.9384      4438.4751     -137162.2     
    914700   2252.9176     -10448.407      4478.0399     -137163.99    
    914800   2423.4423     -6715.3832      4448.0763     -137167.55    
    914900   2501.7619      6661.0712      4390.4271     -137161.69    
    915000   2654.9784      4407.1815      4370.3274     -137164.67    
    915100   2477.6336     -8824.7574      4391.9226     -137162.21    
    915200   2259.2444      14372.926      4392.2915     -137159.68    
    915300   2273.4948     -1356.5255      4419.8287     -137165.33    
    915400   2249.2014     -475.2822       4404.2984     -137168.26    
    915500   2481.7279      5510.7535      4349.5701     -137165.91    
    915600   2617.3677      6802.7567      4308.4227     -137166.57    
    915700   2489.0628      5485.5294      4290.1844     -137166.79    
    915800   2268.1232     -3990.962       4297.1386     -137164.49    
    915900   2556.1776      6989.3811      4303.1031     -137167.11    
    916000   2720.7338     -2106.831       4356.439      -137162.9     
    916100   2618.5092      5517.4492      4428.4968     -137164       
    916200   2321.7369     -9913.7615      4507.9578     -137161.69    
    916300   2394.2233     -11550.245      4511.7653     -137161.32    
    916400   2554.5725     -1416.1416      4451.5205     -137161.26    
    916500   2563.9635      290.01179      4384.1605     -137161.4     
    916600   2548.0355      12541.045      4329.0961     -137165.45    
    916700   2597.0081      4601.457       4352.7397     -137169.41    
    916800   2541.3755     -12303.413      4423.8227     -137169.4     
    916900   2502.8011     -5626.4003      4465.4417     -137167.25    
    917000   2749.165      -4816.9765      4480.342      -137166.98    
    917100   2553.0885      6774.5946      4485.5133     -137158.89    
    917200   2555.7364      40.475871      4538.6923     -137162.81    
    917300   2328.0836     -13057.838      4625.3564     -137162.83    
    917400   2437.7412     -15585.029      4612.8546     -137164.28    
    917500   2701.3593     -6806.4601      4466.938      -137164.58    
    917600   2694.8177      21842.665      4297.1095     -137162.12    
    917700   2624.9251      13530.29       4241.7027     -137167.47    
    917800   2502.1293     -1325.0127      4269.8989     -137167.98    
    917900   2436.9706     -7281.9957      4293.8317     -137167.2     
    918000   2544.2745      5208.9339      4301.1798     -137166.28    
    918100   2790.8843     -2960.1927      4380.0267     -137167.13    
    918200   2583.8985     -11346.548      4502.0184     -137161.62    
    918300   2055.8257     -17927.281      4570.2539     -137154.43    
    918400   2366.4588     -9668.1265      4503.7087     -137163.05    
    918500   2692.0308      939.55176      4366.3545     -137164.43    
    918600   2667.9391      8170.9325      4248.0736     -137166.01    
    918700   2680.0655      6003.4597      4213.4975     -137171.31    
    918800   2434.369       5945.9054      4256.1511     -137169.19    
    918900   2397.834      -6054.7867      4329.4882     -137168.37    
    919000   2552.8712     -4935.8052      4373.0479     -137165.36    
    919100   2698.5153      12673.026      4408.0856     -137162.53    
    919200   2683.582      -8844.4821      4488.3127     -137166.25    
    919300   2381.5491     -4033.0811      4517.0384     -137161.12    
    919400   2422.2444     -578.09237      4472.1309     -137160.58    
    919500   2780.4866     -827.84555      4418.3979     -137165.65    
    919600   2527.1865     -2633.4944      4393.1666     -137163.83    
    919700   2285.2677      650.26609      4371.4128     -137167.56    
    919800   2480.0937      3820.5332      4350.3393     -137170.94    
    919900   2552.1197      5750.2479      4364.2046     -137166.85    
    920000   2558.3439     -1389.3872      4420.1751     -137162.49    
    920100   2476.072      -13287.128      4461.9536     -137161.16    
    920200   2326.4699     -2171.9065      4435.4596     -137161.67    
    920300   2360.5997      1073.6446      4369.8706     -137167.98    
    920400   2548.2345      13307.02       4314.0076     -137170.07    
    920500   2530.4807      14507.394      4304.1796     -137163.6     
    920600   2596.5251      758.82918      4356.3943     -137160.02    
    920700   2550.0255      6574.2974      4414.3151     -137159.12    
    920800   2469.5286     -9991.1376      4476.2649     -137167.09    
    920900   2228.587      -3392.8004      4473.3281     -137161.07    
    921000   2563.0629      5438.959       4426.8438     -137163.25    
    921100   2666.6945      5154.1767      4399.2591     -137164.95    
    921200   2568.5285     -4388.1809      4399.8266     -137166.81    
    921300   2400.752      -1716.4826      4396.2586     -137167.2     
    921400   2430.0323     -2168.7773      4390.1138     -137168.45    
    921500   2315.7172      5271.0058      4382.3369     -137163.8     
    921600   2373.3181      3209.0159      4392.3902     -137161.33    
    921700   2554.7034     -4155.8669      4429.487      -137159.77    
    921800   2618.3768     -1814.8324      4473.6537     -137159.8     
    921900   2447.4713     -6966.3626      4502.663      -137162.09    
    922000   2421.5574     -726.02307      4492.4617     -137167.89    
    922100   2493.0498     -19527.218      4457.0569     -137168.1     
    922200   2646.2039     -887.90358      4361.9716     -137167.47    
    922300   2566.8203      11825.04       4285.8463     -137165.09    
    922400   2306.0587      906.82048      4266.1529     -137166.28    
    922500   2503.5216     -5725.3174      4271.7617     -137172.39    
    922600   2638.4758     -6885.242       4280.4043     -137174.26    
    922700   2481.1762      2088.9382      4295.5396     -137167       
    922800   2772.7763      7873.9241      4343.1961     -137170.44    
    922900   2411.2316     -10614.791      4431.5714     -137167.03    
    923000   2372.8034     -12458.088      4479.9967     -137170.27    
    923100   2376.2979     -4977.3365      4462.7475     -137164.12    
    923200   2743.8858     -307.60693      4395.1916     -137169.32    
    923300   2678.0832      12232.323      4327.3866     -137169.52    
    923400   2208.2844      196.74769      4345.0138     -137162.73    
    923500   2525.0034      2607.5697      4374.5266     -137169.62    
    923600   2494.0494     -4891.941       4430.5585     -137164.2     
    923700   2608.2846     -6045.1742      4459.4534     -137164.38    
    923800   2591.6726     -7303.0242      4426.0529     -137165.04    
    923900   2363.2229      10163.678      4360.3889     -137162.49    
    924000   2429.1184      235.39309      4337.7234     -137169.28    
    924100   2244.6838      11517.289      4303.0673     -137167.21    
    924200   2635.6047      2135.4719      4318.1846     -137169.76    
    924300   2457.304      -7037.5584      4380.6613     -137160.23    
    924400   2554.1242      34.998293      4415.6801     -137165.43    
    924500   2280.2321     -13797.297      4424.951      -137162.93    
    924600   2608.1454      6083.1068      4380.2794     -137170.95    
    924700   2677.5846     -8410.3119      4368.2589     -137165.36    
    924800   2788.1054      5922.3567      4337.9757     -137167.06    
    924900   2438.5586      2858.9657      4347.221      -137165.95    
    925000   2459.0944     -4846.6287      4382.2845     -137168.89    
    925100   2506.1768     -551.12368      4413.3106     -137167.4     
    925200   2585.6785     -4486.5182      4426.346      -137166.53    
    925300   2622.0169     -2891.6918      4405.862      -137167.78    
    925400   2306.599       1522.4528      4363.4667     -137167.91    
    925500   2311.5551     -5158.9574      4298.3831     -137168.97    
    925600   2654.8921      14503.981      4216.9772     -137171.36    
    925700   2585.847       1059.8317      4232.8435     -137168.66    
    925800   2428.7912      2101.2149      4318.239      -137167.67    
    925900   2203.1335     -5761.4394      4448.045      -137163.49    
    926000   2450.2805     -13447.404      4538.1514     -137162.79    
    926100   2730.9345     -17020.248      4558.3655     -137164.12    
    926200   2565.0613     -9518.2209      4489.0424     -137161.56    
    926300   2453.7639      12815.17       4375.0004     -137166.39    
    926400   2238.6044      7501.5193      4309.6418     -137164.42    
    926500   2463.1052      8703.5605      4272.8895     -137168.79    
    926600   2403.3847      7522.2252      4301.0308     -137164.52    
    926700   2632.0714     -3708.3097      4364.404      -137165.01    
    926800   2792.0701      5071.3762      4421.7825     -137159.3     
    926900   2718.9258     -7702.5001      4512.0741     -137161.82    
    927000   2420.0055     -16087.495      4590.184      -137158.7     
    927100   2605.1096     -15641.586      4572.3537     -137163.99    
    927200   2399.6828      3995.7507      4462.864      -137158.73    
    927300   2603.9884     -230.71238      4365.4567     -137166.25    
    927400   2465.767       2179.114       4293.659      -137170.07    
    927500   2358.6064      3043.1901      4247.9415     -137169.59    
    927600   2507.1464      16297.089      4224.719      -137169.11    
    927700   2781.0635      2759.8236      4297.1278     -137167.48    
    927800   2642.1024     -1098.1004      4390.5472     -137166.67    
    927900   2450.8563     -3792.6107      4453.7875     -137164.23    
    928000   2483.6335     -1487.447       4455.6008     -137165.78    
    928100   2402.4132     -2194.9392      4431.2736     -137166.46    
    928200   2456.4602     -13341.121      4370.6006     -137174.52    
    928300   2269.9958      7891.1791      4265.5158     -137171.04    
    928400   2739.1796      13418.908      4220.0487     -137174.85    
    928500   2368.173       6742.3894      4262.464      -137165.08    
    928600   2422.9662      3615.0912      4337.0234     -137166.74    
    928700   2520.6706     -6138.9741      4405.9862     -137165.42    
    928800   2693.8113      14156.454      4445.9939     -137158.88    
    928900   2592.159      -11204.53       4513.5277     -137157.1     
    929000   2487.8583     -7357.986       4508.6846     -137158.1     
    929100   2502.8884     -10375.474      4457.6385     -137162.47    
    929200   2643.667       5725.3149      4383.2867     -137170.81    
    929300   2144.4079     -6873.6814      4341.9192     -137168.8     
    929400   2298.9644      1906.7537      4264.9712     -137170.9     
    929500   2421.7477      19130.08       4219.4697     -137168.26    
    929600   2535.3613      1865.9933      4263.089      -137169.46    
    929700   2522.2402      371.25452      4335.4755     -137165.62    
    929800   2663.3285     -1724.0684      4405.0295     -137161.02    
    929900   2635.2714     -6892.299       4463.4553     -137161.93    
    930000   2319.3222     -5167.7231      4509.5658     -137158.64    
    930100   2323.8945     -3733.4278      4514.0886     -137157.7     
    930200   2492.1677     -1986.0574      4465.1034     -137161.34    
    930300   2573.4764      11407.065      4381.3364     -137163.76    
    930400   2496.4536      6874.4394      4348.4139     -137166.89    
    930500   2374.8584     -7388.9031      4359.5038     -137169.56    
    930600   2414.3954      3310.0835      4337.7435     -137168.13    
    930700   2679.7579      1567.4248      4323.2769     -137171.49    
    930800   2549.6857      1394.6903      4327.8378     -137169.13    
    930900   2546.2448      3629.9346      4346.0628     -137170.37    
    931000   2477.9037     -13829.236      4377.3201     -137167.9     
    931100   2342.1703      8329.27        4362.3764     -137161.7     
    931200   2607.8773      10727.673      4376.0404     -137164.68    
    931300   2648.5513     -5878.3029      4440.3811     -137165.49    
    931400   2255.376      -10110.57       4470.4899     -137161.9     
    931500   2350.9835     -10809.01       4420.0284     -137165.33    
    931600   2613.0992      7294.1453      4307.5662     -137164.15    
    931700   2755.9656      11504.464      4253.2357     -137168.51    
    931800   2491.0878      13809.186      4305.0666     -137167.33    
    931900   2323.6119     -3477.2686      4437.6791     -137165.45    
    932000   2504.6077     -20271.343      4538.1841     -137163.66    
    932100   2450.0137     -2085.9114      4537.6754     -137156.97    
    932200   2404.8114     -748.28533      4503.2336     -137157.85    
    932300   2525.3667     -3494.837       4462.2891     -137162.8     
    932400   2444.4089      7959.3942      4411.0799     -137162.6     
    932500   2333.8507     -6339.5924      4385.6173     -137166.07    
    932600   2509.014       10169.111      4346.907      -137171.08    
    932700   2482.2107     -3088.2636      4357.7334     -137165.09    
    932800   2752.2303      2095.9027      4362.5653     -137165.74    
    932900   2545.5515     -5969.7561      4379.0618     -137165.46    
    933000   2335.4282      2422.7058      4376.5706     -137167.33    
    933100   2311.6732      7253.4676      4374.7607     -137165.47    
    933200   2497.9048      1688.4384      4385.4024     -137168.08    
    933300   2578.8459     -861.80826      4383.7326     -137165.85    
    933400   2774.2135      2303.1235      4372.261      -137159.73    
    933500   2861.7845      825.69949      4397.9571     -137162.76    
    933600   2463.4734      3837.5784      4443.8117     -137158.71    
    933700   2512.1805      2197.2111      4473.8341     -137162.83    
    933800   2572.3955     -5356.5499      4487.2041     -137167.11    
    933900   2398.3008     -8755.3287      4471.4731     -137163.2     
    934000   2520.353      -330.15689      4391.8046     -137164.76    
    934100   2741.024       3279.057       4323.6919     -137165.84    
    934200   2416.5131      2633.8526      4296.8325     -137162.08    
    934300   2347.57        6809.8823      4297.0388     -137167.71    
    934400   2479.8496      2643.0838      4324.4922     -137171.78    
    934500   2423.2466      289.9727       4370.2741     -137166.3     
    934600   2540.4756     -13051.4        4416.1558     -137163.47    
    934700   2704.131      -1360.4841      4396.5312     -137168.02    
    934800   2543.1769      370.62165      4381.6118     -137168.13    
    934900   2334.6161     -3673.8753      4366.3808     -137165.93    
    935000   2413.639      -1868.047       4321.4377     -137164.11    
    935100   2890.0287      17689.468      4251.0617     -137167.7     
    935200   2661.8242      17198.166      4271.1987     -137165.12    
    935300   2504.9432     -14254.226      4371.6777     -137166.22    
    935400   2517.1984     -7911.2962      4412.2041     -137168.07    
    935500   2441.8789     -1846.0024      4413.617      -137165.35    
    935600   2399.7801     -2016.5977      4399.3236     -137160.93    
    935700   2854.7888      3772.95        4370.5661     -137166.84    
    935800   2587.3979     -3074.672       4363.0927     -137164.52    
    935900   2454.5046     -221.83516      4358.7646     -137166.76    
    936000   2433.1843     -1243.2197      4377.183      -137167.45    
    936100   2342.6471      5933.978       4395.1793     -137163.4     
    936200   2567.8725      151.92856      4420.0049     -137166.86    
    936300   2381.239      -11953.284      4447.2398     -137160.77    
    936400   2603.5981      3896.359       4412.4683     -137166.05    
    936500   2512.9352     -2825.7195      4398.9842     -137164.15    
    936600   2459.7714      2283.8173      4390.0175     -137166.47    
    936700   2356.8941      3256.5548      4374.6927     -137170.59    
    936800   2233.3684     -4177.9109      4345.594      -137174.33    
    936900   2389.9187      5282.9785      4296.1957     -137171.53    
    937000   2556.3826      6377.7665      4271.0247     -137169.99    
    937100   2420.2604      3482.9683      4284.4642     -137165.04    
    937200   2566.2593     -6333.1579      4322.0146     -137167.85    
    937300   2628.3668      4821.1957      4358.2256     -137166.38    
    937400   2623.6447     -763.50199      4403.2487     -137162.83    
    937500   2389.3269      3456.5815      4420.7238     -137163.85    
    937600   2318.9655     -11971.037      4426.9869     -137165.03    
    937700   2519.1352      7973.6666      4394.6873     -137165.03    
    937800   2615.8993     -3650.3156      4397.3685     -137164.36    
    937900   2427.2471      3272.8537      4372.0948     -137161.03    
    938000   2444.0661      4587.6126      4342.8466     -137162.87    
    938100   2422.0958      9671.5223      4329.8543     -137164.38    
    938200   2361.3063     -5008.7119      4363.0713     -137167.32    
    938300   2321.2373      4528.4149      4389.3201     -137167.15    
    938400   2553.8514      1056.4823      4422.185      -137164.87    
    938500   2473.0796      6018.376       4448.9302     -137159.58    
    938600   2397.402       6751.1095      4485.185      -137159.91    
    938700   2359.5042     -17131.796      4536.2534     -137161.43    
    938800   2441.2353     -766.56352      4529.1602     -137159.82    
    938900   2911.7839     -5109.6313      4489.4266     -137164.26    
    939000   2549.9399      3280.9787      4441.8964     -137158.44    
    939100   2538.1524      1200.5233      4417.6553     -137166.6     
    939200   2357.0923     -6663.408       4393.8611     -137165.13    
    939300   2483.2333      7069.9395      4330.9607     -137166.07    
    939400   2677.73        8077.4273      4278.0032     -137168.35    
    939500   2338.4428      5859.9068      4261.0286     -137167.42    
    939600   2299.3136     -579.02515      4290.4263     -137170.09    
    939700   2499.8297     -2407.6181      4326.9601     -137169.55    
    939800   2558.9054      1448.203       4343.0614     -137168.62    
    939900   2377.3587     -1373.0253      4369.2432     -137163.34    
    940000   2568.8433     -6294.7107      4392.4928     -137166.38    
    940100   2788.6616     -11036.645      4382.5189     -137169.36    
    940200   2632.1969      12.120666      4350.747      -137165.78    
    940300   2226.769      -713.26281      4323.0777     -137161.35    
    940400   2425.5353     -2105.8455      4286.2208     -137166.47    
    940500   2623.599       6451.2598      4276.6485     -137168.15    
    940600   2441.4001     -4432.0804      4319.2192     -137164.96    
    940700   2433.7861     -14049.124      4347.0595     -137168.87    
    940800   2392.0111      3947.3946      4315.9234     -137168.47    
    940900   2446.2169      5775.9186      4289.6849     -137166.48    
    941000   2718.9366      2069.0277      4332.2765     -137166.49    
    941100   2561.6479      4641.4112      4422.298      -137162.7     
    941200   2339.6957     -10083.387      4505.428      -137163.39    
    941300   2391.2159     -18300.899      4504.356      -137167.5     
    941400   2640.4914      1835.0232      4408.4176     -137161.88    
    941500   2610.5753      11450.481      4309.7814     -137161.39    
    941600   2478.9797      14276.208      4260.5691     -137165.67    
    941700   2380.038       7313.3684      4274.8858     -137168.14    
    941800   2312.9335     -8436.1882      4335.1734     -137168.18    
    941900   2489.3426     -4261.6213      4365.6673     -137165.67    
    942000   2594.5027      6187.3116      4353.3818     -137163.01    
    942100   2514.9797      1608.1029      4357.3417     -137163.34    
    942200   2571.6294      2605.2454      4366.1466     -137168.58    
    942300   2331.9408     -419.0085       4392.0403     -137167.45    
    942400   2162.5178     -2149.1767      4381.6225     -137165.58    
    942500   2601.0933      4159.9856      4341.7849     -137164.3     
    942600   2559.7984      1654.9709      4327.7353     -137162.59    
    942700   2379.3909      4157.9763      4315.2251     -137164.09    
    942800   2409.2968     -6947.1225      4299.5845     -137169.36    
    942900   2351.2901      7828.275       4271.6861     -137167.47    
    943000   2585.6772      3679.8163      4285.2126     -137167.27    
    943100   2714.0322     -3093.2524      4339.3619     -137164.84    
    943200   2455.875      -1465.4066      4391.0643     -137162.13    
    943300   2110.8911     -3898.4074      4412.5238     -137161.28    
    943400   2318.8552     -3656.0908      4350.3387     -137165.97    
    943500   2649.2669      23141.181      4254.3463     -137171.27    
    943600   2370.5992      8312.699       4286.4006     -137166.88    
    943700   2394.4011      1124.2564      4373.6654     -137166       
    943800   2482.2155     -6626.1393      4447.0056     -137160.21    
    943900   2666.4913      230.30165      4491.1577     -137162.4     
    944000   2548.9334     -5383.0215      4520.7703     -137162.61    
    944100   2248.0519     -7264.4766      4510.8341     -137157.32    
    944200   2486.4864      206.58656      4447.2766     -137161.77    
    944300   2757.7579      3001.5654      4379.7862     -137160.2     
    944400   2644.3735      5345.27        4359.2229     -137164.04    
    944500   2471.9676     -5578.5402      4366.4655     -137166.15    
    944600   2385.3395     -514.99866      4333.8568     -137165.05    
    944700   2538.525       7964.827       4298.459      -137166.52    
    944800   2540.5977      10855.17       4327.9476     -137161.36    
    944900   2706.4864     -6851.3246      4425.2107     -137164.5     
    945000   2314.8774     -17631.031      4493.2026     -137162.06    
    945100   2316.9052      6618.5721      4444.2595     -137163.63    
    945200   2525.7633      2052.7283      4356.8025     -137165.91    
    945300   2950.424       16446.425      4301.1328     -137167.19    
    945400   2623.4845      6366.8046      4374.3406     -137163.1     
    945500   2239.5017     -6537.676       4505.3591     -137155.82    
    945600   2553.3        -12210.949      4585.9243     -137160.48    
    945700   2658.9149     -18675.442      4575.2011     -137160.09    
    945800   2661.6347      5248.1801      4470.0794     -137161.8     
    945900   2354.2181     -334.54989      4382.6663     -137164.54    
    946000   2445.6758     -1680.4597      4302.2679     -137168.84    
    946100   2459.4727      4604.9424      4253.8612     -137164.69    
    946200   2490.553       14198.42       4263.5064     -137163.57    
    946300   2306.1892      549.9502       4337.0796     -137165.95    
    946400   2311.8767     -607.92344      4404.1        -137168.76    
    946500   2350.5569     -8271.0021      4440.9537     -137162.76    
    946600   2529.923       3163.8554      4407.014      -137163.86    
    946700   2640.3466     -116.89661      4351.8778     -137167.13    
    946800   2570.5967      8561.528       4318.3268     -137166.68    
    946900   2371.4731     -4239.3819      4315.3946     -137167.74    
    947000   2286.0543      2804.0319      4300.4517     -137166.92    
    947100   2621.2861      9802.2325      4295.9836     -137166.66    
    947200   2535.9399     -4013.0009      4381.4379     -137161.36    
    947300   2506.3019     -3115.2993      4457.6715     -137162.23    
    947400   2409.1221     -2959.4752      4472.8658     -137162.16    
    947500   2467.6115      1039.5993      4463.4513     -137165.44    
    947600   2347.4896     -4494.4293      4436.297      -137165.71    
    947700   2535.4686      9962.5322      4354.8742     -137168.19    
    947800   2605.4737      15188.849      4309.6758     -137164.15    
    947900   2647.9203      2127.142       4373.8864     -137164.37    
    948000   2337.708      -9763.7733      4484.6027     -137163.49    
    948100   2237.1731     -5581.1507      4530.2069     -137162.66    
    948200   2460.3233      4615.8335      4508.5591     -137163.11    
    948300   2605.0723     -5983.6816      4477.5354     -137165.24    
    948400   2638.4422     -6774.955       4418.9079     -137167.11    
    948500   2465.2671      545.89678      4332.7759     -137165.29    
    948600   2367.2771      8331.106       4268.3187     -137167.14    
    948700   2174.5755      3208.5491      4256.1609     -137170.52    
    948800   2227.7675      6294.0578      4279.7144     -137171.92    
    948900   2461.6371     -2415.2467      4346.3412     -137166.46    
    949000   2506.3645      2177.1396      4419.801      -137162.84    
    949100   2705.2929     -5904.1687      4479.0698     -137166.14    
    949200   2406.8279     -4570.1957      4509.4464     -137160.51    
    949300   2276.1734     -7697.2373      4488.5554     -137156.57    
    949400   2804.8926      12155.558      4412.7736     -137163.42    
    949500   2573.3014      12152.481      4395.5793     -137160.4     
    949600   2410.3334      852.26103      4432.7083     -137164.01    
    949700   2389.8402     -6377.9259      4458.8035     -137162.62    
    949800   2603.2605     -5698.0121      4436.6188     -137163.97    
    949900   2751.5598      250.04582      4393.4109     -137166.76    
    950000   2368.2839      164.68987      4349.8995     -137165.45    
    950100   2317.045      -2396.5055      4292.4651     -137168.99    
    950200   2367.806       6206.6875      4230.5311     -137167.39    
    950300   2614.3485      7546.2205      4215.8265     -137169.93    
    950400   2489.4344      12528.792      4251.8924     -137166.97    
    950500   2373.0292     -8901.7805      4331.681      -137166.73    
    950600   2317.5899     -5275.0011      4383.9065     -137163.29    
    950700   2557.921      -1954.5953      4394.6416     -137162.12    
    950800   2499.9236      9188.7268      4416.9769     -137157.02    
    950900   2503.5675      4419.7887      4464.3972     -137160       
    951000   2281.94       -12725.447      4504.8863     -137162.63    
    951100   2394.5633     -7033.7388      4470.4611     -137165.46    
    951200   2609.2746     -661.33211      4383.3712     -137168.92    
    951300   2447.1972      11040.631      4302.113      -137164.34    
    951400   2600.9379      13535.278      4273.0043     -137169.22    
    951500   2364.4915     -7851.5138      4296.7225     -137170.97    
    951600   2309.9112      911.86         4295.6667     -137171.02    
    951700   2277.0808      4732.4613      4288.6629     -137165.67    
    951800   2394.6775      12843.07       4326.4546     -137165.2     
    951900   2561.3149      331.88156      4419.3531     -137166.32    
    952000   2497.092      -9086.7083      4507.3812     -137162.63    
    952100   2431.899      -10783.559      4538.7008     -137158.33    
    952200   2730.7203     -1565.3346      4475.2282     -137159.21    
    952300   2897.5704     -3209.0751      4405.1529     -137165.44    
    952400   2472.374       7029.1993      4364.2538     -137164.35    
    952500   2390.5372     -2184.6152      4359.2145     -137163.29    
    952600   2502.3152      4048.7409      4352.1742     -137162.87    
    952700   2664.2577      1448.0565      4367.0005     -137161.76    
    952800   2610.2411      4416.6209      4405.6943     -137160.52    
    952900   2425.3253     -14796.933      4456.1773     -137166.1     
    953000   2499.4189     -3195.1879      4442.8932     -137169.42    
    953100   2462.3308     -11114.679      4401.2096     -137165.1     
    953200   2583.0351      7476.0338      4315.929      -137162.68    
    953300   2510.5045      8948.1831      4278.536      -137166.12    
    953400   2153.1469      8603.7034      4287.0078     -137164.75    
    953500   2505.7566      6338.2308      4323.176      -137168.38    
    953600   2588.7371      5023.5592      4380.4859     -137166.03    
    953700   2603.8216     -8903.7282      4463.2259     -137163.12    
    953800   2608.6357     -9890.4853      4523.098      -137158.82    
    953900   2847.0777     -12745.124      4527.0704     -137156.78    
    954000   2629.011       3417.9328      4473.0456     -137156.3     
    954100   2482.2869     -4873.6777      4428.7278     -137160.39    
    954200   2534.4244     -2286.257       4357.5482     -137166.47    
    954300   2542.1665     -4842.8903      4284.4139     -137170.02    
    954400   2561.6781     -2498.9433      4234.6447     -137169.05    
    954500   2478.4863      11306.502      4252.302      -137165.78    
    954600   2472.7939     -3071.2217      4343.5787     -137167.62    
    954700   2376.985      -1952.0932      4432.878      -137162.5     
    954800   2677.3791     -8956.7867      4476.0923     -137162.8     
    954900   2684.5626     -10303.628      4481.009      -137163.88    
    955000   2483.8957      2051.473       4458.388      -137164.7     
    955100   2603.022      -1147.4842      4442.0419     -137169.21    
    955200   2447.4972     -6815.3276      4434.4642     -137164.24    
    955300   2700.3504     -10792.703      4395.2505     -137168.87    
    955400   2775.402       3591.1468      4347.6742     -137170.01    
    955500   2248.1873     -6477.9839      4346.603      -137164.6     
    955600   2325.2106      6267.8884      4330.6127     -137168.09    
    955700   2612.4008     -5061.8629      4333.0497     -137169.27    
    955800   2574.1554      14823.713      4326.409      -137164.78    
    955900   2578.3976      553.94664      4367.8774     -137166.93    
    956000   2522.9366      3385.6072      4405.512      -137168.04    
    956100   2463.982      -3592.1212      4463.6578     -137165.12    
    956200   2251.4101     -7603.1157      4497.385      -137156.89    
    956300   2670.1469     -1770.2389      4460.4715     -137161.79    
    956400   2780.8351      13721.743      4417.4983     -137161.58    
    956500   2671.6968     -16931.097      4438.393      -137172.53    
    956600   2418.4732     -9196.0584      4402.3762     -137169       
    956700   2543.4176     -1288.9097      4324.033      -137169.81    
    956800   2570.9297      5325.4917      4249.7579     -137168.28    
    956900   2397.5719      17374.095      4230.2171     -137166.16    
    957000   2374.9964     -2500.5168      4283.7318     -137172.52    
    957100   2392.8202     -100.79051      4349.3735     -137169.49    
    957200   2431.7538     -7351.9347      4410.6247     -137163.24    
    957300   2559.6655      3386.2313      4431.3996     -137164.96    
    957400   2523.4807     -2567.7898      4438.5032     -137163.21    
    957500   2455.9713      4408.8162      4405.7778     -137161.99    
    957600   2379.652      -7177.4183      4370.6387     -137164.59    
    957700   2366.7967      5610.1344      4304.4644     -137167.98    
    957800   2411.6021      5966.8624      4248.9222     -137168.03    
    957900   2721.0364      7285.8145      4227.418      -137168.99    
    958000   2722.1335      9598.4618      4275.2034     -137167.5     
    958100   2280.5511     -6805.2126      4382.0319     -137164.44    
    958200   2369.352       383.67466      4448.9945     -137167.44    
    958300   2457.2317     -1788.8264      4501.4726     -137167.63    
    958400   2467.02       -14252.992      4523.9975     -137163.58    
    958500   2542.8645     -3087.788       4474.7442     -137161.71    
    958600   2481.7122     -1138.1504      4391.4092     -137162.38    
    958700   2516.2117      21798.172      4302.6456     -137166.93    
    958800   2452.6758      356.86554      4319.4445     -137167.01    
    958900   2380.7591     -5947.2585      4364.3563     -137163.34    
    959000   2479.8324      4945.694       4363.0746     -137162.46    
    959100   2442.5901      207.10554      4363.0984     -137159.86    
    959200   2415.3028      1525.4288      4375.4082     -137160.36    
    959300   2522.344      -7646.609       4399.5827     -137163.88    
    959400   2405.3746     -3279.9329      4388.5154     -137160.65    
    959500   2599.2926      7038.32        4344.2364     -137164.99    
    959600   2369.7707      3521.1276      4328.3833     -137163.73    
    959700   2385.8531      1360.7089      4309.888      -137170.23    
    959800   2536.6398     -6526.964       4320.0694     -137172.82    
    959900   2578.43        1991.8999      4368.5708     -137162.57    
    960000   2694.3845     -10096.739      4445.8397     -137164.78    
    960100   2560.9065     -5928.6075      4494.7745     -137164.18    
    960200   2316.8723     -9356.9482      4468.2646     -137160.65    
    960300   2373.1453      6134.2759      4357.8323     -137160.81    
    960400   2772.154       22213.078      4273.1529     -137164.32    
    960500   2697.2263     -4982.0967      4311.8733     -137170.4     
    960600   2288.9113     -2626.1891      4361.089      -137164.81    
    960700   2504.5404     -6763.6382      4379.0317     -137166.74    
    960800   2604.3434      5486.6269      4375.2861     -137164.34    
    960900   2461.8524     -677.1637       4392.7735     -137161.76    
    961000   2509.1692     -1648.0311      4403.3465     -137164.89    
    961100   2520.7865     -2026.5282      4417.3151     -137164.71    
    961200   2511.9644      4944.3025      4420.5655     -137163.04    
    961300   2436.7657     -2139.2613      4426.1156     -137162.59    
    961400   2259.5828      2574.122       4414.8022     -137161.07    
    961500   2567.9632     -305.62972      4418.1713     -137167.39    
    961600   2403.3404      5948.3885      4438.8708     -137157.93    
    961700   2799.218      -3445.6577      4438.9275     -137163.76    
    961800   2360.1692      446.19458      4419.7803     -137158.15    
    961900   2642.1822     -7039.8086      4389.2282     -137173.16    
    962000   2392.8938      2789.6258      4337.3856     -137169.36    
    962100   2544.472       8102.1948      4311.0918     -137169.8     
    962200   2500.8772      2345.1656      4338.6019     -137165.43    
    962300   2455.2128     -4872.5431      4380.7791     -137165.9     
    962400   2402.5271      5344.6657      4376.6576     -137163.37    
    962500   2459.2763      10296.012      4374.8705     -137162.1     
    962600   2314.4451      7514.1298      4407.2002     -137158.7     
    962700   2481.4173     -10373.964      4437.1652     -137163.48    
    962800   2487.0359      4332.9145      4419.545      -137162.1     
    962900   2701.3651     -7748.2928      4418.3371     -137161.67    
    963000   2791.3294     -7519.588       4420.5228     -137162.88    
    963100   2420.8494      7189.241       4419.9665     -137162.72    
    963200   2321.0935     -1753.3482      4441.1022     -137162.37    
    963300   2435.4033      9934.1319      4434.6729     -137162.33    
    963400   2627.2794     -1175.1647      4435.314      -137163.7     
    963500   2747.042       4696.5848      4424.3568     -137162.7     
    963600   2749.5384     -10594.463      4421.3363     -137163.87    
    963700   2551.6009     -5654.4206      4395.6042     -137167.7     
    963800   2479.3652      1589.0225      4365.0477     -137167.64    
    963900   2445.0588      2679.109       4358.6964     -137165.82    
    964000   2588.3962     -4160.13        4373.7378     -137168.16    
    964100   2594.1969     -2033.8004      4381.6187     -137165.95    
    964200   2492.1113      3887.5408      4382.0354     -137166.81    
    964300   2162.6814      6930.157       4401.6395     -137162.33    
    964400   2396.4964     -9070.0338      4432.0953     -137162.24    
    964500   2633.8289      622.53951      4422.3242     -137162.98    
    964600   2506.8277     -2631.8522      4439.4307     -137161.55    
    964700   2349.792      -9244.1018      4445.9605     -137162.93    
    964800   2334.1133      1498.1948      4383.7839     -137163.7     
    964900   2747.3488      8260.1967      4341.8677     -137164.32    
    965000   2797.4881     -10324.014      4375.363      -137166.01    
    965100   2595.7505     -9255.384       4427.2974     -137164.3     
    965200   2431.5132     -994.82085      4461.7853     -137161.35    
    965300   2636.9723     -125.36099      4471.7343     -137168.82    
    965400   2285.5357      1353.898       4478.5587     -137165.17    
    965500   2355.9581     -11601.719      4488.5084     -137168.13    
    965600   2525.1476     -8078.7042      4445.0435     -137163.03    
    965700   2604.4634      14088.91       4369.5175     -137161.84    
    965800   2580.5898     -5207.2507      4328.8989     -137165.84    
    965900   2375.7902     -188.63299      4276.2846     -137166.47    
    966000   2555.959      -511.5795       4224.4897     -137173.08    
    966100   2368.8456      14290.218      4202.7204     -137168.32    
    966200   2321.1651      11485.008      4248.5252     -137169.55    
    966300   2220.3706      2639.3031      4337.1069     -137167.78    
    966400   2543.2165     -5182.5793      4423.0624     -137168.39    
    966500   2601.1126     -4534.4612      4491.2351     -137163.66    
    966600   2621.9892     -488.67952      4522.7871     -137162.66    
    966700   2392.5177     -11530.762      4522.7849     -137160.32    
    966800   2296.0892     -2629.5784      4468.312      -137159.67    
    966900   2570.2632     -2407.7921      4399.2164     -137162.68    
    967000   2885.1862      147.66071      4363.7223     -137165.07    
    967100   2681.7318     -10301.962      4360.6828     -137166.14    
    967200   2503.8278     -5936.206       4341.9348     -137167.39    
    967300   2455.825       5474.2292      4321.2429     -137168.11    
    967400   2527.6526     -10111.183      4345.1712     -137167.68    
    967500   2631.6392     -2803.2299      4357.5507     -137163.1     
    967600   2659.2101     -252.42209      4394.8921     -137160.4     
    967700   2519.1996     -8356.046       4464.3642     -137164.47    
    967800   2359.7296     -8201.9762      4500.8187     -137165.93    
    967900   2346.4247     -9005.4         4460.952      -137161.04    
    968000   2535.2993      6764.6336      4353.3765     -137161.22    
    968100   2711.4712      8994.4257      4289.8137     -137167.27    
    968200   2450.9982      110.39077      4310.7496     -137167.88    
    968300   2506.9179     -3488.7004      4334.5424     -137170.03    
    968400   2455.4448     -6349.0399      4330.0355     -137166.31    
    968500   2699.3508     -2561.7165      4303.3337     -137170.42    
    968600   2600.834       6378.0874      4288.5402     -137168.29    
    968700   2308.5388      5550.2798      4324.6214     -137167.46    
    968800   2244.1059      2325.4588      4376.48       -137166.25    
    968900   2573.8448     -6342.2464      4410.2948     -137166.27    
    969000   2603.1935      321.63958      4405.1206     -137163.2     
    969100   2482.3277      11420.314      4403.6149     -137161.89    
    969200   2544.0421     -7617.5126      4456.5211     -137167.25    
    969300   2383.8917     -9135.8126      4499.3661     -137164.97    
    969400   2448.5439     -9810.2526      4483.9997     -137164.11    
    969500   2799.402      -3433.4995      4397.4479     -137168.54    
    969600   2601.8935      11408.16       4280.5963     -137170.26    
    969700   2364.7301      5358.9483      4235.1237     -137168.51    
    969800   2421.518       4250.8185      4238.8109     -137166.55    
    969900   2613.3068      101.70098      4268.7302     -137167.06    
    970000   2507.2517     -5200.3148      4325.7343     -137165.08    
    970100   2504.0887      22.959448      4380.9513     -137167.31    
    970200   2439.2551     -13945.406      4427.6813     -137166.6     
    970300   2574.5732      4648.2518      4382.4034     -137168.45    
    970400   2564.1919      3253.8182      4328.4829     -137164.62    
    970500   2547.9975      9833.9629      4290.9983     -137165.07    
    970600   2357.9938      3439.334       4269.4907     -137171.01    
    970700   2490.9878      4672.5447      4263.9626     -137174.6     
    970800   2522.7693      7866.7707      4307.9716     -137170.09    
    970900   2601.3        -12394.331      4408.8013     -137167.16    
    971000   2500.3404     -5690.339       4464.9003     -137164.15    
    971100   2531.6746      2506.5606      4471.3813     -137163.77    
    971200   2589.8023     -2125.1296      4455.3824     -137165.48    
    971300   2358.6031      3133.146       4421.0771     -137159.71    
    971400   2587.1225      6072.3972      4395.79       -137164.76    
    971500   2443.893       606.99763      4408.3637     -137166.02    
    971600   2218.8053      2425.0111      4405.733      -137168.22    
    971700   2403.8283     -2677.2505      4378.8318     -137168.79    
    971800   2300.4341      6751.2935      4341.394      -137160.62    
    971900   2597.3878      1762.4594      4317.3903     -137165.48    
    972000   2544.0708      4528.4926      4282.1327     -137167.32    
    972100   2398.069       335.26132      4258.6344     -137170.33    
    972200   2392.124       5427.6196      4261.9485     -137171.93    
    972300   2684.8647      4557.6908      4308.793      -137169.19    
    972400   2546.845      -2931.0094      4384.8785     -137163       
    972500   2438.0484     -7512.1212      4435.6788     -137163.22    
    972600   2293.2483     -207.43538      4436.431      -137161.24    
    972700   2582.898      -1955.2674      4395.3955     -137165.62    
    972800   2882.4307      9933.4285      4363.9686     -137167.29    
    972900   2489.9953      7027.4686      4404.8312     -137163.97    
    973000   2226.3781     -14018.562      4447.7346     -137160.24    
    973100   2589.1097     -2294.485       4392.6408     -137165.98    
    973200   2500.045       14112.699      4318.2935     -137162.96    
    973300   2396.4433     -2018.3565      4315.7252     -137167.03    
    973400   2157.0195      1799.2712      4303.9303     -137164.38    
    973500   2729.3665      6485.7         4280.9633     -137168.33    
    973600   2659.3194      2878.687       4308.6832     -137165.98    
    973700   2403.9953      856.20428      4354.7381     -137165.56    
    973800   2420.1089     -6275.2123      4395.1889     -137169.26    
    973900   2400.8821     -8981.1229      4404.6069     -137166.2     
    974000   2719.2672     -7046.7275      4374.9791     -137165.89    
    974100   2517.0886      1799.7519      4336.6392     -137161.67    
    974200   2569.7847      2025.9914      4307.0447     -137168.89    
    974300   2643.7185     -3211.9044      4284.6024     -137174.9     
    974400   2586.9683     -7362.3166      4281.4757     -137172.95    
    974500   2566.6932     -4553.2029      4281.8082     -137170.55    
    974600   2701.0677      10166.638      4298.069      -137168.3     
    974700   2770.0993      1377.667       4362.5107     -137164.02    
    974800   2722.9333     -4544.5253      4445.9386     -137162.57    
    974900   2347.5307     -5700.9441      4506.3677     -137159.77    
    975000   2388.7529      963.89942      4513.025      -137164.13    
    975100   2482.318      -10926.202      4474.9539     -137162.76    
    975200   2704.1399      7435.0492      4377.5336     -137158.89    
    975300   2931.9446      7627.44        4319.8329     -137163.78    
    975400   2479.8317      9588.2461      4321.537      -137159.33    
    975500   2508.4624      418.33606      4364.5004     -137164.13    
    975600   2380.1307     -413.0404       4406.3119     -137165.53    
    975700   2372.1332     -5964.4183      4454.7001     -137164.31    
    975800   2562.3891     -8187.2069      4482.2234     -137160.59    
    975900   2611.9487     -2823.7287      4477.4809     -137161.92    
    976000   2508.9804     -9732.9632      4463.6238     -137164.29    
    976100   2553.4373      2615.3193      4409.8547     -137166.36    
    976200   2531.5036     -4096.8217      4346.9139     -137165.64    
    976300   2531.722       980.39799      4259.9931     -137166.58    
    976400   2438.9203      4064.6178      4190.3659     -137167.36    
    976500   2457.0774     -1042.926       4181.1373     -137170.19    
    976600   2584.9713      11641.322      4230.8412     -137171.41    
    976700   2572.2748     -2687.7217      4345.0993     -137167.27    
    976800   2716.2395     -13053.248      4469.9415     -137163.84    
    976900   2595.2474     -3768.4699      4552.7941     -137157.82    
    977000   2399.1107     -16090.209      4588.1063     -137159.67    
    977100   2214.9466     -4356.1451      4518.6953     -137160.44    
    977200   2600.0199      151.24818      4408.9747     -137166.56    
    977300   2746.1393      8543.1941      4333.1853     -137166.93    
    977400   2713.7523      9672.487       4331.0333     -137167.27    
    977500   2367.7407     -3225.6485      4385.6529     -137161.3     
    977600   2438.8938     -5734.5766      4427.1496     -137165.58    
    977700   2409.289      -10715.016      4426.2465     -137164.94    
    977800   2844.7416     -5289.6414      4380.0143     -137169.38    
    977900   2678.5841      3054.2112      4343.1909     -137165.24    
    978000   2402.6957     -8008.9496      4339.5351     -137166.11    
    978100   2405.362       7515.2582      4307.559      -137166.94    
    978200   2465.4895      2893.6129      4297.3782     -137166.33    
    978300   2344.2578      9279.8838      4312.4693     -137161.37    
    978400   2527.1523     -8426.3039      4366.068      -137165.43    
    978500   2530.9959      30.934567      4408.8726     -137165.34    
    978600   2488.3082     -6552.2962      4452.267      -137161.93    
    978700   2514.1525      721.29069      4454.4224     -137159.28    
    978800   2664.3535      2584.1529      4473.7952     -137162.06    
    978900   2550.8148     -17104.276      4503.0595     -137162.82    
    979000   2344.2691     -2821.236       4429.0494     -137164.95    
    979100   2429.6701     -3424.6734      4304.0943     -137167.8     
    979200   2718.7943      13005.016      4206.3244     -137168.89    
    979300   2923.3935      19841.162      4214.5381     -137167.39    
    979400   2457.4904     -1149.448       4347.9459     -137162.03    
    979500   2407.4485     -11080.122      4467.2253     -137166.16    
    979600   2445.1672     -10768.309      4499.9989     -137163.99    
    979700   2818.9258     -10529.973      4465.1938     -137169.8     
    979800   2533.0596      1795.7644      4415.7407     -137163.85    
    979900   2399.7178     -2425.9212      4393.5834     -137170.38    
    980000   2409.8195      6799.8312      4381.8537     -137170.85    
    980100   2565.5179     -1648.2774      4407.4747     -137169.55    
    980200   2511.6633     -941.82398      4442.9861     -137163.39    
    980300   2530.658      -6384.3606      4455.6817     -137162.73    
    980400   2441.6763     -972.0408       4422.9447     -137160.65    
    980500   2609.6833      4066.8863      4370.8129     -137166.28    
    980600   2424.4965      6915.3013      4363.5004     -137164.55    
    980700   2148.9361     -10836.059      4397.7149     -137159.44    
    980800   2709.124       5430.8173      4368.2895     -137167.67    
    980900   2510.7873      9104.4475      4372.1511     -137158.97    
    981000   2444.8748     -1928.2033      4398.5484     -137162.4     
    981100   2376.7946     -2445.373       4405.7078     -137165.27    
    981200   2424.9946     -3859.7949      4383.7961     -137166.93    
    981300   2811.383       6755.8138      4337.3728     -137169.01    
    981400   2578.3951      4087.9753      4339.7032     -137163.04    
    981500   2376.7407      1568.554       4359.7671     -137165.25    
    981600   2297.5931     -2699.9638      4367.8577     -137163.99    
    981700   2664.0279      581.21916      4355.9388     -137168.59    
    981800   2682.9081      7640.2518      4379.2588     -137166.08    
    981900   2269.3769     -9430.905       4435.6129     -137163.98    
    982000   2367.4755     -1821.2289      4429.3067     -137167.13    
    982100   2461.2664      7279.6219      4396.4052     -137162.93    
    982200   2535.5213     -1015.05        4383.5331     -137161.06    
    982300   2625.8255     -3341.3951      4357.2223     -137164.25    
    982400   2639.4377      4706.0987      4328.3865     -137168.68    
    982500   2606.354      -13774.99       4340.9338     -137171.52    
    982600   2526.0322     -6418.5768      4326.5231     -137168.29    
    982700   2507.3863      14196.06       4300.4579     -137167.05    
    982800   2507.342       1061.87        4343.944      -137168.06    
    982900   2608.6063     -7154.4157      4432.3613     -137169.77    
    983000   2496.0984     -11947.3        4498.0036     -137164.25    
    983100   2571.8257     -1959.8162      4489.2869     -137161.03    
    983200   2622.1256      3779.5127      4426.2669     -137159.84    
    983300   2470.1402      6875.0008      4351.1841     -137163.67    
    983400   2231.5347      5197.9523      4306.6745     -137162.71    
    983500   2347.6041      14447.966      4291.6931     -137163.07    
    983600   2674.4965     -2593.7398      4337.3885     -137168.36    
    983700   2506.2976      5141.7432      4395.7634     -137162.42    
    983800   2388.643       804.4761       4459.0879     -137162.45    
    983900   2460.6839     -12652.488      4511.5794     -137165.77    
    984000   2487.2601     -3056.3169      4499.4282     -137160.99    
    984100   2513.0742     -5235.3773      4447.3643     -137158.24    
    984200   2376.5901      10623.677      4350.1636     -137161.03    
    984300   2324.0439      8266.2825      4254.4207     -137166.34    
    984400   2659.9         2515.0055      4180.06       -137174.52    
    984500   2651.9599      3843.6212      4177.1371     -137174.72    
    984600   2416.4128     -2404.6166      4257.6613     -137170.64    
    984700   2379.5644     -2742.2819      4347.1204     -137168.55    
    984800   2484.0064     -7832.3136      4399.4139     -137162.22    
    984900   2638.5817     -1101.1064      4407.8783     -137161.91    
    985000   2465.0408      14109.824      4421.0371     -137160.94    
    985100   2333.6344     -4190.4662      4460.7939     -137164.62    
    985200   2361.9929     -3973.7361      4463.2474     -137165.23    
    985300   2356.5137      4776.8973      4425.0592     -137162.08    
    985400   2556.587       4898.9207      4402.3705     -137164.24    
    985500   2582.8144     -4875.6352      4440.1097     -137163.69    
    985600   2511.8726     -6360.9414      4473.0575     -137162.75    
    985700   2492.925      -11123.135      4468.1863     -137164.67    
    985800   2353.2101     -2428.6239      4425.8846     -137164.49    
    985900   2453.7667     -4984.1736      4367.3719     -137167.39    
    986000   2528.4526      9699.9078      4316.0745     -137162.99    
    986100   2713.9387      5984.6709      4337.3216     -137166.04    
    986200   2479.3567      7687.2746      4414.9121     -137168.13    
    986300   2234.2032     -17696.595      4503.0936     -137163.03    
    986400   2522.4753     -9215.8161      4494.3768     -137165.05    
    986500   2603.4275      2659.2215      4423.8817     -137161.88    
    986600   2780.3348      9807.4353      4378.7486     -137166.26    
    986700   2486.1726     -8992.3898      4390.0138     -137167.56    
    986800   2471.5164     -1749.509       4368.5094     -137169.13    
    986900   2488.4508     -7317.5038      4336.5857     -137169.14    
    987000   2482.5869      5352.1704      4279.7428     -137168.84    
    987100   2579.8863      17600.609      4255.4673     -137167.83    
    987200   2485.1034      17951.772      4315.2024     -137162.86    
    987300   2426.3673     -15736.448      4447.217      -137163.11    
    987400   2549.4674     -19821.937      4490.9261     -137166.8     
    987500   2673.6277      5548.7217      4441.4242     -137164.68    
    987600   2732.9599      1857.3198      4401.8499     -137164.67    
    987700   2373.3735     -6788.7822      4384.2965     -137164.69    
    987800   2411.807       221.19293      4324.6145     -137168.67    
    987900   2565.7394     -578.9642       4260.1367     -137170.32    
    988000   2696.2947      10662.701      4209.6652     -137172.33    
    988100   2312.0493      8175.048       4195.1968     -137172.03    
    988200   2281.9483      2665.1128      4229.8529     -137172.37    
    988300   2369.1585      8776.9517      4298.6915     -137168.14    
    988400   2605.4573     -6252.4629      4409.2864     -137170.2     
    988500   2561.5823     -8917.9975      4502.1658     -137166.64    
    988600   2503.2535     -10747.106      4545.4516     -137161.11    
    988700   2782.3293     -476.5886       4531.5029     -137160.92    
    988800   2721.7158     -5673.0624      4520.0757     -137158.64    
    988900   2312.2253     -5524.8208      4480.9314     -137159.5     
    989000   2561.8464     -778.35802      4416.5531     -137166.68    
    989100   2570.8611      25.675615      4365.6956     -137165.95    
    989200   2533.9497      4716.7756      4335.5551     -137164.25    
    989300   2514.9705     -4821.4499      4328.0385     -137167.89    
    989400   2201.3555      6806.4304      4306.6038     -137164.15    
    989500   2462.8774      760.36305      4294.3195     -137167.39    
    989600   2641.9585      10747.545      4292.7737     -137164.41    
    989700   2591.8503      3230.6191      4354.5776     -137165.29    
    989800   2543.1426     -1871.361       4425.9009     -137168.08    
    989900   2289.6501     -8913.4643      4471.5762     -137160.75    
    990000   2474.2193     -17825.862      4454.6203     -137160.23    
    990100   2635.8923      14901.13       4378.4209     -137162.12    
    990200   2596.4642      1043.4654      4388.5434     -137166.98    
    990300   2415.1855      2241.7822      4401.4707     -137164.33    
    990400   2329.2815     -7150.1376      4367.8568     -137162.64    
    990500   2577.2965      5113.319       4317.4381     -137165.37    
    990600   2619.6628      10736.36       4322.7716     -137162.68    
    990700   2451.3802     -4095.4194      4373.9185     -137164.1     
    990800   2279.4226     -2129.168       4390.5984     -137165.21    
    990900   2294.0935      8797.1027      4362.2009     -137163.61    
    991000   2665.3608     -986.83273      4349.8738     -137165.74    
    991100   2832.3726     -289.98742      4347.0925     -137169.5     
    991200   2451.4161     -2461.2717      4358.8868     -137166.34    
    991300   2452.4339     -767.87284      4379.5497     -137166.01    
    991400   2632.0395     -3894.5274      4410.8812     -137168.41    
    991500   2433.2302     -13387.281      4431.3305     -137161.82    
    991600   2564.7895      8138.1001      4402.9712     -137161.18    
    991700   2579.3318     -190.48265      4399.8645     -137159.93    
    991800   2562.9869     -540.44824      4394.337      -137167.95    
    991900   2428.833      -13994.075      4354.9085     -137169.87    
    992000   2666.3344      8259.028       4265.3231     -137173.32    
    992100   2534.1346     -5933.4436      4238.4962     -137168.72    
    992200   2447.4007      16194.631      4240.5213     -137171.82    
    992300   2153.0282     -1594.7619      4308.5194     -137172.03    
    992400   2170.7355     -7401.8449      4365.3814     -137165.74    
    992500   2420.5407     -10445.232      4383.8523     -137164.99    
    992600   2631.5906     -997.7855       4388.84       -137165.19    
    992700   2654.0288     -5799.8089      4407.917      -137165.41    
    992800   2389.5122     -5709.0648      4400.0974     -137165.19    
    992900   2358.3717      6493.1126      4350.7202     -137168.37    
    993000   2482.494       3711.5343      4342.5304     -137167.77    
    993100   2475.6361      5549.5868      4373.894      -137162.56    
    993200   2533.0861     -222.57272      4406.1203     -137165.4     
    993300   2412.2162     -7209.7607      4421.5831     -137162.57    
    993400   2706.1813     -5403.1293      4403.9851     -137167.6     
    993500   2701.9352     -33.833257      4384.666      -137170.63    
    993600   2312.4489     -10760.048      4366.8989     -137167.76    
    993700   2569.1851     -2389.5523      4293.2054     -137173.28    
    993800   2606.4077      14020.713      4233.3353     -137171.6     
    993900   2647.8818      3658.4879      4253.681      -137168.63    
    994000   2783.8358      4492.6891      4316.6028     -137164.58    
    994100   2605.5909     -7829.3721      4418.0128     -137163.66    
    994200   2299.8705      1057.2024      4478.8443     -137161.9     
    994300   2251.2933     -1188.4245      4504.7696     -137157.9     
    994400   2539.4541     -6350.5572      4494.7649     -137162.33    
    994500   2670.612       9586.9217      4454.112      -137165.28    
    994600   2511.1363     -10710.486      4436.1001     -137165.62    
    994700   2350.1452     -3826.5382      4372.2692     -137169.34    
    994800   2426.9003      6811.7218      4290.9481     -137171.23    
    994900   2554.4173      3464.4894      4244.5071     -137173.01    
    995000   2513.9825      13645.026      4245.5869     -137170.28    
    995100   2404.9877     -4730.7198      4301.2602     -137164.58    
    995200   2607.0751      1985.8381      4334.025      -137164.91    
    995300   2626.5271      4941.5248      4378.5959     -137162.35    
    995400   2488.5686     -9689.5422      4444.1928     -137158.61    
    995500   2442.3748     -6046.752       4439.8792     -137163.21    
    995600   2429.4493     -10711.436      4394.0923     -137167.21    
    995700   2502.5463      3432.0463      4327.9979     -137169.61    
    995800   2495.3647      1016.3924      4316.8233     -137166.5     
    995900   2612.4138     -61.250293      4345.9353     -137164.21    
    996000   2646.3342     -1532.4472      4389.4923     -137163.47    
    996100   2635.96       -9423.8111      4425.0406     -137167.94    
    996200   2431.2454     -15058.299      4425.2687     -137169.53    
    996300   2468.469       218.51846      4385.307      -137169.58    
    996400   2637.7359     -2654.8336      4368.7949     -137168.79    
    996500   2767.493       210.07714      4361.9838     -137163.03    
    996600   2842.4706     -2279.5097      4358.3771     -137161.9     
    996700   2496.6371      7402.3794      4386.9242     -137162.46    
    996800   2481.0746     -5137.0167      4438.0683     -137165.34    
    996900   2379.1974      1009.194       4447.1932     -137161.92    
    997000   2654.4675     -1193.878       4442.1868     -137164.14    
    997100   2776.3678     -6507.8079      4423.8214     -137163.16    
    997200   2543.7247     -3496.2146      4390.8604     -137164.73    
    997300   2257.6865      951.11519      4368.701      -137162.73    
    997400   2371.2683      1008.5917      4357.3494     -137162.9     
    997500   2567.1303     -5219.2786      4330.1518     -137163       
    997600   2679.3371      19242.966      4299.0389     -137165.01    
    997700   2237.8788     -1489.1607      4335.5089     -137164.79    
    997800   2357.0188     -3101.3941      4364.5353     -137167.07    
    997900   2434.1504      6206.7478      4375.7512     -137163.03    
    998000   2696.6037     -6412.3143      4394.7258     -137165.91    
    998100   2634.5692     -7471.7655      4401.6591     -137166.39    
    998200   2399.6369      3725.8759      4416.1595     -137164.39    
    998300   2161.8558     -9031.9928      4439.7943     -137167.35    
    998400   2242.2269     -8914.2138      4399.6521     -137168.95    
    998500   2616.1616      3875.2297      4297.7241     -137171.41    
    998600   2513.6634      18114.206      4247.3944     -137169.1     
    998700   2257.8237     -2316.6565      4309.3725     -137166.79    
    998800   2338.5663     -8936.2766      4369.7965     -137165.54    
    998900   2451.01        7866.9958      4383.2181     -137160.02    
    999000   2530.8356     -401.83804      4412.7957     -137161.19    
    999100   2491.7733     -5939.8807      4443.4267     -137160.58    
    999200   2464.9737     -3260.5897      4429.8505     -137159.54    
    999300   2518.566       7629.402       4377.9174     -137166.39    
    999400   2326.286       6745.6314      4363.0012     -137167.29    
    999500   2403.8684      3032.1405      4361.2716     -137167.52    
    999600   2561.7403     -3220.2909      4343.2824     -137163.25    
    999700   2593.7119      8166.8571      4315.827      -137163.54    
    999800   2453.7079      9362.418       4351.2742     -137164.28    
    999900   2256.5262      1459.4891      4425.8199     -137161.65    
   1000000   2473.3714     -5441.2796      4475.6818     -137165.6     
Loop time of 3255.38 on 8 procs for 1000000 steps with 216 atoms

Performance: 26.541 ns/day, 0.904 hours/ns, 307.183 timesteps/s, 66.352 katom-step/s
99.4% CPU use with 8 MPI tasks x 1 OpenMP threads

MPI task timing breakdown:
Section |  min time  |  avg time  |  max time  |%varavg| %total
---------------------------------------------------------------
Pair    | 2693.9     | 2702.7     | 2715.1     |  12.5 | 83.02
Neigh   | 5.6        | 5.6244     | 5.6705     |   0.8 |  0.17
Comm    | 469.04     | 480.87     | 491.7      |  29.4 | 14.77
Output  | 6.4197     | 10.907     | 41.88      | 354.5 |  0.34
Modify  | 19.836     | 51.333     | 57.109     | 167.2 |  1.58
Other   |            | 3.967      |            |       |  0.12

Nlocal:             27 ave          32 max          23 min
Histogram: 1 1 0 2 0 2 1 0 0 1
Nghost:         615.75 ave         642 max         592 min
Histogram: 2 0 0 0 2 2 0 0 1 1
Neighs:              0 ave           0 max           0 min
Histogram: 8 0 0 0 0 0 0 0 0 0
FullNghs:         2463 ave        2948 max        2083 min
Histogram: 2 0 1 1 0 2 0 1 0 1

Total # of neighbors = 19704
Ave neighs/atom = 91.222222
Neighbor list builds = 30200
Dangerous builds = 0
System init for write_data ...
Total wall time: 0:54:24
