LAMMPS (12 Jun 2025)
OMP_NUM_THREADS environment is not set. Defaulting to 1 thread. (src/comm.cpp:99)
  using 1 OpenMP thread(s) per MPI task
Lattice spacing in x,y,z = 5.431 5.431 5.431
Created orthogonal box = (0 0 0) to (16.293 16.293 16.293)
  1 by 1 by 1 MPI processor grid
Created 216 atoms
  using lattice units in orthogonal box = (0 0 0) to (16.293 16.293 16.293)
  create_atoms CPU = 0.000 seconds
The scaling is : 6.00e-02.
There are 2 species.
Neighbor list info ...
  update: every = 1 steps, delay = 0 steps, check = yes
  max neighbors/atom: 2000, page size: 100000
  master list distance cutoff = 7.7
  ghost atom cutoff = 7.7
  binsize = 3.85, bins = 5 5 5
  1 neighbor lists, perpetual/occasional/extra = 1 0 0
  (1) pair mtp, perpetual
      attributes: full, newton on
      pair build: full/bin/atomonly
      stencil: full/bin/3d
      bin: standard
Setting up Verlet run ...
  Unit style    : metal
  Current step  : 0
  Time step     : 0.001
Per MPI rank memory allocation (min/avg/max) = 3.111 | 3.111 | 3.111 Mbytes
   Step          Temp          Press          Volume         PotEng    
         0   300            21514.723      4325.1699     -137320.4     
       100   182.19979     -15226.346      4506.644      -137316.39    
       200   162.46447      9816.0008      4383.2486     -137314.36    
       300   237.15274     -1566.6108      4436.6885     -137314.46    
       400   264.28866     -4550.1746      4451.7038     -137313.05    
       500   227.86898      6077.462       4403.4067     -137310.1     
       600   291.76439     -7110.325       4474.7774     -137310.7     
       700   337.89071      7051.9011      4397.9265     -137312.26    
       800   324.87384     -6318.5988      4464.1678     -137313.04    
       900   296.48602      3129.978       4416.7092     -137313.2     
      1000   298.3747      -309.1158       4435.2914     -137313.24    
      1100   305.40775     -2925.0637      4444.5778     -137312.77    
      1200   315.03221      3573.2162      4421.2904     -137312.05    
      1300   300.02614     -1849.0404      4443.7777     -137311.7     
      1400   296.18275      956.77742      4428.4459     -137312.18    
      1500   283.8035       100.79735      4433.8711     -137312.47    
      1600   273.42297     -344.15067      4435.5296     -137312.32    
      1700   309.2243       150.46528      4428.9211     -137312.91    
      1800   306.16923     -2168.5373      4444.5109     -137312.1     
      1900   292.09335      1450.5631      4426.9364     -137311.46    
      2000   326.08526     -1889.7115      4442.148      -137313.08    
      2100   279.92412      1253.5892      4428.0572     -137312.84    
      2200   310.46973      1502.3875      4429.4943     -137313.42    
      2300   290.14441     -492.98798      4435.5057     -137312.37    
      2400   299.07918      265.90903      4435.005      -137312.11    
      2500   245.37151      883.39558      4428.3067     -137310.64    
      2600   276.77331     -2737.9718      4444.7378     -137311.67    
      2700   289.66134      1589.5452      4424.447      -137312.24    
      2800   310.50095     -1478.7349      4441.1737     -137312.94    
      2900   312.93785      1500.4885      4424.3323     -137313.48    
      3000   264.32327     -1928.4326      4439.4144     -137312.16    
      3100   276.85376     -1169.0919      4435.9835     -137311.74    
      3200   272.92828      206.09521      4428.354      -137311.07    
      3300   280.39706     -4136.134       4453.602      -137311.34    
      3400   274.20181      4300.8179      4413.0702     -137311.99    
      3500   274.35188     -3542.0284      4449.3419     -137312.82    
      3600   293.15548      2130.402       4423.904      -137312.97    
      3700   281.71983      915.18946      4430.7275     -137311.95    
      3800   328.84896     -1835.6399      4444.2687     -137312.86    
      3900   323.4341       3169.2956      4417.5502     -137312.74    
      4000   299.95887     -4493.959       4455.5722     -137312.42    
      4100   278.36956      4592.7273      4410.5679     -137312.99    
      4200   263.59051     -4099.9046      4449.6461     -137313.13    
      4300   255.71215      857.26019      4427.4588     -137312.32    
      4400   254.3529       1740.2082      4425.5577     -137311.64    
      4500   291.27885     -4427.6261      4455.4689     -137311.97    
      4600   319.11105      4190.7636      4409.5542     -137312.37    
      4700   300.92541     -5418.7596      4461.0515     -137312.1     
      4800   281.23229      4574.2039      4412.101      -137312.75    
      4900   308.57941     -1807.5017      4442.0175     -137313.75    
      5000   335.93376      910.66203      4430.6705     -137313.85    
      5100   333.33794      3087.6864      4421.2252     -137313.18    
      5200   283.53721     -3769.9767      4453.7716     -137311.77    
      5300   314.43907      3964.2254      4411.2308     -137312.61    
      5400   238.90435     -5058.6696      4456.1358     -137310.97    
      5500   251.19545      1860.8401      4422.2827     -137312.26    
      5600   299.8589      -240.57542      4431.5716     -137313.86    
      5700   294.7583      -1642.2061      4443.267      -137312.62    
      5800   319.97584      3536.967       4416.0812     -137312.84    
      5900   338.18688     -3226.7205      4451.7284     -137313.18    
      6000   315.66453      4018.4235      4415.0466     -137312.59    
      6100   301.54297     -2203.8187      4445.9841     -137312.66    
      6200   317.28785      1683.3197      4425.2043     -137313.83    
      6300   285.52123      1090.733       4429.8098     -137313.11    
      6400   288.36425     -1099.466       4439.4382     -137312.1     
      6500   341.75364      2687.1266      4421.8353     -137312.87    
      6600   291.95002     -2106.7467      4443.4042     -137311.92    
      6700   310.97332      623.55754      4429.3959     -137312.85    
      6800   290.5577       377.75715      4431.0464     -137312.85    
      6900   305.51122     -1036.2117      4437.6256     -137313.62    
      7000   289.37633      2123.4683      4421.7808     -137312.87    
      7100   313.95351     -1672.0377      4444.1153     -137312.48    
      7200   304.98605      2977.3318      4420.0588     -137311.9     
      7300   319.25484     -1553.5789      4441.1505     -137312.59    
      7400   313.37203      637.13259      4428.6682     -137313.44    
      7500   286.67681      402.27498      4430.4003     -137313.03    
      7600   259.87607     -1839.4951      4438.3083     -137311.99    
      7700   299.04468      1426.6502      4426.7399     -137312.53    
      7800   301.87965     -1088.8653      4436.8022     -137312.45    
      7900   306.99856     -492.04396      4435.2236     -137312.33    
      8000   293.83815      969.69867      4428.9137     -137311.94    
      8100   289.92055     -2044.6688      4441.863      -137312.17    
      8200   280.73653      1500.9835      4421.742      -137312.49    
      8300   270.70216     -2095.6859      4443.9451     -137312.26    
      8400   294.36134      1706.7625      4423.1528     -137312.17    
      8500   333.14977     -649.82006      4436.7429     -137312.37    
      8600   308.05227      421.24192      4434.8826     -137311.88    
      8700   306.42093      2427.0559      4424.7789     -137312.25    
      8800   290.88041     -2548.501       4443.5437     -137312.21    
      8900   317.10754      1952.7053      4423.2901     -137312.91    
      9000   269.9081      -1337.9759      4438.6471     -137311.71    
      9100   299.11862     -530.17699      4434.1937     -137312.03    
      9200   306.72207      823.5878       4426.8873     -137311.4     
      9300   293.07604     -4336.3707      4452.7572     -137311.1     
      9400   254.86506      4068.9912      4408.8726     -137311.09    
      9500   277.51501     -6423.8509      4463.2204     -137312.08    
      9600   299.30323      3955.3292      4409.2214     -137312.62    
      9700   295.39252     -2792.1906      4448.0611     -137312.02    
      9800   322.24573      104.37421      4433.5759     -137311.7     
      9900   330.56831      2798.6344      4421.0675     -137311.49    
     10000   273.8792      -5251.4902      4458.5525     -137311.35    
Loop time of 2625.31 on 1 procs for 10000 steps with 216 atoms

Performance: 0.329 ns/day, 72.925 hours/ns, 3.809 timesteps/s, 822.761 atom-step/s
99.4% CPU use with 1 MPI tasks x 1 OpenMP threads

MPI task timing breakdown:
Section |  min time  |  avg time  |  max time  |%varavg| %total
---------------------------------------------------------------
Pair    | 2624.6     | 2624.6     | 2624.6     |   0.0 | 99.97
Neigh   | 0          | 0          | 0          |   0.0 |  0.00
Comm    | 0.26984    | 0.26984    | 0.26984    |   0.0 |  0.01
Output  | 0.036787   | 0.036787   | 0.036787   |   0.0 |  0.00
Modify  | 0.35266    | 0.35266    | 0.35266    |   0.0 |  0.01
Other   |            | 0.03549    |            |       |  0.00

Nlocal:            216 ave         216 max         216 min
Histogram: 1 0 0 0 0 0 0 0 0 0
Nghost:           1314 ave        1314 max        1314 min
Histogram: 1 0 0 0 0 0 0 0 0 0
Neighs:              0 ave           0 max           0 min
Histogram: 1 0 0 0 0 0 0 0 0 0
FullNghs:        21168 ave       21168 max       21168 min
Histogram: 1 0 0 0 0 0 0 0 0 0

Total # of neighbors = 21168
Ave neighs/atom = 98
Neighbor list builds = 0
Dangerous builds = 0
System init for write_data ...
Total wall time: 0:43:45
