LAMMPS (12 Jun 2025)
OMP_NUM_THREADS environment is not set. Defaulting to 1 thread. (src/comm.cpp:99)
  using 1 OpenMP thread(s) per MPI task
Reading data file ...
  orthogonal box = (-0.08237604 -0.08237604 -0.08237604) to (16.375376 16.375376 16.375376)
  2 by 2 by 2 MPI processor grid
  reading atoms ...
  216 atoms
  reading velocities ...
  216 velocities
  read_data CPU = 0.045 seconds
The scaling is : 2.85e-02.
There are 2 species.
Neighbor list info ...
  update: every = 1 steps, delay = 0 steps, check = yes
  max neighbors/atom: 2000, page size: 100000
  master list distance cutoff = 7.7
  ghost atom cutoff = 7.7
  binsize = 3.85, bins = 5 5 5
  1 neighbor lists, perpetual/occasional/extra = 1 0 0
  (1) pair mtp, perpetual
      attributes: full, newton on
      pair build: full/bin/atomonly
      stencil: full/bin/3d
      bin: standard
Setting up Verlet run ...
  Unit style    : metal
  Current step  : 0
  Time step     : 0.001
Per MPI rank memory allocation (min/avg/max) = 3.075 | 3.075 | 3.076 Mbytes
   Step          Temp          Press          Volume         PotEng    
         0   2583.5079     -9755.3125      4457.7073     -137158.27    
       100   2531.7671      6112.1928      4430.3253     -137161.43    
       200   2461.2801     -6626.2304      4413.3821     -137166.68    
       300   2305.7259      3569.3753      4369.3994     -137163.61    
       400   2565.5685      1436.2309      4316.1463     -137169.29    
       500   2567.744       8151.0608      4284.4768     -137166.72    
       600   2674.7654      7991.9762      4313.8492     -137166.63    
       700   2703.1988      3281.4404      4404.2487     -137161.8     
       800   2328.9457     -8718.3041      4492.8045     -137153.35    
       900   2436.9939     -12973.242      4516.3764     -137157.8     
      1000   2713.9342     -3243.5514      4475.4144     -137158.37    
      1100   2631.3036      3333.7223      4434.3316     -137155.93    
      1200   2375.58       -1656.9791      4413.8591     -137158.81    
      1300   2701.3703     -4488.3852      4364.0396     -137168.91    
      1400   2432.3744      10556.99       4292.907      -137163.74    
      1500   2405.5032      1185.5643      4260.5187     -137167.56    
      1600   2249.4878      3131.4934      4255.4257     -137166.72    
      1700   2384.6087      10300.77       4268.2818     -137163.33    
      1800   2556.1733      2485.7098      4300.1989     -137161.25    
      1900   2650.1753     -423.67377      4345.6866     -137165.83    
      2000   2386.5369     -4037.1796      4417.6282     -137164.28    
      2100   2329.6522     -4181.2303      4463.1093     -137164.22    
      2200   2488.6862     -2832.4313      4440.7671     -137158.37    
      2300   2699.6582      8709.1461      4384.3428     -137161.26    
      2400   2450.1798      4361.4945      4376.6513     -137161.26    
      2500   2395.057       2930.2118      4381.0284     -137162.94    
      2600   2516.7835      1401.1771      4391.5572     -137165.65    
      2700   2562.094      -4417.0331      4431.9905     -137160.67    
      2800   2677.1664      5459.6278      4476.8381     -137156.45    
      2900   2622.255      -11700.021      4530.7524     -137159.5     
      3000   2597.9215     -7451.3314      4507.8785     -137164.53    
      3100   2537.2527      997.43687      4419.507      -137164.32    
      3200   2525.1024      8861.1223      4346.7023     -137163.97    
      3300   2516.7569     -4135.2937      4306.9445     -137165.07    
      3400   2402.1298      8086.4696      4271.1793     -137166.25    
      3500   2293.3882     -327.30016      4285.0233     -137168.81    
      3600   2310.2711      3747.4674      4319.072      -137165.35    
      3700   2466.6141      2019.8069      4364.578      -137161.25    
      3800   2553.9669     -6700.109       4416.0055     -137162.18    
      3900   2381.9059     -1424.6237      4426.6215     -137158.46    
      4000   2624.0541     -3428.4411      4392.2706     -137164.43    
      4100   2699.2207      4087.5404      4351.2761     -137165.21    
      4200   2618.9515      1030.9831      4373.7797     -137165.22    
      4300   2523.7232     -11218.244      4440.462      -137166.66    
      4400   2343.293       7033.0437      4460.5357     -137161.86    
      4500   2644.6997     -6277.4004      4496.0662     -137162.6     
      4600   2470.6513     -772.99797      4523.2839     -137152.76    
      4700   2533.9643     -7056.0599      4537.8741     -137151.72    
      4800   2694.4815     -4374.0676      4510.8212     -137155.86    
      4900   2438.0975      2657.3663      4423.8559     -137159.01    
      5000   2411.4467      20056.902      4326.8885     -137164.19    
      5100   2545.761      -4605.8786      4322.0392     -137169.5     
      5200   2596.6039      213.98847      4329.6703     -137167.34    
      5300   2620.1963      8557.914       4358.103      -137161.24    
      5400   2563.6579     -10752.863      4433.9361     -137158.71    
      5500   2387.644      -8774.4474      4456.771      -137161.34    
      5600   2407.6839      1610.3835      4403.4228     -137165.97    
      5700   2481.0492      2339.4213      4356.3777     -137165.75    
      5800   2619.0124      2760.8962      4334.0187     -137164.29    
      5900   2738.5626      7070.5105      4334.9399     -137161.95    
      6000   2422.4692     -1564.0112      4391.6048     -137157.85    
      6100   2441.0396     -6181.6713      4406.2006     -137164.77    
      6200   2474.0178     -3331.6351      4369.8015     -137166.72    
      6300   2664.2054     -404.51679      4319.2505     -137168.13    
      6400   2882.5455      11699.75       4281.2541     -137165.44    
      6500   2560.9072      3827.0601      4343.9448     -137164.64    
      6600   2304.4058     -13566.891      4464.7012     -137159.85    
      6700   2527.7186     -6178.2116      4521.7688     -137160.25    
      6800   2509.4613     -165.30902      4528.6456     -137156.56    
      6900   2633.2972     -4098.4529      4521.2815     -137161.85    
      7000   2375.3704     -2608.3743      4508.5717     -137165.05    
      7100   2465.6783     -7213.2131      4461.0181     -137168.54    
      7200   2335.1119      12826.572      4378.1043     -137160.82    
      7300   2457.4133      12022.218      4337.7216     -137159.95    
      7400   2538.5217      6504.27        4339.4174     -137160.66    
      7500   2352.0521     -3199.9043      4397.7018     -137161.66    
      7600   2214.6507     -13897.989      4472.0453     -137161.25    
      7700   2466.1791     -4156.9734      4481.2133     -137159.14    
      7800   2601.0792     -1842.3176      4434.8882     -137160.27    
      7900   2802.78       -7144.3117      4391.0468     -137167.96    
      8000   2467.8632      1122.4566      4354.9395     -137164.37    
      8100   2344.2983      7911.1755      4330.5289     -137165.09    
      8200   2336.1537     -1734.9188      4349.2787     -137168       
      8300   2420.8188      2458.9394      4363.1142     -137165.58    
      8400   2674.833       4511.1397      4400.6808     -137164.72    
      8500   2523.8511     -10000.977      4504.4784     -137159.69    
      8600   2382.5474      603.42126      4594.2119     -137156.49    
      8700   2368.6945     -19847.497      4645.1749     -137155.35    
      8800   2520.5359      327.02638      4559.0653     -137154.42    
      8900   2817.094       1851.5733      4455.5967     -137161.29    
      9000   2550.505      -260.17523      4378.2912     -137163.01    
      9100   2439.5817      3056.6881      4318.3349     -137162.09    
      9200   2389.6317      16167.92       4315.4361     -137160.29    
      9300   2674.3893     -8256.6172      4395.7388     -137166.57    
      9400   2259.0112     -8378.0278      4447.4168     -137158.88    
      9500   2346.4386     -3515.4477      4424.4303     -137162.51    
      9600   2620.6474      4314.666       4348.2667     -137165.65    
      9700   2470.531       9735.4935      4282.1518     -137163.09    
      9800   2406.1147      4611.7698      4272.2888     -137166.77    
      9900   2235.4904     -577.53757      4289.3209     -137165.28    
     10000   2543.5996      5813.0504      4310.707      -137164.75    
     10100   2518.33        16582.006      4371.2264     -137160.6     
     10200   2479.2132     -2173.03        4486.5553     -137160.79    
     10300   2499.2522     -13478.04       4549.4081     -137160.83    
     10400   2645.7444     -6148.5624      4517.4028     -137159.49    
     10500   2761.979       13687.118      4450.3944     -137158.76    
     10600   2475.3037      1615.0271      4445.6193     -137159.06    
     10700   2386.4756      2320.574       4459.413      -137161.41    
     10800   2461.7501     -5449.3132      4471.0716     -137163.19    
     10900   2547.2469     -7433.4623      4459.1445     -137163.66    
     11000   2631.6376     -61.85927       4421.1473     -137159.38    
     11100   2671.901       9800.2227      4382.7224     -137158.76    
     11200   2460.6599     -3498.8086      4362.3547     -137163.3     
     11300   2321.5149      1206.6483      4312.8245     -137160.99    
     11400   2526.354       18995.001      4279.0605     -137162.93    
     11500   2371.0118      10604.595      4329.5405     -137159.09    
     11600   2285.6953      2412.9231      4416.2738     -137160.66    
     11700   2286.9212     -10353.636      4465.3227     -137161.47    
     11800   2563.5328      1848.5223      4436.2392     -137161.97    
     11900   2666.5954      4991.2389      4413.6528     -137163.42    
     12000   2543.678      -3086.3971      4423.9884     -137167.55    
     12100   2230.0094     -13141.222      4419.2915     -137159.98    
     12200   2477.439       10096.385      4357.2454     -137161.45    
     12300   2647.4304      6761.9574      4357.2536     -137162.76    
     12400   2312.93       -275.28776      4404.8743     -137156.15    
     12500   2402.3451     -7253.7215      4444.5125     -137160.66    
     12600   2432.4988     -6291.8921      4441.9167     -137165.43    
     12700   2371.8931     -839.40451      4405.7853     -137164.67    
     12800   2526.9221      8900.1676      4366.9051     -137163.72    
     12900   2493.8473      7353.5888      4375.274      -137157.96    
     13000   2526.2667     -6110.5277      4431.0559     -137161.83    
     13100   2195.4786      5640.3314      4465.2653     -137161.18    
     13200   2320.871      -1891.6392      4494.3203     -137162.27    
     13300   2530.8235     -6703.614       4494.7428     -137162.54    
     13400   2439.2451      1991.541       4476.1101     -137158.44    
     13500   2521.4794     -7181.3893      4462.589      -137158.48    
     13600   2766.6832     -529.45958      4416.0768     -137164.57    
     13700   2365.3359      3102.3282      4357.8466     -137164.38    
     13800   2598.8835      2309.5312      4315.2805     -137173.34    
     13900   2524.9144      15760.812      4335.9941     -137169.47    
     14000   2381.945      -2430.5286      4428.4701     -137159.37    
     14100   2661.0093      1135.552       4468.9604     -137158.61    
     14200   2632.8341     -2951.6824      4482.0936     -137159.36    
     14300   2504.3578     -1655.9783      4495.9439     -137157.67    
     14400   2390.2225     -127.10356      4478.9147     -137159.01    
     14500   2326.4536      558.57128      4444.4267     -137159.32    
     14600   2675.8228     -4705.5586      4377.5836     -137163.49    
     14700   2829.0563      7127.2861      4314.7992     -137162       
     14800   2430.606       5949.6961      4323.3079     -137159.27    
     14900   2656.7224     -9170.97        4357.3477     -137168.47    
     15000   2491.6718     -1548.5121      4366.8179     -137166.88    
     15100   2334.6103     -2279.1199      4372.6235     -137164.46    
     15200   2511.8103     -1025.4879      4359.5503     -137161.39    
     15300   2812.5899      5410.3668      4325.113      -137163.63    
     15400   2472.6252      15789.552      4336.0327     -137161.71    
     15500   2530.5991     -6854.8314      4416.1601     -137165.55    
     15600   2545.7885     -8441.0768      4448.2344     -137162.57    
     15700   2681.9923      185.80138      4433.2481     -137161.27    
     15800   2949.6168     -8860.1873      4427.9765     -137164       
     15900   2511.2735      6608.9088      4421.7408     -137163.52    
     16000   2242.0924     -816.18611      4448.4329     -137159.39    
     16100   2567.7038     -578.91632      4438.5494     -137163.25    
     16200   2687.152      -2848.4955      4402.7289     -137162.86    
     16300   2572.1841     -12972.963      4361.7498     -137165.61    
     16400   2497.4397      6604.3411      4291.035      -137170.59    
     16500   2312.4253      8737.3633      4260.6632     -137165.05    
     16600   2605.7177      9438.617       4276.4745     -137170.43    
     16700   2407.1917      4723.6061      4355.1669     -137163.34    
     16800   2507.6242     -4650.3058      4466.2136     -137155.56    
     16900   2667.4061     -13872.255      4537.0291     -137154.03    
     17000   2615.8808     -3445.0172      4529.4251     -137158.47    
     17100   2397.2887     -5972.7866      4498.7        -137158.45    
     17200   2395.1291      1045.734       4435.7203     -137159.06    
     17300   2655.1494      13499.4        4372.2015     -137163.85    
     17400   2502.1961     -9350.4726      4365.7606     -137162.95    
     17500   2392.0722      3458.8127      4322.3887     -137166.79    
     17600   2575.891       11351.35       4266.3606     -137173.5     
     17700   2423.7423      1822.9716      4260.383      -137167.49    
     17800   2686.7636     -852.29218      4292.4137     -137165.96    
     17900   2629.6575     -815.40356      4350.2131     -137163.67    
     18000   2461.3918     -6805.5384      4422.3004     -137163.28    
     18100   2412.0403     -17189.532      4464.5092     -137166.67    
     18200   2345.8362     -8196.0271      4412.9585     -137168.94    
     18300   2459.5457     -2947.5427      4301.6468     -137165.84    
     18400   2577.5116      11159.716      4201.3393     -137164.58    
     18500   2434.3343      15525.025      4179.3035     -137164.59    
     18600   2295.1725      2953.6295      4254.8759     -137165.2     
     18700   2541.4153     -1440.0954      4345.7923     -137167.55    
     18800   2754.2146     -7733.9413      4429.5737     -137163.49    
     18900   2525.2426     -4060.0077      4456.7295     -137160.17    
     19000   2380.1951     -672.64309      4448.5331     -137159.74    
     19100   2462.4411      3818.4353      4438.4732     -137158.73    
     19200   2651.1146      942.95337      4451.54       -137153.35    
     19300   2726.7948     -5774.0741      4456.214      -137158.44    
     19400   2627.0063      4772.3627      4438.1997     -137161.89    
     19500   2402.8423     -1517.144       4451.4072     -137162.24    
     19600   2341.6491     -7122.1418      4458.46       -137161.32    
     19700   2589.6295      9269.5156      4428.9973     -137162.29    
     19800   2618.8892     -3199.1227      4417.0326     -137161.56    
     19900   2535.8738      3244.712       4373.1049     -137165.9     
     20000   2242.6026     -180.14688      4317.8958     -137167.8     
     20100   2445.9         11038.104      4268.3125     -137166.92    
     20200   2719.1823      13337.262      4274.1568     -137169.4     
     20300   2489.875      -1052.5797      4371.9928     -137164.44    
     20400   2476.6172     -10815.282      4451.3071     -137162.24    
     20500   2647.3534     -4785.4653      4472.6025     -137159.14    
     20600   2711.349      -9569.7639      4463.7181     -137159.5     
     20700   2402.343      -2448.4664      4407.5768     -137160.21    
     20800   2361.9404      9700.9749      4345.0662     -137164.15    
     20900   2490.5118      4731.3302      4336.3351     -137166.69    
     21000   2452.039      -388.3511       4351.4501     -137163.42    
     21100   2585.0166      220.22342      4368.2908     -137160.2     
     21200   2760.2627      6705.9372      4392.0005     -137160.12    
     21300   2587.4973     -10372.022      4467.2149     -137162.99    
     21400   2217.2721     -7491.7943      4502.6381     -137158.29    
     21500   2608.0536      2268.1166      4477.0583     -137165.64    
     21600   2543.6881      3895.3025      4452.9422     -137160.13    
     21700   2762.4619      4928.6314      4442.3014     -137160.51    
     21800   2657.6349      1532.7273      4448.4735     -137159.96    
     21900   2374.2713      38.355454      4466.7109     -137161       
     22000   2315.8778     -6632.6011      4478.9924     -137157.4     
     22100   2642.5047     -3617.1218      4443.2201     -137160.46    
     22200   2690.6478      666.79995      4388.1427     -137162.16    
     22300   2372.0976     -3092.836       4324.7775     -137164.77    
     22400   2376.9162      4848.5276      4248.8547     -137165.96    
     22500   2444.7557      20882.287      4200.0128     -137164.87    
     22600   2498.3416      8242.4215      4267.7598     -137165.58    
     22700   2437.8354     -4874.4777      4410.9875     -137160.18    
     22800   2712.1627     -9319.8255      4532.5992     -137159.56    
     22900   2567.6771     -19644.234      4592.2918     -137155.47    
     23000   2349.0765     -7022.4691      4536.5102     -137156.37    
     23100   2273.8061     -694.6464       4425.2156     -137161.14    
     23200   2412.9436     -2218.0706      4312.11       -137165.99    
     23300   2695.1488      14732.199      4234.7184     -137166.52    
     23400   2627.7191      13497.391      4261.1251     -137165.28    
     23500   2251.6302      7624.6041      4361.51       -137162.31    
     23600   2456.9733     -12438.171      4451.621      -137168.77    
     23700   2324.5039     -6634.432       4459.8956     -137160.48    
     23800   2697.619       908.94142      4419.8513     -137159.6     
     23900   2616.7818     -1274.7493      4407.9789     -137159.76    
     24000   2500.0105     -5263.0476      4417.9093     -137161.9     
     24100   2399.4789     -748.39744      4401.9583     -137163.27    
     24200   2397.614       1218.3938      4384.023      -137164.23    
     24300   2713.1395      2288.9864      4377.8769     -137163.61    
     24400   2505.3222      12026.613      4391.1765     -137154.94    
     24500   2485.9798      5442.3949      4452.4019     -137158.19    
     24600   2327.6473     -9517.9375      4514          -137160.43    
     24700   2322.7607     -9544.7173      4494.88       -137158.27    
     24800   2738.0116      2097.2364      4435.8281     -137160.02    
     24900   2582.6269     -2834.9165      4416.3275     -137158.39    
     25000   2330.9176      15982.047      4406.6224     -137156.43    
     25100   2227.9356     -3742.9661      4432.9352     -137157.88    
     25200   2497.7594     -118.85101      4415.5656     -137164.17    
     25300   2789.8726      1656.2895      4401.4874     -137163.56    
     25400   2738.0253     -2449.8485      4408.6121     -137160.87    
     25500   2583.313      -4357.2207      4405.2947     -137164.49    
     25600   2494.2128      5295.7912      4386.2041     -137163.34    
     25700   2525.1936     -1162.3937      4390.3951     -137164.86    
     25800   2376.9776     -3517.3447      4404.8735     -137163.74    
     25900   2249.6324      973.38447      4381.8967     -137161.83    
     26000   2585.3441      5304.7055      4340.2862     -137164.61    
     26100   2650.2111      5512.791       4350.7559     -137160.89    
     26200   2499.9932      4642.5491      4388.9758     -137162.3     
     26300   2261.143      -11652.759      4452.404      -137160.7     
     26400   2241.539      -1146.0217      4436.2759     -137156.98    
     26500   2459.6084      13159.308      4393.3147     -137159.34    
     26600   2412.7509     -388.16497      4405.4183     -137158.69    
     26700   2502.7909     -3957.5976      4405.4257     -137163.83    
     26800   2371.2182     -7441.7962      4381.9536     -137164.93    
     26900   2331.4204      985.60324      4330.9992     -137166.44    
     27000   2668.5583      717.53289      4279.4505     -137169.71    
     27100   2609.5339      15386.587      4257.5809     -137165.09    
     27200   2542.8649     -6473.0146      4325.1556     -137168.05    
     27300   2263.9308     -12521.678      4368.4796     -137168.35    
     27400   2421.0026      764.63089      4328.5027     -137169.71    
     27500   2373.5323      7203.5147      4282.0569     -137164.05    
     27600   2579.4542      18515.075      4284.5937     -137168.15    
     27700   2448.9406     -8805.6215      4379.4269     -137165.8     
     27800   2488.9637     -12138.532      4461.7899     -137163.88    
     27900   2730.5502     -3986.7785      4483.7496     -137160.04    
     28000   2555.565      -159.18174      4493.1629     -137156.79    
     28100   2386.1681     -8910.7714      4484.8221     -137155.99    
     28200   2621.1499      2420.4782      4418.603      -137162.53    
     28300   2640.1131      8385.9194      4346.2265     -137160.08    
     28400   2514.5605      13477.609      4308.8016     -137162.07    
     28500   2421.6952     -9977.3044      4336.5004     -137165.82    
     28600   2462.2393      5471.5581      4341.2772     -137164.9     
     28700   2570.4416      3986.0806      4332.0651     -137164.88    
     28800   2278.2433      11197.324      4352.2477     -137158.81    
     28900   2283.0307      1350.2966      4405.6397     -137164.58    
     29000   2363.2729     -19433.397      4440.6742     -137166       
     29100   2602.8349     -3021.6078      4385.3834     -137163.49    
     29200   2698.4258      9035.888       4312.2817     -137165.24    
     29300   2409.2853      10461.152      4303.5931     -137161.75    
     29400   2448.8747      825.80752      4317.4671     -137165.3     
     29500   2406.872       3074.3036      4325.7569     -137164.22    
     29600   2653.1221     -928.4675       4340.2244     -137163.67    
     29700   2666.2994      12545.44       4361.9891     -137161.1     
     29800   2519.1965     -10120.47       4448.5062     -137164.37    
     29900   2453.0486     -16647.516      4493.8661     -137165.14    
     30000   2469.5877      1194.8547      4459.8945     -137161.11    
     30100   2512.7019     -1023.4793      4417.7486     -137157.91    
     30200   2771.7587      4031.4727      4365.2114     -137163.15    
     30300   2587.5755      4371.1402      4361.5798     -137166.02    
     30400   2285.8131     -9842.2288      4393.2054     -137163.9     
     30500   2361.3278      9277.0221      4384.6869     -137162.88    
     30600   2596.2101     -4085.6853      4384.9149     -137162.67    
     30700   2677.8001      5326.0654      4370.9919     -137163.82    
     30800   2307.9604     -4565.2495      4364.9298     -137160.83    
     30900   2353.8541      4694.5574      4323.7574     -137166.68    
     31000   2597.0939     -4822.4797      4307.329      -137167.01    
     31100   2841.1299      3925.8466      4315.2814     -137165.08    
     31200   2557.9589      4554.0953      4361.9396     -137165.61    
     31300   2244.9556     -10274.709      4435.7727     -137161.93    
     31400   2434.6456     -5968.2027      4434.3698     -137164.39    
     31500   2709.0926      1860.4948      4390.7736     -137165.24    
     31600   2597.0318      221.28985      4367.0948     -137164.36    
     31700   2350.5051      2042.2274      4365.0138     -137165.6     
     31800   2270.0683     -2593.384       4385.8242     -137171.12    
     31900   2077.1338     -15125.062      4398.4879     -137171.09    
     32000   2324.6439      6280.425       4359.2175     -137167.9     
     32100   2459.1901      8523.8106      4355.5288     -137165.01    
     32200   2643.3803     -862.10194      4412.4218     -137164.29    
     32300   2578.4491     -11334.522      4482.7759     -137160.43    
     32400   2601.487      -4287.392       4501.0424     -137158.37    
     32500   2612.9141     -5123.8191      4487.2995     -137157.38    
     32600   2565.9403      4251.9903      4438.7162     -137161.77    
     32700   2461.8606      1396.6814      4412.7702     -137166.78    
     32800   2327.13       -11303.367      4400.4199     -137165.1     
     32900   2474.9399      6529.3916      4308.4075     -137164.01    
     33000   2616.6434      10292.17       4217.2619     -137164.24    
     33100   2523.0968      20383.245      4210.7115     -137163.14    
     33200   2425.9847      6769.8718      4316.284      -137164.01    
     33300   2405.3144     -6664.536       4464.3658     -137164.41    
     33400   2624.1887     -10350.58       4559.896      -137161.62    
     33500   2674.5451      12.9187        4581.1734     -137157.68    
     33600   2470.8074     -4798.9217      4593.7162     -137154.1     
     33700   2459.3854     -12667.065      4554.0075     -137156.38    
     33800   2574.7287     -5971.7146      4434.6529     -137165.71    
     33900   2371.9398      3053.4293      4309.3045     -137168.32    
     34000   2273.8422      8139.534       4232.5924     -137164.59    
     34100   2672.4303      18623.809      4195.929      -137169.24    
     34200   2557.8543      11403.608      4251.9696     -137163.3     
     34300   2639.201      -1486.6306      4384.7129     -137160.87    
     34400   2723.3895     -1939.3852      4537.0467     -137156.23    
     34500   2449.6438     -3738.0147      4649.9948     -137152.58    
     34600   2455.0209     -15224.292      4673.4987     -137158.8     
     34700   2427.2033     -14607.119      4592.4321     -137160.6     
     34800   2640.9485      1771.3684      4441.6054     -137162.16    
     34900   2850.2803      24233.743      4336.764      -137158.01    
     35000   2623.5325     -4231.3409      4344.3605     -137163.96    
     35100   2482.2181     -13114.849      4347.2622     -137162.75    
     35200   2653.5193      9212.8928      4308.6814     -137166.67    
     35300   2519.6885     -3359.7114      4324.1656     -137165.83    
     35400   2332.8833     -2651.0515      4334.5041     -137164.21    
     35500   2339.6108      3770.8585      4324.2731     -137163.41    
     35600   2676.6279      8479.8108      4323.3245     -137164.56    
     35700   2572.6327      7096.3779      4355.6388     -137161.21    
     35800   2316.8798     -1925.5297      4403.5091     -137161.32    
     35900   2207.3837     -4605.4748      4407.5316     -137164.33    
     36000   2269.2406      745.91612      4364.9304     -137161.82    
     36100   2500.6964     -573.50102      4328.1909     -137164.01    
     36200   2577.3801      11343.705      4326.3986     -137165.62    
     36300   2301.8836     -7777.2499      4382.7136     -137161.87    
     36400   2481.2699     -8635.6305      4384.9315     -137165.42    
     36500   2733.1868      4545.3514      4358.343      -137162.85    
     36600   2517.2782      8498.6616      4373.3765     -137157.2     
     36700   2481.6035      5910.7956      4429.5416     -137162.94    
     36800   2390.6308     -18481.608      4513.0521     -137162.97    
     36900   2426.4573     -2473.1577      4508.1664     -137161.01    
     37000   2396.6414      2615.2359      4462.8724     -137156.66    
     37100   2685.7742     -7266.4737      4419.2102     -137161.71    
     37200   2771.2832      7595.4852      4358.0576     -137163.84    
     37300   2373.6755     -1404.0096      4340.1177     -137161.81    
     37400   2497.2882     -6819.3786      4328.6437     -137169.61    
     37500   2177.1441      11932.409      4303.4868     -137161.91    
     37600   2518.7734      1602.6917      4323.4206     -137166.82    
     37700   2561.4585     -3074.2247      4380.2761     -137161.22    
     37800   2664.783       4160.9698      4444.5165     -137161.9     
     37900   2322.2895     -12256.641      4508.4997     -137160.6     
     38000   2324.4571     -14189.473      4476.7499     -137164.78    
     38100   2650.8855      5765.8048      4364.5988     -137168.84    
     38200   2467.8595      12852.301      4299.893      -137160.98    
     38300   2291.8892      890.1668       4294.3665     -137164.5     
     38400   2178.852       1128.091       4298.5716     -137166.89    
     38500   2355.1722      4059.47        4321.4006     -137166.66    
     38600   2444.5343      8921.5303      4389.6974     -137162.69    
     38700   2513.1183     -6649.4307      4498.764      -137160.48    
     38800   2494.9287     -5786.4795      4547.7936     -137155.92    
     38900   2708.387      -441.83732      4515.9114     -137157.76    
     39000   2467.2256     -1993.6087      4462.3636     -137154.34    
     39100   2435.0775      14163.746      4394.698      -137162.85    
     39200   2425.2116     -3052.266       4373.5526     -137166.36    
     39300   2402.5567      5072.1208      4331.7646     -137166.27    
     39400   2478.64        11320.049      4304.7255     -137161.27    
     39500   2723.8939      9418.1582      4323.0941     -137162.46    
     39600   2450.4154     -3395.4318      4389.3794     -137160.24    
     39700   2487.0687     -6073.0269      4427.6428     -137164.47    
     39800   2528.3867     -9373.1596      4423.4199     -137165.79    
     39900   2521.3399     -2818.0114      4395.6495     -137162.63    
     40000   2712.017       10295.635      4362.0563     -137161.29    
     40100   2741.6893      6276.2962      4353.1759     -137158.58    
     40200   2548.5724      5979.3925      4384.4081     -137163.74    
     40300   2463.6207     -17711.612      4439.6082     -137165.53    
     40400   2295.4501     -5255.2081      4423.8326     -137158       
     40500   2690.3369      6360.2664      4379.6878     -137162.07    
     40600   2531.8818      2890.4425      4374.8701     -137160.14    
     40700   2549.1358      4347.9961      4380.8061     -137164.95    
     40800   2232.0275      1457.0574      4390.5481     -137157.37    
     40900   2578.8652     -3430.4941      4382.4986     -137165.01    
     41000   2621.2256     -469.8738       4379.1134     -137166.72    
     41100   2453.8545     -6140.1634      4403.3721     -137163.27    
     41200   2550.9492     -6616.0962      4409.087      -137162.32    
     41300   2576.4046      7430.2428      4383.3061     -137157.95    
     41400   2737.1813      4896.6448      4388.7037     -137161.64    
     41500   2351.7283     -17163.451      4429.0518     -137163.6     
     41600   2449.2565      3154.1104      4402.411      -137165.27    
     41700   2541.2621     -2461.1203      4381.2417     -137160.8     
     41800   2786.3787     -3502.9219      4374.0951     -137163.02    
     41900   2527.832      -10015.709      4371.2163     -137161.91    
     42000   2410.9939      2626.2336      4339.1844     -137164.07    
     42100   2469.6043      587.66974      4341.133      -137164.57    
     42200   2518.9518      6438.9701      4350.7405     -137164.28    
     42300   2626.0417      2411.1918      4366.7694     -137164.14    
     42400   2682.9066     -3776.2485      4413.4796     -137161.68    
     42500   2665.7532     -9586.9999      4470.3702     -137164.7     
     42600   2558.8443     -3098.7165      4485.6807     -137168.37    
     42700   2415.2593     -6870.6913      4480.8193     -137164       
     42800   2580.3649      4226.1457      4445.6563     -137161.35    
     42900   2760.9859      4715.2867      4447.7933     -137158.15    
     43000   2456.2947      1092.2885      4475.3973     -137154.4     
     43100   2512.5181     -4164.1402      4480.9485     -137158.61    
     43200   2495.5017     -669.63184      4460.8271     -137160.71    
     43300   2638.6414     -2149.6989      4447.2251     -137168.05    
     43400   2246.5369     -1518.0451      4421.1464     -137166       
     43500   2284.4391     -754.78049      4371.7042     -137165.03    
     43600   2431.4575      7948.8888      4323.3218     -137162.71    
     43700   2412.5697      6381.6476      4332.6254     -137160.66    
     43800   2466.859      -740.06043      4375.0169     -137160.98    
     43900   2491.2543     -13128.344      4394.1303     -137161.98    
     44000   2438.267       1188.858       4361.5296     -137163.44    
     44100   2404.1355      5285.1056      4338.1026     -137165.55    
     44200   2340.1871     -1438.4933      4359.9356     -137165.46    
     44300   2489.0823     -2342.5305      4380.4694     -137162.51    
     44400   2607.8102     -4109.8801      4373.9742     -137160.63    
     44500   2488.5092     -11408.669      4359.0468     -137161.76    
     44600   2394.6574      3780.2688      4314.0611     -137164.16    
     44700   2579.2617      2786.2234      4300.0602     -137167.99    
     44800   2680.6675     -3813.5957      4303.7489     -137167.67    
     44900   2592.3068      3245.4928      4300.2191     -137166.74    
     45000   2441.0527     -176.42284      4322.07       -137167.42    
     45100   2370.6318     -4293.0191      4350.4163     -137165.42    
     45200   2511.8692      12940.856      4346.1828     -137162.93    
     45300   2777.1122     -5413.3327      4381.0568     -137164.87    
     45400   2600.6531      4033.3763      4430.8704     -137164.16    
     45500   2331.4076     -7294.1746      4471.1524     -137166.83    
     45600   2294.9249     -4463.9108      4432.9607     -137162.78    
     45700   2623.1235      8948.9744      4381.3146     -137165.27    
     45800   2617.7678     -279.81738      4403.5306     -137163.49    
     45900   2593.2809     -3354.5184      4446.6605     -137160.94    
     46000   2952.2738     -353.755        4468.3627     -137162.51    
     46100   2561.143      -4495.801       4483.8774     -137158.61    
     46200   2363.9685     -1822.4349      4487.1239     -137158.63    
     46300   2622.5991     -2027.7534      4490.9173     -137162.96    
     46400   2519.7854     -6271.498       4484.134      -137158.38    
     46500   2496.1791      78.00802       4442.7533     -137160.39    
     46600   2421.9872      5273.1705      4410.196      -137167.43    
     46700   2261.2945     -3652.194       4402.5441     -137165.62    
     46800   2498.4886     -1481.1541      4366.9142     -137165.35    
     46900   2617.6554      5426.1285      4309.3781     -137165.54    
     47000   2486.6316      11204.024      4286.0947     -137165.58    
     47100   2397.4283      1103.3075      4321.573      -137167.9     
     47200   2331.4155     -2392.1443      4378.4893     -137163.51    
     47300   2655.9915     -2026.1564      4431.0132     -137162.57    
     47400   2513.2921     -6159.4519      4472.5775     -137159.39    
     47500   2548.2702     -4815.1297      4481.0374     -137164.23    
     47600   2355.1247     -13667.889      4461.5427     -137163.93    
     47700   2483.2916     -2392.5907      4370.407      -137168.11    
     47800   2720.3355      6376.3496      4287.0055     -137168.57    
     47900   2662.0585      14353.102      4285.1525     -137162.52    
     48000   2451.4311      7120.2517      4348.5211     -137163.16    
     48100   2393.1085     -5084.7413      4424.9177     -137165.65    
     48200   2386.7566     -9517.8327      4444.8426     -137162.44    
     48300   2647.6675      1507.1577      4405.9874     -137158.25    
     48400   2589.491       10034.095      4363.6122     -137159.26    
     48500   2498.5404      162.52975      4365.0243     -137165.09    
     48600   2372.3744     -7622.8211      4372.5182     -137164.94    
     48700   2618.0296      4141.1507      4352.1551     -137167.84    
     48800   2615.6955      8257.9548      4384.8063     -137162.69    
     48900   2584.1234     -10695.813      4441.6791     -137158.52    
     49000   2709.0881     -1922.2013      4440.0452     -137157.99    
     49100   2551.7812     -628.2188       4415.9589     -137161.21    
     49200   2546.2819     -3462.4038      4381.9415     -137167.28    
     49300   2506.9341     -6620.706       4340.147      -137166.65    
     49400   2666.7873      4847.4829      4283.5578     -137166.85    
     49500   2547.9356      20286.891      4262.4217     -137162.4     
     49600   2256.0876      2381.0075      4340.1371     -137164.57    
     49700   2337.1737     -9123.7256      4433.894      -137168.31    
     49800   2459.5193     -11924.664      4456.0671     -137164.11    
     49900   2544.3214      5732.3738      4403.5777     -137162.88    
     50000   2498.9082      2275.1995      4380.1821     -137162.98    
     50100   2504.6807     -2144.6791      4382.383      -137163.77    
     50200   2460.8402      10219.416      4373.9418     -137161.36    
     50300   2474.0758      4643.5973      4411.5851     -137163.85    
     50400   2351.7464     -14027.006      4485.9764     -137164.11    
     50500   2467.8982     -2907.8292      4476.0905     -137163.69    
     50600   2599.3178     -1726.9376      4422.6569     -137159.85    
     50700   2607.1261     -253.16051      4369.1317     -137158.77    
     50800   2582.2642      13787.559      4333.19       -137160.94    
     50900   2430.4631     -2485.283       4376.7072     -137165.61    
     51000   2352.7377      1628.767       4429.8848     -137165.67    
     51100   2380.4759     -6637.6737      4472.1148     -137163.25    
     51200   2551.6184     -4269.9425      4480.982      -137161.33    
     51300   2606.9648     -5689.4216      4470.465      -137159.65    
     51400   2455.5551      8167.6187      4429.2952     -137158.23    
     51500   2468.4532     -3618.7883      4374.3072     -137169.61    
     51600   2466.6856      11340.049      4294.8562     -137170.97    
     51700   2461.9127      5135.117       4284.2742     -137167.64    
     51800   2529.0574      6064.376       4318.5942     -137163.4     
     51900   2708.6305     -2971.3061      4373.923      -137164.98    
     52000   2511.9622     -2178.0845      4408.0598     -137161.19    
     52100   2599.9082     -9942.6941      4413.6444     -137163.71    
     52200   2617.8315      1735.1289      4379.1251     -137165.86    
     52300   2512.6789      5707.9738      4335.733      -137167.82    
     52400   2333.1025      6286.121       4321.3174     -137168.79    
     52500   2224.8732      9736.6796      4347.924      -137164.09    
     52600   2630.8671      10318.92       4396.2836     -137163.77    
     52700   2536.4039     -8363.6063      4499.6996     -137159.02    
     52800   2543.7883     -7838.0248      4568.3316     -137156.82    
     52900   2573.1103     -2017.1462      4572.3427     -137157.88    
     53000   2478.4872     -2144.1239      4529.3497     -137162.07    
     53100   2358.0117      4237.7485      4458.8025     -137163.65    
     53200   2607.3958      756.06361      4402.6107     -137165.5     
     53300   2852.5159      5048.6959      4382.6441     -137167.98    
     53400   2420.6748     -1843.0181      4412.4057     -137159.91    
     53500   2691.5739     -1914.0259      4422.8439     -137166.44    
     53600   2601.9773     -2206.144       4401.2848     -137168.41    
     53700   2372.1153      3130.1839      4367.2224     -137167.93    
     53800   2382.1174      389.68695      4354.5492     -137166.6     
     53900   2566.9283      3152.5402      4371.6587     -137163.47    
     54000   2546.7446      3761.6785      4420.7376     -137160.43    
     54100   2467.8676      7012.3975      4466.6171     -137158.03    
     54200   2380.0459     -4699.4911      4505.5616     -137160.9     
     54300   2212.0603     -5299.8717      4489.9135     -137159.94    
     54400   2610.0561     -1783.2366      4428.1319     -137164.23    
     54500   2484.4409      10365.863      4374.3798     -137157.12    
     54600   2477.358       11749.038      4366.8397     -137159.46    
     54700   2451.155      -808.80194      4416.9043     -137161.6     
     54800   2567.4249     -6203.305       4477.2739     -137161.73    
     54900   2544.5376     -22.915315      4500.4038     -137156.99    
     55000   2735.0215     -2662.4978      4515.5319     -137158.06    
     55100   2477.7784     -8537.6129      4522.9379     -137157.02    
     55200   2351.7643     -566.80985      4505.4555     -137158.9     
     55300   2509.8728     -7424.6345      4494.7553     -137161.86    
     55400   2759.3836     -457.98637      4455.2559     -137161.17    
     55500   2523.1236      1692.266       4372.5053     -137155.93    
     55600   2370.701       14831.965      4293.1371     -137162.62    
     55700   2553.9711      4385.747       4271.9897     -137169.23    
     55800   2507.3513      1527.4582      4306.3686     -137168.93    
     55900   2437.4371     -8629.4758      4361.0389     -137169.6     
     56000   2327.0068     -3584.7809      4388.9822     -137163.76    
     56100   2667.0964     -3110.166       4405.9253     -137163.61    
     56200   2670.6007     -7361.9955      4413.7727     -137164.18    
     56300   2478.8531     -6491.872       4407.4983     -137164.96    
     56400   2414.6179     -1633.8043      4388.641      -137165.9     
     56500   2427.9518      1775.5569      4379.8779     -137162.49    
     56600   2814.389       8949.8244      4375.3684     -137161.73    
     56700   2573.173      -4199.9929      4407.0426     -137161.21    
     56800   2442.7209     -11161.954      4433.03       -137163.87    
     56900   2442.9635     -2078.4265      4408.5449     -137165.09    
     57000   2384.0359      7259.8322      4374.166      -137160.83    
     57100   2654.7292      16480.209      4352.608      -137159.17    
     57200   2606.9806      1590.0594      4397.9029     -137157.21    
     57300   2392.7451      2474.8018      4444.8244     -137157.8     
     57400   2325.3682     -5916.0718      4491.766      -137155.97    
     57500   2557.1783     -4515.0317      4490.1151     -137160.23    
     57600   2539.2729     -3168.4242      4469.5856     -137159.52    
     57700   2430.1453     -6123.2823      4450.7611     -137161.72    
     57800   2258.1113     -9223.2         4394.2223     -137162.26    
     57900   2696.553       15047.236      4308.1416     -137166       
     58000   2789.4874      5491.2032      4312.5898     -137165.66    
     58100   2708.5862     -5417.4564      4385.4287     -137170.89    
     58200   2311.6345     -11837.88       4458.6691     -137162.07    
     58300   2506.5547     -2330.5545      4440.3439     -137163.24    
     58400   2638.6674      3298.7273      4403.2775     -137162.9     
     58500   2584.3953     -808.8676       4396.5493     -137163.19    
     58600   2529.0031      3976.6907      4405.7753     -137165.18    
     58700   2304.6991     -10006.728      4430.3496     -137160.38    
     58800   2576.3738     -10132.818      4395.4855     -137164.38    
     58900   2644.224       3393.8088      4325.461      -137162.55    
     59000   2416.49        22028.958      4278.0404     -137161       
     59100   2215.8801      5033.2544      4320.9325     -137163.45    
     59200   2481.9141     -9067.4217      4397.7872     -137166.57    
     59300   2528.7631     -12508.019      4437.0501     -137162.3     
     59400   2637.6967      6208.3742      4413.6863     -137162.55    
     59500   2578.7606     -9410.5044      4424.1576     -137164.03    
     59600   2317.1739      532.47191      4396.0451     -137162.14    
     59700   2502.2761      360.2289       4341.9993     -137165.83    
     59800   2602.2388      15176.472      4314.6804     -137166.75    
     59900   2469.4011     -3368.2305      4386.1036     -137163.89    
     60000   2441.5749     -8514.2853      4469.6964     -137165.02    
     60100   2425.1159     -9299.791       4491.936      -137164.72    
     60200   2639.6662     -5306.0015      4455.9751     -137164.06    
     60300   2778.4524      1420.5228      4402.7025     -137163.11    
     60400   2461.6339      6692.9915      4365.1739     -137160.06    
     60500   2356.8158      1854.2198      4344.7583     -137163.25    
     60600   2440.5223      8415.2921      4318.1182     -137164.75    
     60700   2620.9814      3444.032       4323.9515     -137167.85    
     60800   2593.9987     -9833.8964      4367.1894     -137164.1     
     60900   2720.3948     -669.72301      4386.4845     -137158.76    
     61000   2532.1647     -1173.5419      4412.3025     -137154.36    
     61100   2418.7148     -5213.2645      4428.8304     -137160.22    
     61200   2480.036       10464.543      4418.8837     -137164.39    
     61300   2511.3553     -5467.1977      4435.0011     -137164.06    
     61400   2486.852      -1109.2702      4413.5242     -137160.43    
     61500   2567.059       6599.1367      4377.3534     -137162.08    
     61600   2355.5569      4858.9451      4357.8909     -137163.23    
     61700   2447.8826      3316.8472      4352.5764     -137168.25    
     61800   2499.6471     -4678.4454      4373.3809     -137165.86    
     61900   2699.1787      6696.8859      4388.2804     -137163.65    
     62000   2737.6077     -2267.8034      4440.1724     -137161.56    
     62100   2330.8937     -9091.4054      4503.2229     -137159.06    
     62200   2305.1561     -3925.2441      4510.8119     -137162.25    
     62300   2380.3719     -944.83448      4455.0666     -137160.78    
     62400   2377.8732      5582.9688      4358.2244     -137156.06    
     62500   2641.3584      10598.513      4253.6871     -137163.36    
     62600   2587.4935      17017.138      4223.9963     -137167.65    
     62700   2437.752       2378.7337      4297.5399     -137166.06    
     62800   2416.4216     -7899.1637      4390.5536     -137163.27    
     62900   2594.6438      7887.1572      4448.8874     -137160.26    
     63000   2597.1251     -7325.5194      4522.1842     -137157.4     
     63100   2559.2546     -8328.3377      4555.6071     -137158.22    
     63200   2436.8955     -13477.651      4534.107      -137155.13    
     63300   2555.9304      1998.8247      4456.5598     -137156.82    
     63400   2594.5762      3693.4457      4401.8698     -137163.5     
     63500   2355.949      -2130.2244      4380.9042     -137163.17    
     63600   2375.0757      7261.8567      4351.1705     -137162.49    
     63700   2604.7547      17761.63       4364.5777     -137165.43    
     63800   2504.0275     -9640.0554      4477.1035     -137162.23    
     63900   2321.3778     -9029.6522      4543.6969     -137160.48    
     64000   2390.319      -7096.4109      4532.1434     -137161.51    
     64100   2659.6563      4006.5305      4476.7766     -137162.53    
     64200   2478.5555      397.64673      4436.0146     -137157.43    
     64300   2431.3082     -1089.2772      4391.9369     -137164.12    
     64400   2374.1459     -3827.5652      4359.1342     -137166.84    
     64500   2553.9447     -1143.0457      4309.0435     -137169.33    
     64600   2354.297       2633.4145      4288.8985     -137162.27    
     64700   2516.1393      4405.2311      4313.6377     -137164.37    
     64800   2460.0721      12259.417      4371.7196     -137158.49    
     64900   2707.8275     -12295.304      4490.5065     -137156.38    
     65000   2704.3897     -1895.7973      4548.1486     -137160.55    
     65100   2482.8137     -12396.103      4557.8157     -137158.37    
     65200   2678.5773      164.19007      4494.6059     -137161.9     
     65300   2581.9822     -768.33817      4436.9854     -137160.72    
     65400   2515.9734     -8897.8905      4391.6794     -137166.2     
     65500   2437.8098      7076.0573      4339.9227     -137167.46    
     65600   2526.0943      2260.7496      4347.0864     -137168.79    
     65700   2718.7902     -8042.4234      4385.3839     -137166.99    
     65800   2726.9792      2126.1527      4427.4563     -137158.28    
     65900   2591.319      -4614.5117      4470.1281     -137159.85    
     66000   2429.1911     -6958.9665      4456.8062     -137162.2     
     66100   2322.8935     -6835.4051      4391.9865     -137160.44    
     66200   2484.579       15553.42       4291.7303     -137160.78    
     66300   2661.9901      6754.4715      4262.7317     -137160.5     
     66400   2663.9248      12272.58       4310.9822     -137162.97    
     66500   2204.7485     -9346.1745      4418.3812     -137160.48    
     66600   2435.4663     -1451.5373      4448.4812     -137163.77    
     66700   2507.0778      11298.185      4440.191      -137159.82    
     66800   2462.0971     -272.03674      4449.9179     -137158.14    
     66900   2443.9348     -864.73492      4468.3351     -137157.6     
     67000   2447.3729     -7862.1671      4459.8191     -137159.76    
     67100   2422.7917     -9219.3396      4407.9332     -137162.4     
     67200   2505.6329      10993.691      4311.6163     -137168.85    
     67300   2301.1596      963.54808      4234.0445     -137168.27    
     67400   2430.7134      24683.649      4176.6274     -137168.22    
     67500   2654.6503      6521.1522      4230.8378     -137165.16    
     67600   2526.3122      3641.6298      4361.1515     -137161.73    
     67700   2506.013      -11684.981      4488.1628     -137160.1     
     67800   2616.2777     -5984.1633      4523.2367     -137158.93    
     67900   2607.7873     -244.84964      4494.6416     -137151.55    
     68000   2622.7957      6866.0906      4450.9634     -137158.41    
     68100   2432.4307     -2694.0702      4435.5982     -137161.21    
     68200   2360.8252     -4383.6576      4407.6502     -137160.03    
     68300   2369.7714      3401.2911      4348.0763     -137162.33    
     68400   2343.9761      9231.7574      4288.8879     -137167.68    
     68500   2283.1142     -577.37596      4282.3716     -137168.42    
     68600   2592.8716      8006.712       4304.6641     -137166.73    
     68700   2493.9523      888.27853      4366.6173     -137161.66    
     68800   2492.7335     -5622.5387      4418.1891     -137162.15    
     68900   2441.875      -9598.5981      4423.3892     -137164.37    
     69000   2206.0707     -2921.2606      4377.6704     -137166.79    
     69100   2340.8743      344.95817      4308.9488     -137168.36    
     69200   2687.0844      4609.5725      4273.8427     -137170.09    
     69300   2463.931       1608.9169      4313.299      -137164.6     
     69400   2485.7572     -1891.0657      4382.8948     -137166.61    
     69500   2335.5072     -3039.3097      4456.951      -137159.11    
     69600   2767.1652     -4549.9764      4504.161      -137161.85    
     69700   2469.3283     -2527.2433      4511.9602     -137156.14    
     69800   2483.0418     -1153.655       4468.3331     -137161.59    
     69900   2550.4991     -657.77584      4409.2943     -137166.53    
     70000   2413.7472     -1405.9303      4382.1577     -137166.59    
     70100   2167.7791     -6516.7919      4348.8527     -137167.92    
     70200   2528.4248      7364.5938      4285.5807     -137172.28    
     70300   2624.868       2157.4089      4301.3723     -137168.59    
     70400   2607.2717     -2088.3545      4369.7969     -137166.96    
     70500   2531.7617     -5155.0342      4440.2806     -137165.11    
     70600   2477.0374     -19256.952      4445.8338     -137167.21    
     70700   2371.2028      4845.2585      4347.5124     -137167.77    
     70800   2605.9937      10134.957      4299.865      -137169.19    
     70900   2546.9696      9657.1415      4338.6083     -137161.88    
     71000   2423.2625     -293.90094      4421.1742     -137156.63    
     71100   2774.1537      2805.9848      4471.2106     -137157.52    
     71200   2577.2312      2488.0283      4502.1252     -137153.16    
     71300   2589.7592      475.74111      4520.4328     -137161.83    
     71400   2448.7118     -54.068396      4517.1808     -137161.31    
     71500   2550.3681     -5705.3325      4494.8199     -137163.72    
     71600   2461.9213      1393.6148      4453.7753     -137162.24    
     71700   2312.3012     -1684.2423      4433.1718     -137160.94    
     71800   2402.0093     -4813.6918      4396.3961     -137162.24    
     71900   2658.9235      4583.1487      4327.9379     -137161.94    
     72000   2764.7173      12225.483      4299.3803     -137166.14    
     72100   2342.1787      4844.2445      4350.5296     -137162.12    
     72200   2601.5862     -6815.129       4418.994      -137169.54    
     72300   2334.9598     -6104.0899      4458.7411     -137162.24    
     72400   2477.8275      3106.7297      4461.4639     -137164.36    
     72500   2567.7722     -5778.6573      4476.1869     -137160.38    
     72600   2731.9841     -7020.0473      4476.6108     -137156.48    
     72700   2715.0181     -4984.2025      4446.5359     -137160.08    
     72800   2589.0814      5715.285       4388.111      -137162.67    
     72900   2567.6411      6318.799       4356.7252     -137164.68    
     73000   2439.0023      282.45964      4351.5392     -137163.63    
     73100   2310.3467      8616.942       4341.8945     -137160.95    
     73200   2521.1367      3308.2594      4353.7882     -137162.94    
     73300   2550.9579      4442.0397      4390.1057     -137158.57    
     73400   2629.0027     -9066.7119      4434.732      -137158.96    
     73500   2315.6624     -12455.291      4420.0992     -137157.6     
     73600   2436.3221      7478.5651      4334.4349     -137164.13    
     73700   2639.8632      14831.029      4279.3296     -137167.43    
     73800   2493.6731      11185.15       4325.774      -137163.45    
     73900   2386.5872     -6155.4154      4449.1166     -137159.71    
     74000   2536.5148     -11859.474      4511.8115     -137160.57    
     74100   2548.7652     -5890.4526      4477.2547     -137157.04    
     74200   2585.779       6531.7256      4399.0626     -137159.1     
     74300   2430.7451     -4645.2113      4342.4865     -137164.33    
     74400   2401.3948      8111.7446      4284.6699     -137165.12    
     74500   2611.8038      4792.0638      4286.4379     -137168.34    
     74600   2377.221      -2792.1359      4335.4367     -137160.53    
     74700   2702.4628     -802.48401      4380.2943     -137163.28    
     74800   2858.9756      1530.8941      4423.4199     -137164.58    
     74900   2388.7019     -5821.7828      4476.9832     -137158.04    
     75000   2245.1812     -13414.016      4482.1075     -137159       
     75100   2475.9158      8412.0816      4424.1124     -137161.4     
     75200   2512.4         7139.3237      4398.6768     -137159.1     
     75300   2646.7101     -4660.0526      4398.9706     -137164.66    
     75400   2505.9462      3361.3014      4393.4506     -137162.78    
     75500   2665.7415     -395.82194      4401.5292     -137168.16    
     75600   2607.2863     -3909.1421      4426.4291     -137162.83    
     75700   2666.2392     -769.71879      4425.2575     -137157.51    
     75800   2553.7365      5161.2705      4415.8776     -137158.42    
     75900   2422.4433     -4128.3797      4437.3944     -137161.82    
     76000   2652.22       -7742.2047      4447.3265     -137167.25    
     76100   2350.6481      3825.9263      4406.25       -137157.2     
     76200   2714.8355     -1654.7395      4339.3603     -137160.68    
     76300   2857.3138      14238.787      4293.4971     -137165.78    
     76400   2359.1862      2616.2683      4334.7178     -137164.55    
     76500   2401.95       -9450.0149      4400.8429     -137166.65    
     76600   2436.1482     -7041.9382      4433.1617     -137161.65    
     76700   2690.9033     -3755.3648      4403.1244     -137163.24    
     76800   2622.441       7032.9781      4373.7352     -137160.79    
     76900   2521.1112     -9835.8187      4392.9933     -137167.68    
     77000   2375.6601     -5525.639       4388.9498     -137166.82    
     77100   2488.2429      1156.1637      4359.3362     -137164.4     
     77200   2675.1573      4198.261       4356.9636     -137165.78    
     77300   2490.2314     -6407.7346      4389.9793     -137161.89    
     77400   2317.6922     -407.60644      4402.4646     -137161.74    
     77500   2236.4144     -1173.7009      4392.6561     -137166.83    
     77600   2384.1045     -3011.9653      4360.0382     -137168.94    
     77700   2582.6415      13270.774      4325.2695     -137164.52    
     77800   2708.0108      2987.8587      4324.3177     -137166.74    
     77900   2449.3262     -2046.2355      4353.9282     -137163.33    
     78000   2364.2988      1061.1875      4389.6242     -137161.77    
     78100   2522.3578     -6249.6299      4417.0436     -137160.32    
     78200   2633.3159      8912.0429      4424.179      -137158.59    
     78300   2514.9822     -7977.3226      4478.0086     -137161.41    
     78400   2400.606      -8641.3467      4484.2081     -137164.76    
     78500   2469.7325     -1151.0237      4405.4566     -137165.71    
     78600   2594.5174      943.77845      4296.6423     -137167.16    
     78700   2532.879       11401.224      4201.4703     -137165.33    
     78800   2369.9051      6653.9169      4182.1611     -137169.88    
     78900   2306.9064      8439.3597      4252.7331     -137170.35    
     79000   2397.8111     -6232.138       4399.1661     -137163.86    
     79100   2661.0906     -10499.454      4503.6275     -137164.84    
     79200   2554.0256     -7560.1856      4521.2478     -137161.65    
     79300   2583.5339     -5994.8712      4489.9686     -137162.92    
     79400   2413.0318      1672.7516      4441.3073     -137157.94    
     79500   2673.1996      1932.2549      4415.8934     -137162.74    
     79600   2423.8265     -3641.1123      4412.8067     -137162.57    
     79700   2522.7292     -5109.9281      4399.2847     -137168.35    
     79800   2480.7181     -978.69864      4388.2764     -137164.39    
     79900   2809.5939      5435.0048      4384.5459     -137164.88    
     80000   2533.1362      4676.4968      4392.1292     -137160.7     
     80100   2339.0893      2138.6114      4405.7618     -137164.7     
     80200   2445.0348     -5422.283       4424.5214     -137165.5     
     80300   2570.9387     -901.41515      4421.0072     -137163.02    
     80400   2680.9806     -3382.5689      4424.9535     -137162.69    
     80500   2618.7919     -4044.3411      4447.9257     -137161.76    
     80600   2348.4997     -2904.5627      4463.9452     -137157.07    
     80700   2672.3231      1778.7676      4438.3377     -137167.26    
     80800   2512.6559     -3299.0543      4407.655      -137165.81    
     80900   2509.691       2734.9938      4374.8424     -137166.53    
     81000   2592.7323      4010.2682      4389.1524     -137165.16    
     81100   2599.4018     -1776.5322      4445.4555     -137157.81    
     81200   2678.8484     -3769.3659      4501.9756     -137159.46    
     81300   2406.764      -11015.225      4539.7257     -137162.07    
     81400   2469.3082     -5474.1054      4512.7355     -137165.13    
     81500   2473.846       6016.7069      4463.6972     -137160.92    
     81600   2690.052      -4705.9488      4439.4205     -137164.36    
     81700   2670.1966      6862.2434      4423.7778     -137166.35    
     81800   2281.0442     -5447.8756      4460.7024     -137162.32    
     81900   2354.1404     -10437.564      4476.4654     -137163.73    
     82000   2704.3925      1339.189       4437.341      -137164.02    
     82100   2560.3671      3737.9164      4395.0251     -137162.14    
     82200   2460.5884     -808.07939      4358.2222     -137165.94    
     82300   2338.5488      5891.5528      4322.8575     -137164.57    
     82400   2479.1899     -10697.754      4300.893      -137165.65    
     82500   2766.1881      5719.003       4269.3042     -137163.7     
     82600   2652.647       6364.242       4296.3343     -137161.8     
     82700   2565.4751     -7608.6141      4370.1875     -137165.97    
     82800   2381.2699     -5350.9041      4422.4487     -137163.04    
     82900   2344.5969     -5113.1014      4438.5969     -137159.96    
     83000   2578.23        9972.8823      4420.5694     -137161.97    
     83100   2685.4447     -1030.8941      4452.3007     -137161       
     83200   2530.6492     -8222.187       4490.9984     -137159.64    
     83300   2172.3278     -9215.0114      4477.0828     -137160.41    
     83400   2476.3988      11355.017      4408.3189     -137165.73    
     83500   2524.3202     -57.818063      4395.4097     -137162.5     
     83600   2554.6817     -7259.7209      4424.2416     -137159.76    
     83700   2598.36       -2341.809       4452.986      -137162.28    
     83800   2354.5598     -18519.647      4474.4086     -137164.66    
     83900   2177.1412     -7069.7955      4420.9588     -137165.33    
     84000   2493.768       5934.7311      4319.2361     -137169.37    
     84100   2687.4357      5770.7032      4250.1509     -137171.67    
     84200   2498.1084      14079.31       4243.0171     -137168.43    
     84300   2405.44        4246.0786      4335.9757     -137169.14    
     84400   2329.6896     -8212.3873      4467.9795     -137163.56    
     84500   2588.0354     -6630.2186      4559.6648     -137160.87    
     84600   2519.1226     -12379.201      4594.661      -137155.86    
     84700   2391.4202     -2192.3953      4552.5245     -137151.36    
     84800   2620.9515      418.92402      4471.7797     -137159.03    
     84900   2509.911       1567.2629      4383.8323     -137166.74    
     85000   2228.8969      15205.803      4319.2268     -137161.69    
     85100   2536.3909      2398.2417      4327.4996     -137165.04    
     85200   2517.6601      5479.5361      4351.6755     -137161.11    
     85300   2600.2506      6319.8646      4383.5607     -137161.62    
     85400   2353.4665      2999.9351      4440.6404     -137160.52    
     85500   2286.0115     -6081.6511      4508.4762     -137162.48    
     85600   2527.1876      43.704076      4524.1194     -137163.85    
     85700   2651.7806     -11367.783      4508.1807     -137160.42    
     85800   2547.5356     -1034.4055      4444.425      -137158.05    
     85900   2635.657       1887.1124      4383.6147     -137163.68    
     86000   2580.3916     -10354.882      4331.6555     -137166.34    
     86100   2488.4462      4710.7286      4257.4791     -137164.35    
     86200   2488.8077      14707.672      4233.8289     -137166.98    
     86300   2157.9877      4684.2811      4310.284      -137165.19    
     86400   2298.8105     -12627.064      4407.2365     -137168.16    
     86500   2553.6969      249.9049       4431.9775     -137163.81    
     86600   2528.5829     -5814.8234      4456.1191     -137160.66    
     86700   2585.6576      221.70203      4462.9944     -137162.14    
     86800   2418.4836      7898.0045      4456.4138     -137164.17    
     86900   2314.2969     -7631.0481      4471.2882     -137164.85    
     87000   2495.0088      5830.8452      4465.3025     -137164.1     
     87100   2528.5691     -5325.1939      4474.0944     -137162.02    
     87200   2580.4103     -3439.2848      4459.9732     -137163.93    
     87300   2603.767       771.48163      4426.6235     -137168.04    
     87400   2335.7512     -9606.3842      4410.5774     -137165.54    
     87500   2194.0111      5343.9036      4358.1326     -137166.51    
     87600   2423.7091      8765.5803      4327.3369     -137164.81    
     87700   2647.538       130.19522      4335.4073     -137164.06    
     87800   2686.2703     -4249.3581      4365.7835     -137165.3     
     87900   2595.0712      4398.3746      4397.4885     -137166.86    
     88000   2199.1474     -7941.9379      4432.4515     -137163.1     
     88100   2338.9144      4615.1158      4424.9353     -137162.2     
     88200   2583.9805      6443.6424      4437.3797     -137160.94    
     88300   2470.9291     -12498.414      4475.8072     -137157.53    
     88400   2541.4864     -558.99679      4432.2769     -137159.02    
     88500   2537.6632     -5824.2655      4357.019      -137160.64    
     88600   2479.5988      7910.4086      4278.9256     -137166.72    
     88700   2338.8854      5152.3379      4259.4377     -137167.65    
     88800   2459.3094      7595.1433      4275.7878     -137167.35    
     88900   2514.3751     -1168.9         4320.6284     -137166.25    
     89000   2542.8828      80.099772      4368.9612     -137166.14    
     89100   2411.9018      833.24534      4413.1274     -137161.84    
     89200   2451.7582      3305.0756      4454.5766     -137161.28    
     89300   2525.7718     -6684.8281      4502.1215     -137159.84    
     89400   2520.8563     -4856.7686      4487.59       -137156.06    
     89500   2879.8587     -9729.4423      4408.7308     -137163.49    
     89600   2599.0356      3903.8115      4309.1571     -137164.18    
     89700   2526.3586      2951.2236      4261.5186     -137167.79    
     89800   2539.9534      4463.8323      4275.012      -137169.39    
     89900   2468.0866      2614.5488      4330.0244     -137165.74    
     90000   2614.0946     -311.60446      4393.1349     -137161.45    
     90100   2776.9927     -6311.3295      4450.5231     -137163.22    
     90200   2395.2448     -741.12461      4497.9189     -137158.77    
     90300   2397.9047     -10625.101      4521.9755     -137163       
     90400   2523.5451     -2564.5656      4468.1344     -137165.36    
     90500   2511.6984      2284.8655      4382.3776     -137163.43    
     90600   2647.3269      9157.6267      4327.0983     -137164.72    
     90700   2577.6587      2006.572       4333.7912     -137166.16    
     90800   2299.0358     -4262.1107      4367.9876     -137166.16    
     90900   2431.4018      6229.3243      4402.3489     -137167.48    
     91000   2399.2071      1124.4904      4458.5275     -137161.5     
     91100   2358.9462      454.17165      4488.3709     -137156       
     91200   2633.0872      1171.4015      4484.9985     -137160.45    
     91300   2493.5402      7451.9345      4486.5186     -137159.02    
     91400   2298.7087     -8860.8539      4486.9499     -137161.78    
     91500   2423.1595      992.79587      4414.4091     -137165.75    
     91600   2758.5593      4844.4083      4329.6864     -137163.79    
     91700   2931.3061      11335.587      4302.105      -137166.55    
     91800   2445.9967      8401.6601      4353.9926     -137163.21    
     91900   2482.3707     -15274.271      4437.9041     -137166.04    
     92000   2552.9497     -5336.4708      4439.1991     -137164.31    
     92100   2594.4042      5330.2571      4379.8461     -137158.34    
     92200   2764.9312      7854.3984      4335.4683     -137164.7     
     92300   2596.1517     -2335.5854      4335.2663     -137166.87    
     92400   2509.9075      5861.0252      4320.0182     -137166.41    
     92500   2577.2069      3524.0114      4324.1942     -137168.38    
     92600   2515.41        1148.3502      4361.2316     -137165.95    
     92700   2419.8249     -5461.866       4384.0788     -137162.96    
     92800   2519.3773      4903.3256      4384.8688     -137160.18    
     92900   2887.1236     -6246.6008      4412.2699     -137164.28    
     93000   2583.244      -1176.8319      4452.0924     -137162.06    
     93100   2396.4284     -14199.885      4497.4912     -137161.19    
     93200   2539.5187     -1082.754       4466.4038     -137163.89    
     93300   2537.1569      390.92278      4402.6619     -137163.26    
     93400   2556.1987      6199.0501      4346.391      -137163.11    
     93500   2439.3238      2173.9705      4345.8694     -137166.8     
     93600   2398.606      -4078.502       4380.9922     -137171.22    
     93700   2363.7091     -1791.0512      4413.2315     -137165.4     
     93800   2520.9294     -10759.436      4409.81       -137163.84    
     93900   2437.1868      3157.4995      4365.0879     -137161.2     
     94000   2475.9268      1175.5493      4362.4897     -137165.61    
     94100   2370.3719     -5926.1264      4400.0621     -137167.62    
     94200   2236.6202     -7654.1624      4403.3174     -137166.83    
     94300   2593.4967     -120.30884      4362.4406     -137167.55    
     94400   2578.4666      13203.193      4339.9785     -137162.56    
     94500   2592.1204      2077.0707      4367.9098     -137164.58    
     94600   2328.0497      3059.3578      4387.7825     -137163.17    
     94700   2333.4313     -5710.3298      4400.147      -137167.85    
     94800   2363.9186      36.393056      4392.3567     -137163.69    
     94900   2597.5607      925.48088      4382.0372     -137161.34    
     95000   2606.8163      1678.6052      4390.8867     -137160.76    
     95100   2404.8248      10107.834      4433.7955     -137157.64    
     95200   2278.8731     -12915.942      4500.8682     -137159.16    
     95300   2408.6638     -6788.6488      4479.5464     -137162.05    
     95400   2825.0424      4197.9786      4391.083      -137164.29    
     95500   2624.2949      7023.068       4330.8724     -137162.73    
     95600   2315.8613      7248.1137      4316.3293     -137159.76    
     95700   2414.495       1082.0173      4322.4266     -137163.32    
     95800   2426.1862     -579.32988      4322.6917     -137164.26    
     95900   2518.1501      1729.1105      4327.623      -137167.09    
     96000   2436.5846      6944.2558      4346.8295     -137163.47    
     96100   2496.3237     -1339.2483      4400.8693     -137159.74    
     96200   2577.2757      4344.758       4454.4102     -137156.8     
     96300   2448.634      -7034.8649      4497.0542     -137153.41    
     96400   2618.0885     -2436.3369      4505.2945     -137161.91    
     96500   2391.2266     -15884.301      4492.2771     -137163.52    
     96600   2430.9738      604.9878       4407.4567     -137164.4     
     96700   2600.8581      6793.3624      4340.0576     -137163.05    
     96800   2543.7206      3824.2125      4319.4332     -137164.45    
     96900   2336.5103      3253.5256      4316.8317     -137169.58    
     97000   2262.0397     -625.56526      4323.9122     -137164.45    
     97100   2596.2735      2455.513       4320.8081     -137166.86    
     97200   2519.397       1247.1546      4327.0617     -137163.7     
     97300   2492.9692     -3482.3295      4348.1312     -137161.97    
     97400   2804.6453      2573.434       4369.5933     -137163.52    
     97500   2723.4289     -9738.1256      4399.9039     -137160.48    
     97600   2441.9934     -9138.2433      4365.2446     -137163.53    
     97700   2464.7586      5826.3687      4287.3035     -137165.3     
     97800   2587.216       12023.433      4239.5226     -137166.83    
     97900   2650.5257      10985.24       4273.6649     -137170.02    
     98000   2349.4165     -7859.9729      4359.7326     -137169.68    
     98100   2150.3221     -11477.811      4406.8249     -137163.25    
     98200   2347.9513      4960.9368      4384.8542     -137159.57    
     98300   2603.9958      2349.7469      4365.1763     -137163.23    
     98400   2739.6145     -383.60291      4355.0147     -137170.07    
     98500   2358.0366      2528.8789      4374.8628     -137167.22    
     98600   2355.0627     -103.21267      4438.1086     -137167.25    
     98700   2544.0281     -7253.5452      4485.9049     -137165.83    
     98800   2603.8161     -607.44124      4468.128      -137165.55    
     98900   2472.3676     -1944.2392      4430.0039     -137162.83    
     99000   2607.5268      361.15626      4387.7009     -137166.39    
     99100   2604.22        3399.3541      4365.8924     -137166.86    
     99200   2547.1747     -9161.2864      4382.7624     -137166.55    
     99300   2406.1667      2833.4394      4397.2648     -137164.11    
     99400   2595.948      -8272.2124      4408.1841     -137167.01    
     99500   2633.3685      9920.7059      4388.4683     -137162.56    
     99600   2603.8306      4987.5038      4423.9706     -137161.27    
     99700   2457.0842     -7494.0249      4504.1686     -137161.68    
     99800   2219.7326     -10777.278      4549.2128     -137160.04    
     99900   2373.5611     -6318.9405      4498.2604     -137160.54    
    100000   2714.407       1530.6587      4384.0849     -137162.57    
    100100   2584.6983      7754.8905      4293.2621     -137163.1     
    100200   2417.6168      13667.186      4274.3719     -137164.13    
    100300   2400.1292      4903.4394      4350.9097     -137165.93    
    100400   2397.733      -12044.469      4448.9973     -137164.33    
    100500   2708.9351     -1150.8342      4472.5075     -137162.37    
    100600   2699.251      -11319.796      4459.1583     -137160.27    
    100700   2486.8302      8519.4881      4406.1319     -137161.46    
    100800   2638.3025     -659.59745      4404.2903     -137169.59    
    100900   2414.1193     -3869.0819      4418.4351     -137167.4     
    101000   2515.7145     -2127.7051      4402.4373     -137166.81    
    101100   2807.9058      6399.3424      4383.3279     -137164.04    
    101200   2500.8696     -617.83951      4416.1771     -137158.69    
    101300   2443.9701     -702.85894      4450.6423     -137160.53    
    101400   2534.068      -9054.0122      4472.9968     -137162.44    
    101500   2629.0906     -4480.3617      4465.3376     -137161.12    
    101600   2533.8317      4796.2953      4444.6698     -137156.66    
    101700   2441.1102      4346.3052      4415.668      -137160.42    
    101800   2521.2971      324.74636      4393.6964     -137168.81    
    101900   2472.1201     -2033.287       4388.6261     -137168.25    
    102000   2645.1716     -9609.0357      4371.2053     -137168.42    
    102100   2776.9534      6181.6659      4317.3544     -137161.69    
    102200   2747.3502      2842.9283      4282.0715     -137159.98    
    102300   2536.099       16569.097      4256.6298     -137161.16    
    102400   2438.5997      1746.3497      4289.1385     -137162.68    
    102500   2396.6226      3225.0652      4333.3341     -137166.41    
    102600   2454.1746     -11680.915      4366.4546     -137169.29    
    102700   2488.5053      7936.4031      4362.9407     -137163.47    
    102800   2571.5061      11272.378      4402.8181     -137159.58    
    102900   2364.001      -3532.8885      4482.3688     -137155.78    
    103000   2453.3135     -1513.3906      4514.743      -137158.33    
    103100   2492.2391      2194.5306      4507.6181     -137158.93    
    103200   2490.5526     -1992.4643      4509.5622     -137159.16    
    103300   2531.8976     -7042.6966      4493.5376     -137160.33    
    103400   2544.1536      5380.4359      4406.6241     -137162.2     
    103500   2461.5579      7092.2582      4329.0267     -137160.05    
    103600   2516.5473      3027.7681      4297.9652     -137163.59    
    103700   2514.4049      3648.5174      4300.1997     -137164.98    
    103800   2287.9319      3036.0228      4320.3565     -137158.87    
    103900   2820.155      -3787.1009      4354.6278     -137162.56    
    104000   2680.8668      10685.485      4390.74       -137158.68    
    104100   2524.8004     -17475.307      4430.0115     -137162.17    
    104200   2506.067      -4568.2001      4390.2431     -137165.5     
    104300   2498.6241     -2602.7368      4308.4096     -137166.19    
    104400   2513.3817      8792.5611      4211.2476     -137164.36    
    104500   2618.1858      10085.632      4202.7365     -137164.26    
    104600   2441.0735     -515.08852      4262.0221     -137162.82    
    104700   2311.5005      4506.825       4313.911      -137160.71    
    104800   2643.1742     -5648.4132      4362.8813     -137165.32    
    104900   2649.8881     -1165.5717      4412.3341     -137163.17    
    105000   2382.3449     -8297.5553      4461.5442     -137163.2     
    105100   2283.7794     -1530.5327      4449.0836     -137164.62    
    105200   2466.4277     -6377.0342      4389.8804     -137166.46    
    105300   2681.4974      13714.925      4307.5983     -137162.39    
    105400   2681.0429      10418.295      4326.1163     -137163.33    
    105500   2470.7401     -6494.9868      4407.524      -137161.79    
    105600   2511.3468     -7806.5         4429.913      -137164.88    
    105700   2543.3794     -6350.2224      4419.0466     -137163.89    
    105800   2718.4533      3833.5637      4406.9037     -137162.72    
    105900   2626.7531     -7768.3779      4425.1982     -137159.74    
    106000   2350.7126      3227.5982      4392.0452     -137161.29    
    106100   2431.1449      14261.007      4339.663      -137166.3     
    106200   2512.0529      41.110777      4350.45       -137167.02    
    106300   2272.0962      6458.5189      4362.6672     -137158.4     
    106400   2817.9752      5639.0747      4381.4521     -137162.11    
    106500   2639.2246     -4391.5615      4421.7798     -137160.7     
    106600   2488.4875     -10560.249      4428.5146     -137161.39    
    106700   2624.934       6350.4967      4384.0487     -137168.25    
    106800   2256.7481      3515.1616      4366.8472     -137161.84    
    106900   2373.1514      9609.7542      4374.0173     -137163.05    
    107000   2788.2844     -6271.502       4410.4492     -137162.43    
    107100   2627.7282     -6309.0506      4417.2782     -137161.17    
    107200   2305.2848     -7033.6872      4410.7121     -137157.61    
    107300   2530.3717     -2585.3831      4365.4142     -137162.79    
    107400   2509.0403      14765.211      4315.4843     -137160.96    
    107500   2492.4864      2177.2564      4341.7333     -137165.55    
    107600   2409.2609     -9784.4555      4391.4844     -137167.64    
    107700   2384.092       4752.1936      4387.9653     -137163.76    
    107800   2554.4085      7008.3955      4398.2823     -137160.65    
    107900   2609.5532     -2084.4664      4471.8734     -137161.47    
    108000   2544.3306     -16584.478      4543.0268     -137161.22    
    108100   2580.712      -6026.5122      4518.2508     -137164.01    
    108200   2308.6493     -2721.1299      4454.6223     -137160.46    
    108300   2376.0598     -12553.809      4374.8148     -137169.72    
    108400   2347.4198      12907.634      4273.9205     -137165.25    
    108500   2563.3937      28294.048      4240.5425     -137164.29    
    108600   2603.0036     -3980.6763      4339.0898     -137165.06    
    108700   2508.3803     -4857.6363      4460.798      -137165.64    
    108800   2220.0603     -14566.386      4548.0016     -137163.73    
    108900   2346.1041     -10966.248      4509.3594     -137165.49    
    109000   2486.9654      3376.5553      4398.367      -137159.76    
    109100   2662.2006      10118.284      4297.4357     -137163.51    
    109200   2605.7186      8948.0984      4259.229      -137166.94    
    109300   2401.4859     -348.26917      4297.1886     -137167.54    
    109400   2535.4839      6616.4383      4355.4271     -137169.7     
    109500   2640.916      -10047.132      4435.0461     -137166.75    
    109600   2713.0285      969.66706      4474.6574     -137159.57    
    109700   2953.4666      1064.6501      4502.4333     -137156       
    109800   2597.1522     -9055.3603      4552.297      -137149.17    
    109900   2446.5639     -4813.893       4552.7923     -137156.23    
    110000   2335.2305     -1430.0961      4523.2251     -137156.88    
    110100   2436.6387     -2446.1108      4500.1879     -137160.12    
    110200   2408.314       1816.3223      4466.5168     -137159.43    
    110300   2437.294       5166.9309      4434.9336     -137160.07    
    110400   2530.3333     -2027.8532      4407.6718     -137163.95    
    110500   2315.4015     -3430.3048      4382.9733     -137160.6     
    110600   2482.1929      8259.1169      4350.3083     -137163.56    
    110700   2555.5028     -3074.1434      4344.168      -137162.14    
    110800   2512.4905      4393.6402      4327.0669     -137160.06    
    110900   2513.2047      7141.733       4321.725      -137162.49    
    111000   2335.4052     -2659.3116      4355.6254     -137165.7     
    111100   2290.5501     -6679.1112      4379.3093     -137162.65    
    111200   2544.5184      7745.2996      4360.6041     -137163.07    
    111300   2455.7253      12474.4        4368.2926     -137160.54    
    111400   2438.0673      1007.997       4412.6704     -137161.22    
    111500   2406.8174     -9221.0013      4432.8719     -137159.04    
    111600   2912.7763      583.30675      4383.833      -137163.69    
    111700   2723.1404      7873.0493      4348.1299     -137161.43    
    111800   2345.3113      4532.1747      4364.8867     -137159.74    
    111900   2419.8378      2770.7758      4404.9255     -137162.12    
    112000   2526.9146     -9071.4151      4439.622      -137161.27    
    112100   2652.7804     -4984.9932      4442.748      -137160.14    
    112200   2563.3877     -1679.6726      4447.4553     -137154.3     
    112300   2625.1629     -5994.9384      4446.3859     -137158.4     
    112400   2360.4087      12709.827      4421.5771     -137160.28    
    112500   2419.0752     -6469.4244      4421.6118     -137162.96    
    112600   2518.7518      3189.6292      4401.5577     -137161.06    
    112700   2633.2509      2902.0431      4415.3239     -137160.4     
    112800   2489.0112     -9657.0064      4431.4533     -137164.5     
    112900   2514.1851     -1054.0287      4386.472      -137170.63    
    113000   2329.1456      3994.8279      4338.5165     -137163.62    
    113100   2616.8428      6128.1825      4319.3748     -137163.97    
    113200   2548.206       4322.66        4339.2287     -137160.21    
    113300   2485.5496      1231.824       4371.0556     -137161.16    
    113400   2548.342       489.54019      4371.6281     -137163.51    
    113500   2567.8717      8412.7905      4359.3204     -137165.72    
    113600   2393.7056     -7342.192       4375.2828     -137164.36    
    113700   2396.7096     -2407.5134      4377.1717     -137166.61    
    113800   2336.8808     -3802.0807      4380.6775     -137163.02    
    113900   2756.8998     -1419.4004      4365.8275     -137164.83    
    114000   2646.0812     -2886.1517      4374.291      -137163.3     
    114100   2462.3957     -2768.3822      4393.0625     -137166.15    
    114200   2415.2558     -4331.4482      4389.9763     -137167.33    
    114300   2568.5092      9536.6178      4347.7152     -137170.31    
    114400   2420.4835      7632.581       4347.5327     -137162.78    
    114500   2600.6058      15290.205      4407.5441     -137159.07    
    114600   2487.8976     -13282.976      4528.7968     -137154.73    
    114700   2544.7927     -9336.8913      4573.2141     -137163.45    
    114800   2274.8583     -10125.851      4552.2393     -137159.93    
    114900   2391.1472      3799.4239      4455.6637     -137159.5     
    115000   2690.9965      7048.1401      4361.4472     -137166.32    
    115100   2569.3897      9202.9849      4308.768      -137168.11    
    115200   2358.6929      8626.8048      4290.933      -137165.49    
    115300   2557.2688      5871.5223      4315.2223     -137168.79    
    115400   2410.8306     -1788.2317      4389.2457     -137163.75    
    115500   2488.0932      1289.5747      4459.0127     -137162.88    
    115600   2365.4918     -10669.396      4514.8835     -137157.96    
    115700   2454.7223     -6727.3793      4510.7889     -137157.09    
    115800   2513.2875      1722.8031      4438.708      -137158.59    
    115900   2628.8114      6429.3714      4369.2465     -137167.91    
    116000   2458.7715     -1211.2687      4341.5909     -137170.42    
    116100   2478.7154     -1771.7878      4345.1341     -137167.76    
    116200   2576.3027     -4890.7895      4362.5311     -137165.77    
    116300   2651.3669      540.88229      4373.3996     -137166.38    
    116400   2488.8417      4833.2374      4392.4326     -137165.25    
    116500   2164.1878     -14098.853      4444.7524     -137165.75    
    116600   2166.0168     -14865.74       4450.3879     -137162.52    
    116700   2689.6508     -1659.1311      4396.691      -137169.2     
    116800   2467.8706      7109.0474      4357.9688     -137163.28    
    116900   2435.9662     -11175.397      4352.4184     -137164.12    
    117000   2475.1965      6570.5082      4315.9446     -137165.13    
    117100   2459.3786      1475.5993      4300.8903     -137162.94    
    117200   2621.1303      2159.8126      4316.5814     -137162       
    117300   2773.5152      3598.5749      4376.8332     -137165.59    
    117400   2316.5178     -8139.9359      4465.3687     -137162.25    
    117500   2490.7616     -6217.4751      4530.5262     -137166.92    
    117600   2393.5333     -3410.5579      4570.0712     -137159.24    
    117700   2548.6134     -6751.8146      4550.5533     -137161.65    
    117800   2658.9482     -2639.3299      4467.1399     -137165.68    
    117900   2564.1688      5767.8792      4349.5791     -137164.75    
    118000   2417.5555      22649.568      4260.7765     -137162.01    
    118100   2443.156       14529.161      4290.1488     -137164.45    
    118200   2374.7746     -8894.0304      4420.6942     -137164.74    
    118300   2265.8078     -3233.6056      4537.8849     -137156.37    
    118400   2475.2481      1945.798       4596.6546     -137153.95    
    118500   2542.2397     -9828.5252      4608.9662     -137155.57    
    118600   2514.0499     -3920.2678      4540.3678     -137154.59    
    118700   2699.9063      10143.803      4408.2387     -137160.32    
    118800   2445.2839      6922.5783      4300.3018     -137164.12    
    118900   2325.3664      16478.246      4252.7628     -137163.04    
    119000   2725.7732     -311.87848      4296.9303     -137170.25    
    119100   2503.2978     -2859.5638      4370.4393     -137165.47    
    119200   2537.7331     -8776.3812      4449.2087     -137164.16    
    119300   2625.1026     -4971.2347      4466.74       -137159.45    
    119400   2691.8697     -10848.072      4431.3231     -137160.41    
    119500   2594.8561      2565.732       4376.9394     -137164.5     
    119600   2395.0391     -4028.8715      4382.4373     -137165.47    
    119700   2337.7796      1650.2596      4399.1439     -137162.88    
    119800   2437.7881     -4531.1287      4403.5184     -137161.83    
    119900   2623.6145      4513.621       4371.1242     -137164.14    
    120000   2539.6815     -4601.7537      4356.6142     -137164.05    
    120100   2463.0945      4509.7666      4363.9982     -137164.49    
    120200   2280.9105      1969.5035      4406.023      -137159.98    
    120300   2327.2315     -9528.1567      4449.9617     -137157.2     
    120400   2700.3681     -1386.6858      4455.0407     -137164.72    
    120500   2620.6852     -5494.9424      4454.1493     -137163.06    
    120600   2367.6357     -3652.529       4413.0674     -137162.58    
    120700   2235.1097      14294.755      4354.4159     -137163.55    
    120800   2431.681       11227.426      4336.3277     -137164.01    
    120900   2839.5147     -91.041166      4377.8954     -137163.97    
    121000   2499.8058     -3995.2451      4453.454      -137158.09    
    121100   2386.7726     -6222.1864      4510.629      -137157.99    
    121200   2431.3236     -3151.8034      4512.5664     -137156.22    
    121300   2672.2138      5510.2902      4472.5632     -137153.83    
    121400   2884.8086     -2810.6912      4446.3581     -137163.41    
    121500   2547.2386     -6226.773       4418.0554     -137161.32    
    121600   2512.6514     -405.40062      4372.2427     -137162.92    
    121700   2421.278       5850.7012      4330.3207     -137165.04    
    121800   2243.5094      10646.79       4340.4136     -137164.86    
    121900   2276.5941      10190.228      4393.482      -137161.69    
    122000   2584.113      -9019.4352      4465.33       -137160.18    
    122100   2530.2855     -8768.2451      4495.0097     -137158.32    
    122200   2561.3651     -8832.2214      4464.3977     -137161.27    
    122300   2523.6987     -3569.1523      4389.4487     -137165.59    
    122400   2457.2277      134.85239      4310.1013     -137169.16    
    122500   2228.5653      7080.1844      4254.3418     -137167.52    
    122600   2396.4817      3708.9051      4230.3196     -137168.86    
    122700   2649.8759      14551.109      4236.3451     -137166.97    
    122800   2512.5166      2623.0456      4316.1644     -137163.4     
    122900   2328.5597     -2557.405       4408.0717     -137162.11    
    123000   2533.7971     -2098.1872      4475.6482     -137168.5     
    123100   2469.8231     -6465.9976      4525.451      -137161.25    
    123200   2521.3177      1561.8677      4531.4001     -137154.68    
    123300   2752.6788     -7810.8989      4524.6385     -137161.15    
    123400   2480.3064     -3780.7362      4483.2918     -137160.64    
    123500   2350.0995      4420.3737      4431.3629     -137158.22    
    123600   2606.7342     -977.99729      4378.6836     -137164.53    
    123700   2485.9572      14909.724      4335.3748     -137163.79    
    123800   2444.5509     -3636.7058      4369.6553     -137165.69    
    123900   2364.4948     -6698.3944      4383.808      -137162.03    
    124000   2535.1362     -4294.3808      4337.6012     -137165.03    
    124100   2635.317       5447.029       4272.3303     -137168.65    
    124200   2338.3056      18820.757      4266.4128     -137166.72    
    124300   2273.4142     -11988.085      4357.5642     -137169.91    
    124400   2475.321      -8219.4455      4416.4809     -137166.03    
    124500   2430.0545      3356.9595      4442.7526     -137159.89    
    124600   2501.6777      2747.6811      4475.6816     -137158.24    
    124700   2732.1317      2363.6523      4510.0718     -137160.55    
    124800   2553.8289     -9827.4575      4538.7741     -137160.52    
    124900   2326.2207     -5719.3505      4510.0522     -137159.22    
    125000   2613.2528     -1565.33        4437.3271     -137163.92    
    125100   2579.0885      14392.594      4358.9807     -137161.53    
    125200   2307.3058     -1138.692       4317.8145     -137161.51    
    125300   2284.1807      5448.9051      4264.6171     -137167.64    
    125400   2504.5607      8380.1846      4228.5891     -137170.11    
    125500   2658.1646      3060.0506      4268.1733     -137168.44    
    125600   2497.5752     -4720.2321      4364.8013     -137161.27    
    125700   2447.1374      1087.5848      4444.1675     -137159.71    
    125800   2280.2633     -889.88933      4520.0051     -137160.44    
    125900   2098.5048     -10924.241      4567.9677     -137160.52    
    126000   2399.1783     -7946.5034      4512.1645     -137160.4     
    126100   2531.1873      14663.959      4391.3857     -137158.59    
    126200   2625.7091      13533.718      4323.9994     -137162.13    
    126300   2442.484       2678.9057      4330.002      -137165.19    
    126400   2371.9218      661.35413      4340.6918     -137165.78    
    126500   2554.5683      1890.724       4345.9526     -137168.54    
    126600   2613.4421      12450.816      4374.5127     -137162.82    
    126700   2942.7397     -2067.422       4446.4631     -137164.16    
    126800   2508.5652     -9510.4034      4522.1195     -137160.7     
    126900   2350.1942     -7685.5685      4529.8577     -137163.64    
    127000   2433.157       1175.3681      4495.373      -137160.88    
    127100   2488.6222      2705.6008      4450.7766     -137156.24    
    127200   2586.0424      9396.8578      4427.2076     -137157.35    
    127300   2378.7131     -3614.9934      4471.3387     -137157.59    
    127400   2371.746      -14670.25       4484.6375     -137164.68    
    127500   2501.8875     -6175.2149      4418.508      -137166.4     
    127600   2482.3191      8728.2881      4332.5163     -137161.99    
    127700   2660.9927      15470.616      4302.0971     -137165.08    
    127800   2315.1845     -1395.8872      4351.6183     -137163.35    
    127900   2230.5094     -3560.7352      4383.9969     -137166.7     
    128000   2127.6894      13705.847      4369.6335     -137158.34    
    128100   2463.2255      5301.2328      4387.1161     -137162.55    
    128200   2670.9431      664.0312       4423.8583     -137165.59    
    128300   2404.8418     -1342.4984      4472.2806     -137157.89    
    128400   2619.3276     -10851.633      4488.6367     -137164.96    
    128500   2376.06        5664.2441      4444.9388     -137164.48    
    128600   2477.8898      5894.7394      4425.8321     -137167.42    
    128700   2596.748       2440.396       4451.7275     -137163.49    
    128800   2595.7792     -5042.49        4509.5846     -137157.96    
    128900   2585.4001     -20.522789      4528.4719     -137160.67    
    129000   2496.9747     -5374.3611      4514.5382     -137160.04    
    129100   2464.0612     -2262.4787      4450.9431     -137159.1     
    129200   2597.7909      11333.001      4366.0752     -137162.24    
    129300   2391.4796     -1515.5938      4351.8174     -137163.29    
    129400   2202.2754      1829.6157      4350.1856     -137162.75    
    129500   2421.1822     -141.36903      4353.2893     -137162.32    
    129600   2685.9011     -1092.0411      4361.2159     -137165.72    
    129700   2458.9288      4167.9868      4351.0546     -137161.94    
    129800   2522.1723     -2805.3674      4348.0988     -137164.28    
    129900   2457.3929      3490.4602      4350.2137     -137162.28    
    130000   2483.7574     -129.1535       4353.7447     -137165.22    
    130100   2442.8308      9156.3809      4355.6371     -137167.09    
    130200   2379.6253      2629.9632      4392.5284     -137164.05    
    130300   2639.753       2843.5878      4440.9105     -137164.36    
    130400   2587.9639     -9888.6769      4491.4872     -137159.75    
    130500   2440.9953     -4158.4494      4481.7716     -137155.64    
    130600   2391.7192      3643.284       4402.7052     -137159.16    
    130700   2493.1729      3315.8298      4298.2915     -137165.42    
    130800   2465.5989      13908.887      4209.5177     -137168.75    
    130900   2341.232       649.12612      4210.1434     -137168       
    131000   2489.9953      13571.014      4254.5063     -137167.2     
    131100   2668.697      -6426.9438      4395.7016     -137165.07    
    131200   2531.7318     -17783.668      4544.9894     -137159.4     
    131300   2489.9884     -10290.906      4572.1667     -137153.67    
    131400   2787.0582     -10855.908      4495.8076     -137154.63    
    131500   2738.4328     -8071.847       4367.033      -137162.56    
    131600   2733.7243      2345.952       4261.6458     -137169.25    
    131700   2472.8291      12229.295      4220.4012     -137168.04    
    131800   2303.7878     -6679.9555      4247.6124     -137167.93    
    131900   2474.7356      8562.043       4257.2456     -137168.83    
    132000   2530.7948      11127.944      4307.7331     -137164.28    
    132100   2518.9172     -856.31183      4417.7724     -137164.74    
    132200   2326.165      -15161.543      4520.1539     -137160.23    
    132300   2481.6204     -2510.9076      4515.2467     -137159.47    
    132400   2858.5103      4326.4353      4474.031      -137164.33    
    132500   2490.8284     -690.93065      4455.0143     -137162.31    
    132600   2342.9074      3812.6251      4446.8556     -137163.11    
    132700   2543.8956     -786.76938      4448.179      -137166.6     
    132800   2604.865      -5271.576       4430.6015     -137161.42    
    132900   2788.035      -2246.6325      4395.9146     -137163.43    
    133000   2656.4395      6088.3197      4386.3334     -137165.31    
    133100   2457.4324      1085.8718      4417.2541     -137163.73    
    133200   2355.2826     -1295.5691      4434.4209     -137162.5     
    133300   2490.0394      2731.3457      4406.7507     -137160.65    
    133400   2653.2891      1754.009       4375.236      -137161.1     
    133500   2448.3967      2907.3309      4371.4882     -137159.62    
    133600   2442.9547     -2763.6396      4390.9012     -137166.89    
    133700   2471.3097     -9286.4532      4404.3938     -137170.03    
    133800   2585.9422     -4944.4947      4384.0049     -137160.87    
    133900   2806.2857      7098.8958      4351.9118     -137163.03    
    134000   2513.3389     -2345.9525      4367.1579     -137161.79    
    134100   2435.6514     -3199.7139      4375.2974     -137165.85    
    134200   2451.3409      5556.6102      4369.2749     -137165.24    
    134300   2544.6129      7594.8993      4402.5732     -137160.34    
    134400   2608.6077     -9442.4334      4482.0127     -137159.02    
    134500   2556.9814     -11467.11       4525.7666     -137159.71    
    134600   2456.5318     -3082.2323      4499.6524     -137158.65    
    134700   2636.3196      1896.8428      4430.0691     -137164.93    
    134800   2379.2858     -11763.254      4397.0793     -137166.94    
    134900   2205.9987      6318.4896      4333.952      -137165.35    
    135000   2361.5993      12754.59       4289.3746     -137162.91    
    135100   2463.1398      5555.1966      4314.5004     -137163.81    
    135200   2600.5219     -6029.5115      4362.7972     -137168.24    
    135300   2449.6963     -1210.235       4396.8783     -137161.99    
    135400   2681.7537      5249.7069      4425.0849     -137159.33    
    135500   2785.4512      6104.4664      4446.6835     -137163.12    
    135600   2563.4005     -18013.141      4486.6997     -137162.57    
    135700   2322.0867     -3940.9035      4467.0046     -137156.82    
    135800   2690.1054      1691.9748      4388.8851     -137163.69    
    135900   2663.6067      7557.5964      4341.941      -137163.49    
    136000   2246.622       10366.373      4353.9726     -137162.41    
    136100   2311.1521     -3598.0114      4401.7943     -137164.49    
    136200   2505.5716     -4350.2595      4426.7394     -137164.33    
    136300   2607.8796     -2691.5764      4443.6773     -137162.59    
    136400   2550.2656     -3834.1064      4441.0463     -137161.02    
    136500   2524.0893      3631.2419      4415.9757     -137162.96    
    136600   2588.5183     -5085.4521      4415.4607     -137168.38    
    136700   2432.0943     -7170.8474      4392.6637     -137166.72    
    136800   2567.4619      14091.332      4337.648      -137162.13    
    136900   2847.9308      5935.1752      4338.5113     -137164.72    
    137000   2376.2903     -2440.0264      4370.7097     -137160.69    
    137100   2470.4016      3678.2795      4407.512      -137167.03    
    137200   2527.3322      2243.3563      4467.114      -137167.67    
    137300   2603.5687     -11207.872      4527.8845     -137162.67    
    137400   2594.9778     -4845.3157      4531.506      -137158.03    
    137500   2640.209      -9600.9475      4468.4551     -137162.59    
    137600   2663.3021      5971.1025      4354.2715     -137166.32    
    137700   2567.8468      12267.838      4268.2438     -137167.88    
    137800   2473.5737      6234.6077      4250.7553     -137167.38    
    137900   2472.1681      4031.2929      4287.7386     -137168.26    
    138000   2384.1485     -475.68714      4352.8019     -137162.48    
    138100   2592.902      -2224.2698      4407.7398     -137158.55    
    138200   2602.5183     -3212.3757      4431.2647     -137158.19    
    138300   2560.7245     -6490.2907      4417.1492     -137162.89    
    138400   2570.4104     -8677.8115      4366.7996     -137167.36    
    138500   2406.1419      13267.717      4290.9255     -137163.02    
    138600   2551.7757     -4427.9121      4276.5731     -137164.97    
    138700   2534.5044      2098.0343      4268.3313     -137166.64    
    138800   2334.878       10204.847      4292.6507     -137169.29    
    138900   2089.1001      781.52558      4371.9394     -137163.67    
    139000   2305.5953     -11152.68       4433.6402     -137164.18    
    139100   2713.7871     -1078.8665      4425.0446     -137168.47    
    139200   2456.8479      7207.2767      4391.8285     -137160.7     
    139300   2475.3326     -62.57691       4381.4555     -137163.28    
    139400   2303.6058     -1474.704       4363.4578     -137162.95    
    139500   2374.4874      4131.4964      4335.9784     -137162.43    
    139600   2670.9977      12212.224      4332.8668     -137162.64    
    139700   2478.3377      2700.8176      4364.5451     -137159.15    
    139800   2596.745      -9585.7585      4412.4982     -137166.55    
    139900   2336.9429     -7040.2802      4427.5625     -137169.49    
    140000   2256.0994      514.68744      4396.0898     -137166.21    
    140100   2361.7214      945.4959       4338.2647     -137162.03    
    140200   2615.396       9449.6838      4276.9442     -137165.11    
    140300   2474.0245      12364.892      4271.8912     -137164.26    
    140400   2264.3113      2642.893       4327.8672     -137163.42    
    140500   2314.7352      7508.9803      4393.559      -137163.27    
    140600   2770.3371     -19633.392      4471.7371     -137163.08    
    140700   2697.055      -3653.8768      4473.0944     -137161.39    
    140800   2576.3634     -10660.944      4460.972      -137162.73    
    140900   2418.6029     -1949.02        4435.7219     -137162.91    
    141000   2424.6213     -5138.3628      4398.9623     -137166.01    
    141100   2484.8014      9345.4607      4344.5308     -137165.81    
    141200   2419.0474      3297.3962      4324.8871     -137158.7     
    141300   2577.0147      15919.624      4334.659      -137160.35    
    141400   2506.3367     -18616.244      4407.4427     -137165.81    
    141500   2504.7283     -2078.572       4419.9616     -137168.69    
    141600   2454.8585     -5834.0598      4426.814      -137165.64    
    141700   2350.6438      8089.2588      4398.8439     -137159.64    
    141800   2488.8283     -1002.9724      4368.045      -137161.48    
    141900   2373.0252      13362.091      4333.8277     -137159.67    
    142000   2599.7948      3442.0724      4336.3682     -137170.74    
    142100   2085.089      -4077.5241      4368.0625     -137162.03    
    142200   2487.4271      3004.5352      4367.0716     -137163.79    
    142300   2450.3018      3866.7219      4363.542      -137158.62    
    142400   2607.0131     -1560.4948      4378.7781     -137166.23    
    142500   2416.6389     -4523.0415      4416.4454     -137167.63    
    142600   2278.1211     -11764.845      4438.0704     -137163.06    
    142700   2654.87        631.4336       4381.4839     -137166.25    
    142800   2569.672       8685.2541      4313.9981     -137164.12    
    142900   2495.5077     -3126.3786      4286.7383     -137166.12    
    143000   2385.2319      11531.001      4276.4892     -137165.08    
    143100   2567.1956      9842.0223      4349.8501     -137163.3     
    143200   2617.6874     -10121.517      4479.4589     -137158.39    
    143300   2564.5944     -9263.1843      4564.5845     -137158.81    
    143400   2277.2753     -5366.878       4577.577      -137156.83    
    143500   2363.7711     -5503.0395      4514.3487     -137159.33    
    143600   2595.5449      11999.258      4394.6921     -137163.89    
    143700   2467.5068      9280.146       4331.6635     -137162.44    
    143800   2481.1756      3701.3312      4326.0871     -137166.2     
    143900   2342.4787     -1681.6554      4361.9446     -137163.91    
    144000   2580.9203     -743.98792      4397.3207     -137163.9     
    144100   2598.4805      8785.6761      4422.0058     -137159.31    
    144200   2466.1509     -3346.6405      4476.2253     -137157.55    
    144300   2466.8202     -11350.312      4505.9191     -137165.2     
    144400   2360.3024     -1683.5377      4467.6431     -137167.23    
    144500   2455.8364      13487.087      4432.051      -137164.57    
    144600   2489.1493     -1373.5612      4468.2485     -137159.49    
    144700   2339.7012     -11858.492      4475.8929     -137155.36    
    144800   2564.08        6857.2009      4408.1923     -137160.23    
    144900   2329.4114      10262.114      4367.5804     -137154.82    
    145000   2532.0325      1309.7561      4392.6096     -137164.56    
    145100   2319.8945     -7438.767       4422.0829     -137165.34    
    145200   2228.454      -7019.7603      4392.069      -137163.69    
    145300   2561.5734      11447.215      4323.3376     -137163.25    
    145400   2684.6829      1068.3015      4327.4068     -137164.9     
    145500   2472.487      -1125.3056      4386.2839     -137163.72    
    145600   2401.3863     -3218.9144      4437.7331     -137165.18    
    145700   2357.7894      1667.3444      4474.5864     -137161.21    
    145800   2418.2509     -792.86465      4515.7051     -137151.09    
    145900   2748.0432     -13235.119      4542.6952     -137158.85    
    146000   2528.941      -5134.8819      4489.4871     -137159.92    
    146100   2469.5763      4604.9822      4386.8033     -137162.51    
    146200   2419.8368      13791.281      4286.3669     -137164.8     
    146300   2445.7631      8496.8283      4245.6898     -137168.54    
    146400   2228.3803      7807.8645      4270.3958     -137169.69    
    146500   2245.0057     -3311.6263      4334.9816     -137172.47    
    146600   2441.477       149.34997      4384.1809     -137168.23    
    146700   2600.4611     -9977.9586      4421.7241     -137167.94    
    146800   2566.5687     -5766.5299      4400.8287     -137163.41    
    146900   2629.6484      5979.5688      4332.7416     -137163.3     
    147000   2368.685       2011.3815      4282          -137165.13    
    147100   2378.7371      6027.4622      4235.8        -137168.28    
    147200   2566.3282      17710.652      4213.86       -137170.68    
    147300   2537.951       427.40051      4277.125      -137168.71    
    147400   2583.8552      6422.9022      4384.35       -137167.84    
    147500   2492.0343     -14045.307      4514.4204     -137159.4     
    147600   2677.2318     -3977.5881      4550.6853     -137158.28    
    147700   2669.7157     -4207.8908      4551.1188     -137157.22    
    147800   2427.3584     -11857.589      4520.9819     -137159.35    
    147900   2471.7889      1288.1015      4413.5354     -137166.21    
    148000   2380.9368      7187.5423      4292.4722     -137162.24    
    148100   2619.7231      15305.584      4219.792      -137164.13    
    148200   2487.1605      12051.624      4241.5403     -137164.11    
    148300   2348.0403     -4502.9406      4325.9204     -137170.91    
    148400   2242.5912     -1781.3515      4400.887      -137163.67    
    148500   2489.1653     -10232.711      4441.8381     -137162.45    
    148600   2661.4127      1123.6101      4436.7943     -137163.03    
    148700   2550.1228      4717.9003      4429.8763     -137161.98    
    148800   2414.3598     -226.72212      4456.0552     -137164.44    
    148900   2346.7844     -15176.619      4495.2217     -137168.4     
    149000   2491.1112     -17503.597      4462.6451     -137167.13    
    149100   2469.1351      8626.3128      4363.5131     -137161.37    
    149200   2587.8891      3595.4588      4282.9175     -137165.29    
    149300   2572.7019     -343.27592      4235.0626     -137169.81    
    149400   2454.5825      11731.364      4238.6065     -137171.74    
    149500   2249.0506      10717.314      4301.1359     -137165.9     
    149600   2644.0036      8772.8613      4402.6195     -137166.19    
    149700   2376.1494     -11798.881      4526.9404     -137156.25    
    149800   2589.3317     -3387.5305      4566.8041     -137158.4     
    149900   2472.5283      818.85133      4557.4271     -137152.54    
    150000   2748.0907      4279.7639      4521.1348     -137155.59    
    150100   2578.4891     -5494.247       4487.3274     -137157.24    
    150200   2595.0609     -2071.2047      4448.3424     -137164.8     
    150300   2477.429       2041.3811      4413.2343     -137164.46    
    150400   2388.7384      3306.2582      4386.9144     -137163.53    
    150500   2436.3526      4559.7707      4381.0993     -137160.27    
    150600   2691.7264      1725.3448      4378.6542     -137160.52    
    150700   2562.5862      3986.392       4365.9727     -137162.03    
    150800   2472.1321     -4175.6535      4362.361      -137164.62    
    150900   2450.2094      2086.7667      4335.2988     -137164.1     
    151000   2461.7166      3563.1108      4317.3678     -137162.4     
    151100   2578.4126      9277.7563      4342.4277     -137165.11    
    151200   2517.4913     -9711.0155      4414.155      -137164.67    
    151300   2580.8692     -7822.4003      4447.7808     -137165.85    
    151400   2705.0378     -2535.4204      4434.1621     -137162.55    
    151500   2800.1186     -4274.7942      4406.8115     -137163.65    
    151600   2455.7327      188.98881      4375.0503     -137162.39    
    151700   2486.6313      5307.8249      4345.75       -137166.98    
    151800   2348.5856      3088.6085      4353.6126     -137163.43    
    151900   2451.4398      3340.583       4387.573      -137162.23    
    152000   2591.9975      2162.7631      4417.4705     -137158.89    
    152100   2913.2101     -6614.8878      4429.4927     -137157.13    
    152200   2629.2033      4977.2971      4403.5618     -137160.84    
    152300   2448.1733     -595.46946      4390.7092     -137161.64    
    152400   2542.3276      1784.9346      4361.8536     -137168.25    
    152500   2607.4704     -5016.9121      4355.4914     -137170.03    
    152600   2487.1239      7082.551       4381.1819     -137161.29    
    152700   2659.8637     -5078.4484      4456.7623     -137161.63    
    152800   2680.2627     -20534.833      4502.1457     -137164.03    
    152900   2371.5214     -4337.7444      4454.0291     -137165.27    
    153000   2254.1541      5754.2513      4351.719      -137164.58    
    153100   2520.1767      5688.4812      4267.3051     -137167.79    
    153200   2446.9813      9261.9607      4252.3797     -137163.96    
    153300   2624.1943      9075.5749      4302.2009     -137167.49    
    153400   2348.0867     -5547.6862      4415.002      -137159.74    
    153500   2692.879      -3105.6759      4499.3734     -137160.18    
    153600   2592.5691     -6422.6748      4544.6934     -137155.83    
    153700   2623.4753     -17026.441      4550.4176     -137163.82    
    153800   2564.2152     -9040.1039      4468.1093     -137167.36    
    153900   2529.7188      2087.2421      4316.9844     -137167.37    
    154000   2514.6084      8712.4826      4204.9781     -137165.79    
    154100   2520.5257      9516.187       4178.2305     -137167.54    
    154200   2453.1574      7120.6677      4238.2273     -137168.58    
    154300   2366.8472     -1849.2238      4342.7456     -137165.72    
    154400   2549.57       -4201.78        4423.1427     -137162.87    
    154500   2541.3031     -10153.389      4472.4398     -137158.28    
    154600   2526.2198      2610.5114      4475.1343     -137157.83    
    154700   2590.39        1752.7644      4471.0645     -137166.62    
    154800   2355.5287     -10976.862      4468.3851     -137168.12    
    154900   2442.1241     -1892.0379      4416.3263     -137167.31    
    155000   2463.749       2843.0532      4379.4255     -137162.03    
    155100   2690.342       5719.2234      4371.8315     -137165.09    
    155200   2419.5051     -3172.9378      4414.6857     -137160.69    
    155300   2356.0188     -13714.633      4443.4153     -137160.33    
    155400   2656.5262     -664.64729      4395.8804     -137159.39    
    155500   2796.67        18802.733      4356.6179     -137160.34    
    155600   2592.3476     -558.94504      4396.3225     -137162.35    
    155700   2462.9728     -4502.5623      4441.6876     -137163.13    
    155800   2366.6253     -2904.6271      4440.3652     -137160.36    
    155900   2565.0071     -3379.677       4388.0518     -137157.57    
    156000   2756.8535     -5692.7122      4314.5333     -137160.6     
    156100   2809.6196      16471.473      4245.5219     -137168.39    
    156200   2536.0669     -4138.7235      4277.3922     -137167.1     
    156300   2535.1034     -2984.8879      4322.4316     -137171.68    
    156400   2238.5276      2504.0754      4359.3177     -137166.18    
    156500   2413.525      -6653.6335      4388.0818     -137165.29    
    156600   2614.3184      7040.9223      4396.9425     -137161.5     
    156700   2671.7845     -13062.808      4445.5843     -137163.11    
    156800   2489.5401     -9370.4077      4454.9633     -137162.63    
    156900   2385.7617      5942.6107      4427.6607     -137162.81    
    157000   2473.575       2062.6576      4405.1979     -137163.33    
    157100   2576.4786      3393.4513      4383.184      -137159.51    
    157200   2434.9577      7514.4411      4366.4711     -137156.49    
    157300   2356.9827      3836.7033      4389.0192     -137160.78    
    157400   2370.046      -14111.414      4460.7814     -137163.34    
    157500   2496.0013     -8308.8789      4481.1204     -137156.46    
    157600   2606.9434     -473.68553      4455.026      -137156.81    
    157700   2502.3129     -2455.0965      4417.8117     -137158.62    
    157800   2376.9031      8017.1088      4357.2199     -137161.85    
    157900   2525.6033      6502.9136      4315.7612     -137168.3     
    158000   2249.3824     -1701.7428      4311.6846     -137162.28    
    158100   2475.5156     -4708.1726      4299.0149     -137160.76    
    158200   2672.5588      12577.356      4282.3112     -137161.1     
    158300   2614.4717      234.69706      4359.715      -137164.3     
    158400   2397.4229     -10461.896      4477.1286     -137163.32    
    158500   2386.7358     -10585.027      4555.3766     -137161       
    158600   2540.8991     -6519.9632      4557.5489     -137153.67    
    158700   2588.2418      12335.517      4495.4272     -137155.16    
    158800   2469.3854     -1231.7943      4457.8275     -137158.62    
    158900   2452.0359      3157.2643      4396.4121     -137162.49    
    159000   2591.4426      4256.5987      4319.8721     -137166.8     
    159100   2534.0753     -3472.9152      4269.1346     -137165.62    
    159200   2434.7372      7829.858       4244.214      -137167.18    
    159300   2315.6148      106.2585       4299.011      -137168.25    
    159400   2450.0624     -4212.3693      4371.209      -137167.12    
    159500   2566.9046     -5307.6395      4430.7367     -137162.52    
    159600   2664.7369     -4159.7015      4471.988      -137163.51    
    159700   2503.4621     -3041.9805      4488.2353     -137160.82    
    159800   2460.0642     -12759.802      4491.5727     -137160.22    
    159900   2631.9972     -4304.8991      4449.7664     -137161.99    
    160000   2584.3258      449.10368      4374.9833     -137162.15    
    160100   2521.4049      1208.0384      4299.867      -137168.36    
    160200   2257.9712      8969.4734      4272.3565     -137163.39    
    160300   2674.1499      5330.9463      4286.1306     -137170.69    
    160400   2474.668       6064.8175      4342.988      -137163.19    
    160500   2510.2049      5601.4281      4441.4448     -137156.92    
    160600   2615.831      -7766.1648      4536.9742     -137153.05    
    160700   2732.0515     -9931.4133      4562.497      -137157.22    
    160800   2588.0372     -5190.1213      4515.6786     -137163.11    
    160900   2470.46       -2400.7979      4453.4456     -137161.98    
    161000   2336.4266      4686.3496      4398.1497     -137158.27    
    161100   2431.1744      5423.659       4352.3038     -137160.71    
    161200   2356.7985      12928.526      4341.1291     -137158.8     
    161300   2494.512       2193.4675      4385.99       -137162.63    
    161400   2516.4513     -10799.982      4448.8421     -137164.9     
    161500   2516.6122     -681.15719      4475.3833     -137163.39    
    161600   2546.8922     -1010.0513      4491.0564     -137161.2     
    161700   2569.3747     -3770.567       4499.9209     -137160.02    
    161800   2491.5957     -3206.8282      4488.9097     -137162.08    
    161900   2233.5261     -2177.0402      4447.1525     -137160.12    
    162000   2639.4515     -1155.6096      4387.5159     -137166.79    
    162100   2801.6585      19988.108      4364.3575     -137163.42    
    162200   2427.6481      5101.6346      4447.0468     -137159.22    
    162300   2327.062      -11876.179      4522.1751     -137156.28    
    162400   2557.5176     -1564.0601      4524.5233     -137157.08    
    162500   2522.243      -202.79611      4524.449      -137152.76    
    162600   2537.8799     -7857.3158      4490.4972     -137156.37    
    162700   2398.4297     -296.63418      4415.0242     -137162.4     
    162800   2443.4928     -2579.1162      4360.3371     -137165.18    
    162900   2541.0541      3873.6039      4319.339      -137165.35    
    163000   2546.1407      3620.0704      4307.5163     -137167.14    
    163100   2425.2507      4563.9893      4354.9239     -137170.8     
    163200   2247.5207     -8607.3085      4427.7223     -137166.54    
    163300   2653.4723      1233.4288      4443.9128     -137165.17    
    163400   2703.5244     -6558.5781      4453.9129     -137163.59    
    163500   2753.4288     -5282.3403      4431.0208     -137163.79    
    163600   2661.7238     -729.30913      4394.9736     -137164.82    
    163700   2434.3451     -2730.0901      4362.7921     -137164.14    
    163800   2509.4403      4991.6427      4314.2736     -137167.43    
    163900   2565.4877      7382.5868      4298.2633     -137167.99    
    164000   2680.2804      5497.3572      4330.447      -137166.13    
    164100   2616.5787     -3288.348       4415.4686     -137163.89    
    164200   2385.3093     -19492.488      4519.7928     -137163.31    
    164300   2366.1197     -10727.678      4540.693      -137162.68    
    164400   2585.7143      7899.5496      4476.4008     -137159.1     
    164500   2724.5389      5161.7895      4419.3675     -137159.68    
    164600   2580.203      -302.24112      4391.334      -137160.99    
    164700   2417.2423     -742.90945      4350.1625     -137160.72    
    164800   2422.1962      4628.7546      4312.534      -137162.17    
    164900   2442.4084      5542.5552      4296.3373     -137163.7     
    165000   2386.9254      6851.6411      4285.8801     -137167.39    
    165100   2348.3318      57.92579       4316.4109     -137171.51    
    165200   2270.3875     -3668.6636      4366.0228     -137164.42    
    165300   2488.7927      5605.5238      4401.5367     -137162.11    
    165400   2497.579      -196.54375      4435.5125     -137160.13    
    165500   2467.7696     -3201.0682      4443.743      -137154.99    
    165600   2836.694       9993.9124      4421.7086     -137161.19    
    165700   2399.305      -9205.905       4436.0879     -137158.5     
    165800   2398.9612     -6953.563       4422.403      -137160.36    
    165900   2624.3669      4901.4323      4385.2528     -137164.66    
    166000   2628.1796      1164.4962      4393.5983     -137165.25    
    166100   2467.4103     -12677.8        4425.8799     -137165.14    
    166200   2420.3908     -6959.2266      4394.8039     -137170.3     
    166300   2384.8668     -776.03655      4322.9691     -137167.55    
    166400   2532.4382      13949.958      4251.6785     -137162.94    
    166500   2814.0426      4976.0022      4256.6024     -137169.28    
    166600   2439.9488      6353.0574      4361.8488     -137163.84    
    166700   2455.0872     -13568.661      4517.7097     -137165.7     
    166800   2276.3253     -6021.1135      4611.3951     -137155.98    
    166900   2343.7279     -14716.674      4621.1392     -137152.9     
    167000   2660.8556     -2405.2641      4503.7091     -137159.86    
    167100   2635.5678      1186.9657      4346.2858     -137163.53    
    167200   2382.834       12905.66       4248.4966     -137162.54    
    167300   2571.5834      11470.688      4240.9437     -137170.53    
    167400   2265.0567     -2994.5874      4310.7305     -137165.18    
    167500   2367.47       -1583.4326      4376.5063     -137161.95    
    167600   2502.834      -699.28885      4411.1033     -137157.55    
    167700   2575.1547      5987.4951      4412.8654     -137156.99    
    167800   2537.0493     -3658.6623      4426.8902     -137161.09    
    167900   2393.5011     -5103.6087      4405.3068     -137163.1     
    168000   2560.3898     -3547.7812      4345.6366     -137168.58    
    168100   2424.7479      10563.239      4290.469      -137164.76    
    168200   2523.7082      3139.6849      4305.9586     -137164.53    
    168300   2647.6065     -1054.4012      4354.578      -137163.3     
    168400   2551.4897     -1359.3827      4388.2855     -137161.47    
    168500   2386.0121      3459.3611      4399.0898     -137164.03    
    168600   2200.5118      929.9276       4389.0449     -137162.15    
    168700   2634.9503     -6337.7018      4339.6706     -137168.69    
    168800   2513.2171      11658.723      4285.7052     -137163.73    
    168900   2595.9435     -2899.1325      4280.9908     -137166.83    
    169000   2662.3273      8885.7336      4279.7504     -137171.08    
    169100   2268.9008      3097.2263      4344.1201     -137162.94    
    169200   2411.4872     -5115.2696      4428.5685     -137160.28    
    169300   2588.5141      5480.1818      4485.4146     -137158.25    
    169400   2602.5421     -5426.1742      4549.3896     -137158.25    
    169500   2531.7626     -7769.4729      4573.6122     -137154.92    
    169600   2795.9297     -619.90152      4530.5653     -137164.21    
    169700   2347.5206      11571.196      4500.2802     -137161.45    
    169800   2285.3425     -11901.182      4504.8797     -137159.74    
    169900   2649.3356     -1013.7421      4435.9849     -137163.29    
    170000   2644.2225      3276.1039      4367.3683     -137161.25    
    170100   2606.9933      4787.4918      4338.906      -137165.72    
    170200   2433.9485      6045.4532      4377.9479     -137163.68    
    170300   2363.9104     -10604.349      4443.4893     -137160.89    
    170400   2671.8345     -8107.6217      4448.4824     -137162.3     
    170500   2610.102       3729.5015      4414.2798     -137159.53    
    170600   2603.1027      8713.6393      4414.1903     -137163.85    
    170700   2373.3558     -543.97411      4481.6202     -137161.63    
    170800   2344.3665     -10884.477      4557.1845     -137159.3     
    170900   2607.3276     -8033.8766      4550.8688     -137161.16    
    171000   2560.3634     -4440.1975      4485.1123     -137156.71    
    171100   2561.8555      2982.3668      4392.1409     -137158.97    
    171200   2624.1584      494.70654      4328.2899     -137171.27    
    171300   2289.4926     -3489.949       4311.8166     -137164.7     
    171400   2552.4905     -3965.2984      4271.068      -137166.7     
    171500   2724.8738      13566.013      4226.6937     -137166.86    
    171600   2477.5903      5909.5061      4263.1547     -137164.81    
    171700   2540.8932     -4509.9012      4313.7162     -137168.52    
    171800   2602.5039      4422.5315      4330.8079     -137170.23    
    171900   2333.2593      6575.9327      4390.3449     -137163.47    
    172000   2450.6916     -2904.805       4465.8196     -137161.43    
    172100   2542.4845      1616.332       4512.8886     -137155.07    
    172200   2588.7223     -3274.2952      4546.2446     -137156.83    
    172300   2535.8035     -3055.805       4538.6336     -137160.25    
    172400   2538.2876      1694.737       4498.161      -137163.57    
    172500   2368.5556      839.52218      4447.1868     -137158.04    
    172600   2857.4083      9890.6625      4400.2156     -137160.71    
    172700   2396.1591      10621.625      4431.0636     -137149.69    
    172800   2398.6498      325.51644      4523.0889     -137156.46    
    172900   2432.6945     -10305.586      4586.227      -137160.19    
    173000   2515.4171     -10483.242      4568.5222     -137159.87    
    173100   2617.3817     -4046.2972      4489.4466     -137160.43    
    173200   2589.4065     -176.21152      4404.5087     -137161.55    
    173300   2465.9297      5208.9198      4360.5432     -137167.92    
    173400   2353.9447      3028.1274      4361.7764     -137166.73    
    173500   2420.8309     -2044.6058      4385.9013     -137163.37    
    173600   2619.6211     -2025.29        4409.2075     -137163.27    
    173700   2513.538      -790.62639      4421.2404     -137160.04    
    173800   2623.0769     -7777.6701      4416.7178     -137166.33    
    173900   2174.188       591.6871       4391.1741     -137161.64    
    174000   2235.2036      3717.8098      4374.5954     -137164.48    
    174100   2801.9416     -7739.295       4384.9695     -137168.59    
    174200   2566.7164     -6738.9215      4382.3163     -137163.72    
    174300   2482.6927      4646.7197      4354.3093     -137165.38    
    174400   2391.7413     -2741.0035      4349.1759     -137165.87    
    174500   2549.0746      4610.261       4362.5384     -137166.11    
    174600   2508.439      -2924.9387      4429.4038     -137155.79    
    174700   2603.7421     -3694.0577      4491.1574     -137155.89    
    174800   2537.5698     -1766.7076      4537.133      -137157.14    
    174900   2352.3614     -14928.62       4565.3972     -137161.34    
    175000   2430.3005     -14426.133      4495.3133     -137163.7     
    175100   2570.2912      5028.98        4337.7749     -137164.85    
    175200   2538.58        16514.551      4243.296      -137163.89    
    175300   2390.1193      9648.7027      4267.6079     -137167.75    
    175400   2391.8134     -11997.336      4361.3539     -137173.46    
    175500   2206.1958     -2992.3837      4407.0889     -137162.78    
    175600   2557.3754      1895.7652      4396.384      -137166.24    
    175700   2518.3594      953.7299       4393.9081     -137162.7     
    175800   2491.6495      2495.6344      4405.9497     -137161.29    
    175900   2586.2662     -4006.3085      4423.0818     -137162.84    
    176000   2522.337      -1984.2238      4423.9611     -137158.6     
    176100   2607.3563      5802.0868      4399.9789     -137159.44    
    176200   2516.4547     -11254.221      4407.937      -137163.04    
    176300   2407.1869      1097.496       4390.8574     -137165.42    
    176400   2404.1498     -1077.2593      4373.6736     -137164.05    
    176500   2692.9086      9677.6878      4356.3762     -137164.89    
    176600   2681.6952     -1085.0668      4387.1299     -137157.79    
    176700   2613.6478      1184.2578      4440.181      -137158.08    
    176800   2535.7056     -7006.3526      4494.3281     -137158.51    
    176900   2168.1434      9923.5949      4486.5685     -137153.84    
    177000   2534.2314      7920.3523      4488.5285     -137163.33    
    177100   2498.3765     -7621.7679      4505.0644     -137160.65    
    177200   2566.9795     -8926.6006      4468.2889     -137157.84    
    177300   2503.9133      8889.8253      4388.2461     -137154.82    
    177400   2535.7918     -4520.9783      4315.8406     -137164.97    
    177500   2441.8177      13496.676      4231.616      -137165.97    
    177600   2495.0549      20761.066      4214.4083     -137166.64    
    177700   2422.1436      5534.6415      4289.4252     -137163.2     
    177800   2571.1359      5610.4083      4399.7228     -137159.31    
    177900   2683.6448     -90.769923      4508.4099     -137158.82    
    178000   2467.4083     -4531.4896      4592.2507     -137157.43    
    178100   2336.1496     -17571.458      4615.6348     -137159.93    
    178200   2435.8109      2489.9304      4544.6098     -137157.83    
    178300   2594.056       6375.5418      4473.7509     -137152.1     
    178400   2709.3529     -1210.5871      4429.4489     -137158.03    
    178500   2575.2118     -3838.1737      4387.6098     -137163.73    
    178600   2411.4123     -1250.5399      4330.1032     -137164.32    
    178700   2390.1018      6993.0871      4267.4162     -137163.37    
    178800   2669.1828      15951.668      4262.7701     -137164.87    
    178900   2734.5082      15244.756      4349.6959     -137165       
    179000   2292.8833     -8052.9714      4466.5669     -137163.95    
    179100   2389.8846      284.80793      4516.6174     -137166.12    
    179200   2484.1028     -10933.536      4538.8633     -137163.78    
    179300   2503.2029      1828.5616      4517.1668     -137158.63    
    179400   2658.8375     -6080.1301      4498.8421     -137161.17    
    179500   2414.181       12890.119      4463.3734     -137157.08    
    179600   2477.9498     -1808.8065      4469.5399     -137161.09    
    179700   2345.3729      5652.6339      4451.7459     -137157.68    
    179800   2553.4759      4509.146       4425.9548     -137161.28    
    179900   2790.3578     -152.53504      4426.2679     -137159.09    
    180000   2555.7028      11751.845      4433.5435     -137152.48    
    180100   2343.2399      1288.6539      4465.333      -137157.48    
    180200   2572.8575     -3682.2852      4473.6611     -137163.85    
    180300   2582.5676     -1127.3246      4445.6857     -137163.63    
    180400   2375.6412      4308.6573      4407.2578     -137161.82    
    180500   2396.332      -3760.0383      4393.1251     -137169.13    
    180600   2194.3076     -1947.2123      4365.9949     -137163.26    
    180700   2458.0899      8555.4276      4333.1634     -137160.54    
    180800   2530.5227      12849.258      4328.3528     -137162.23    
    180900   2394.1295     -1019.9846      4372.8216     -137161.42    
    181000   2336.0113     -4231.6323      4419.2538     -137160.88    
    181100   2535.9264     -1157.9326      4434.6714     -137159.05    
    181200   2731.5105     -3461.0439      4423.8315     -137158.77    
    181300   2510.5476     -1081.8756      4395.4671     -137156.92    
    181400   2541.4167      347.61318      4370.6789     -137164.19    
    181500   2458.8712     -1249.4542      4351.029      -137162.58    
    181600   2681.9622      5857.8234      4328.1736     -137168.35    
    181700   2370.9375      2100.23        4344.3553     -137163.09    
    181800   2488.4545     -3099.2013      4365.1331     -137167.47    
    181900   2477.0389      4984.1125      4376.063      -137163.35    
    182000   2595.1781      5000.7964      4408.6941     -137159.5     
    182100   2814.817      -3845.0188      4453.0395     -137163.87    
    182200   2379.1438     -8010.4314      4482.8997     -137162.48    
    182300   2397.1026     -8079.9707      4496.1479     -137162.34    
    182400   2588.3915     -6063.171       4471.8004     -137162.78    
    182500   2602.6946      8737.086       4399.5371     -137163.47    
    182600   2240.7383     -3114.176       4360.5922     -137161.63    
    182700   2312.3133      4150.3491      4322.7864     -137165.09    
    182800   2505.0917      11679.666      4298.6308     -137166.59    
    182900   2529.4794     -8543.3359      4329.4499     -137166.46    
    183000   2451.6427     -6107.417       4341.2918     -137165.01    
    183100   2592.4634     -6593.4751      4331.7453     -137169.21    
    183200   2437.223       3837.9234      4299.1509     -137166.46    
    183300   2485.9534      11876.093      4277.392      -137167.42    
    183400   2408.0875      468.72405      4327.9191     -137163.84    
    183500   2566.8611      119.82707      4420.2218     -137160.45    
    183600   2559.2289     -10285.724      4523.3065     -137157.35    
    183700   2424.3693     -15042.337      4544.831      -137158.22    
    183800   2408.4054     -3548.9325      4466.5691     -137161.8     
    183900   2489.4121      8552.0711      4372.1696     -137160.77    
    184000   2699.2946     -1311.034       4339.6715     -137165.95    
    184100   2383.1526      9740.7373      4353.8013     -137161.13    
    184200   2379.6352     -1916.1501      4396.6862     -137165.03    
    184300   2484.2667     -7467.7518      4395.0923     -137168.82    
    184400   2608.785       7035.7466      4352.7996     -137165.51    
    184500   2735.8283      9539.7048      4348.2676     -137163.66    
    184600   2374.4757     -312.43498      4399.6413     -137161.13    
    184700   2439.5303     -8607.0338      4447.9271     -137168.36    
    184800   2403.9871     -921.92704      4462.9419     -137163.34    
    184900   2488.2134     -1786.1421      4470.5464     -137159.02    
    185000   2594.9961      1338.5329      4454.3418     -137158.58    
    185100   2510.7513     -980.73392      4415.8678     -137158.97    
    185200   2372.7746     -2280.2677      4390.4149     -137164.21    
    185300   2233.984      -5760.3875      4342.145      -137164.48    
    185400   2395.1726      21075.323      4253.441      -137164.75    
    185500   2587.8634      3890.143       4256.0005     -137167.85    
    185600   2436.5774      739.44654      4300.1325     -137165.45    
    185700   2390.6805      3241.967       4381.3452     -137162.99    
    185800   2602.1063     -10300.018      4470.2777     -137159.34    
    185900   2608.0015     -8107.8822      4494.5576     -137158.37    
    186000   2516.0296     -3473.0496      4453.6291     -137161.68    
    186100   2457.0384      6296.6794      4383.3318     -137164.38    
    186200   2377.2401     -1614.3129      4344.0927     -137166.61    
    186300   2299.5973      3063.2446      4332.9392     -137166.97    
    186400   2443.7763     -1708.1579      4336.3337     -137163.63    
    186500   2506.6718      4749.8975      4350.5754     -137159.26    
    186600   2743.1953      3806.9752      4423.0454     -137165.69    
    186700   2511.8115     -17193.222      4531.3106     -137165.95    
    186800   2395.1109     -13287.116      4547.8125     -137161.14    
    186900   2794.9689      213.78498      4450.5267     -137161.14    
    187000   2837.3982     -6633.724       4352.0745     -137166.54    
    187100   2480.3462      13174.186      4274.6941     -137165.94    
    187200   2459.9275      4277.0274      4269.3688     -137168.78    
    187300   2487.0772      8642.3309      4312.8526     -137168.05    
    187400   2545.2676      6371.9602      4389.4872     -137162.86    
    187500   2674.3682     -8625.2952      4467.4647     -137163.52    
    187600   2438.1439     -8901.0906      4482.6955     -137164.42    
    187700   2309.521      -3572.7195      4436.0122     -137165.92    
    187800   2312.24        4154.4571      4365.9447     -137162.74    
    187900   2640.0284      7272.2655      4322.9281     -137165.01    
    188000   2529.7022      3194.6051      4338.8756     -137161.58    
    188100   2437.1952     -8636.1203      4375.4679     -137162.12    
    188200   2475.2969      9245.8224      4384.1367     -137159.71    
    188300   2637.4198     -987.84108      4408.8908     -137155.71    
    188400   2691.6041     -4019.6388      4424.5758     -137157.22    
    188500   2355.4645     -2291.0787      4437.0387     -137157.74    
    188600   2538.3345      2862.5006      4424.3212     -137162.99    
    188700   2485.6006      3781.7159      4412.7725     -137160.03    
    188800   2586.1788      4450.709       4415.6036     -137161.66    
    188900   2677.3927      582.00483      4432.1118     -137162.24    
    189000   2470.6497     -363.54902      4434.9779     -137157.15    
    189100   2444.4981     -4853.2022      4422.4589     -137161.41    
    189200   2430.3761     -3847.312       4400.3085     -137166.41    
    189300   2332.1727     -368.37987      4369.3852     -137161.22    
    189400   2690.1309      14593.863      4332.4683     -137162.02    
    189500   2642.7474     -635.22538      4375.8808     -137163.57    
    189600   2329.6774      5497.3475      4424.4971     -137158.53    
    189700   2466.2538     -2306.7272      4460.6274     -137161.1     
    189800   2829.4496     -2175.3812      4483.6964     -137167.85    
    189900   2489.7371      913.71471      4499.3978     -137161.09    
    190000   2328.0602     -13025.745      4501.221      -137163.61    
    190100   2472.2078     -10337.636      4434.6059     -137167.59    
    190200   2631.6717      3157.8817      4322.97       -137163.07    
    190300   2881.6006      14246.548      4252.504      -137169.28    
    190400   2558.9107      5402.6742      4308.0586     -137165.73    
    190500   2454.6083     -9295.6127      4408.717      -137165.79    
    190600   2289.0892      6337.0005      4460.4923     -137161.06    
    190700   2519.6232      7497.6979      4501.9674     -137156.33    
    190800   2713.7898     -10945.44       4544.5999     -137158.35    
    190900   2533.8201     -9699.6646      4542.9981     -137157.42    
    191000   2490.9462     -302.95144      4478.8137     -137162.17    
    191100   2549.3996     -3565.7398      4388.9399     -137167.39    
    191200   2428.4964      4913.3298      4295.5456     -137169.14    
    191300   2184.1351      8541.5262      4251.0092     -137170.49    
    191400   2338.1698     -3561.7157      4257.0314     -137170.18    
    191500   2522.9721      4612.9554      4263.9054     -137168.24    
    191600   2646.0799      4294.3411      4293.6747     -137169.76    
    191700   2544.6564     -6136.8983      4336.8169     -137168.71    
    191800   2423.9507     -5571.5788      4352.6608     -137165.2     
    191900   2567.3259     -4784.3016      4362.7852     -137160.74    
    192000   2615.3423      4482.4497      4372.9078     -137157.61    
    192100   2674.2792      2258.7175      4394.9403     -137162.84    
    192200   2352.9496     -9179.7331      4429.8974     -137159.91    
    192300   2544.3136     -3144.4072      4433.1949     -137164.08    
    192400   2533.0274     -5894.7737      4430.5009     -137160.47    
    192500   2450.7193      11771.882      4407.1541     -137156.52    
    192600   2556.4723     -18807.955      4413.6175     -137167.13    
    192700   2316.717      -1063.3315      4349.0606     -137167.43    
    192800   2525.9285      4688.2273      4282.5879     -137169.1     
    192900   2533.2205      11038.119      4275.1055     -137164.91    
    193000   2531.8848      999.93451      4321.2908     -137165.81    
    193100   2348.8666     -1734.5177      4379.7335     -137167.26    
    193200   2366.1564     -4717.774       4410.4703     -137167.68    
    193300   2622.4313     -1736.5737      4406.923      -137165.71    
    193400   2637.2385     -919.25176      4393.493      -137162.96    
    193500   2610.5659      1785.7552      4375.2729     -137163.94    
    193600   2377.8285     -2305.2204      4366.1282     -137162.59    
    193700   2225.3047      7186.5002      4371.6247     -137164.63    
    193800   2208.0277     -8734.5669      4399.1453     -137170.83    
    193900   2493.3691     -7208.8701      4381.7672     -137171.93    
    194000   2504.1014      10509.731      4329.2237     -137165.77    
    194100   2507.4772     -2293.498       4316.5597     -137163.59    
    194200   2517.8034      4957.8876      4303.8167     -137164.79    
    194300   2400.1216     -5761.0146      4305.8914     -137164.07    
    194400   2502.664       2305.2581      4307.4217     -137166.38    
    194500   2679.0582      3347.088       4328.1858     -137165.7     
    194600   2689.2054     -4543.7474      4352.7827     -137164.32    
    194700   2409.9024      41.438418      4362.9101     -137162.16    
    194800   2379.2859      4187.4393      4359.997      -137166.17    
    194900   2329.8469      4070.9292      4355.6565     -137165.01    
    195000   2560.3488     -4275.307       4357.2353     -137162.78    
    195100   2641.5989      17749.585      4358.482      -137160.29    
    195200   2523.3278     -4392.1044      4453.7056     -137162.82    
    195300   2336.2122     -5631.524       4544.14       -137161.23    
    195400   2423.7841     -3956.3493      4578.8576     -137161.01    
    195500   2406.7304     -5926.198       4581.1486     -137156.99    
    195600   2565.3941      1521.8264      4554.3116     -137159.4     
    195700   2354.576       7868.8332      4521.9962     -137155.55    
    195800   2452.6814      1032.4767      4497.9146     -137162.16    
    195900   2349.4495      3012.5341      4465.8023     -137163.92    
    196000   2219.5724      4765.878       4437.4506     -137163.66    
    196100   2526.8972     -4833.1452      4414.5108     -137164.21    
    196200   2595.7354      9111.9004      4378.1228     -137162.05    
    196300   2420.8723      5417.8632      4396.4637     -137159.15    
    196400   2268.9337     -12131.955      4442.4532     -137157.7     
    196500   2522.8169     -4839.9414      4417.5509     -137165.88    
    196600   2535.6057      8045.5401      4359.4042     -137164.26    
    196700   2520.184       9391.0569      4350.3784     -137159.16    
    196800   2663.3509      504.78833      4419.8901     -137161.34    
    196900   2595.3472     -16385.826      4525.3078     -137163.19    
    197000   2243.48       -9488.0879      4554.6326     -137160.44    
    197100   2359.2701     -13594.529      4484.4989     -137160.66    
    197200   2599.7991      20091.823      4337.2568     -137159.92    
    197300   2616.6381      15687.186      4289.9744     -137163.13    
    197400   2307.5723      1753.7087      4325.6634     -137161.07    
    197500   2369.0309      11689.993      4362.8096     -137161.43    
    197600   2560.3991     -10762.161      4425.1144     -137160.05    
    197700   2572.9208      2161.2916      4445.9918     -137155.4     
    197800   2542.8639     -2249.8377      4430.2435     -137156.05    
    197900   2316.8629      9818.5851      4380.5396     -137161.23    
    198000   2445.0854      3957.792       4373.0362     -137166.93    
    198100   2477.874      -8699.2142      4372.4568     -137165.51    
    198200   2551.5276     -1238.9057      4322.1043     -137161.72    
    198300   2630.8931      5837.6764      4274.0333     -137163.94    
    198400   2284.0354      5682.3708      4284.7736     -137165.18    
    198500   2197.2981      3327.3411      4328.7045     -137163.55    
    198600   2346.3589      4891.6853      4370.7122     -137159.99    
    198700   2600.909      -8787.0555      4416.9777     -137162.55    
    198800   2603.6584     -176.68097      4445.5584     -137161.85    
    198900   2505.5634     -2980.6046      4485.1671     -137159.91    
    199000   2371.5        -8849.6352      4519.4196     -137160.77    
    199100   2385.6453     -17180.988      4486.7393     -137162.9     
    199200   2400.1759      10586.306      4367.7614     -137156.3     
    199300   2720.4376      20877.63       4308.5215     -137159.73    
    199400   2586.0868     -1856.6593      4352.34       -137162.47    
    199500   2438.159      -333.4384       4407.608      -137161.89    
    199600   2391.0862     -1757.1094      4443.8777     -137159.74    
    199700   2491.2345     -2045.0971      4451.0036     -137156.47    
    199800   2811.7189     -2492.1198      4435.982      -137160.77    
    199900   2523.0094     -10355.264      4419.0258     -137166.63    
    200000   2496.7928     -3591.8047      4361.8394     -137166.62    
    200100   2496.8988      15727.111      4307.8582     -137162.48    
    200200   2723.7491      8128.6057      4347.0065     -137166.45    
    200300   2214.8709      1937.8765      4437.5048     -137157.33    
    200400   2387.2572     -4189.6025      4500.9059     -137159.53    
    200500   2578.4052     -489.04486      4543.4348     -137155.06    
    200600   2635.1889     -8826.4036      4580.1447     -137159.13    
    200700   2498.1222     -10462.82       4563.773      -137161.59    
    200800   2427.1286     -4544.5408      4522.4989     -137160.78    
    200900   2603.0316     -10389.037      4482.1792     -137161.53    
    201000   2722.5468      7700.7755      4417.5518     -137155.93    
    201100   2829.8364      11472.553      4401.4564     -137158.57    
    201200   2393.7951     -3342.7267      4436.4067     -137160.79    
    201300   2480.0807     -760.8017       4439.4022     -137166.62    
    201400   2347.3941     -1679.4621      4448.835      -137160.66    
    201500   2627.4433     -6390.7535      4448.4369     -137160.63    
    201600   2687.4151     -2603.1585      4425.6805     -137160.52    
    201700   2493.6986      9248.5902      4409.8982     -137162.36    
    201800   2481.9954     -9869.7395      4420.0458     -137165.32    
    201900   2524.8272      3559.8837      4377.8421     -137165.72    
    202000   2598.364       2921.0828      4343.5597     -137167.19    
    202100   2442.3138      2966.2722      4344.4836     -137166.56    
    202200   2012.1924      1275.2212      4347.1462     -137162.22    
    202300   2370.3513      944.78309      4305.5186     -137167.04    
    202400   2750.1379      8154.385       4287.2806     -137170.02    
    202500   2410.2997      13818.111      4351.5565     -137163.19    
    202600   2352.9892     -10719.052      4487.28       -137162.67    
    202700   2572.8498     -8828.4736      4558.6359     -137160.57    
    202800   2657.144      -4793.8572      4549.053      -137158.05    
    202900   2623.7987     -10297.146      4511.4761     -137161.27    
    203000   2615.096      -3481.3018      4432.8218     -137165.1     
    203100   2638.9096      7420.4997      4357.0322     -137167.06    
    203200   2515.7381      9785.0346      4344.6007     -137166.62    
    203300   2521.5626     -5203.1174      4388.8017     -137167.04    
    203400   2477.9728     -7844.4577      4398.6967     -137164.15    
    203500   2558.3824      7071.0332      4367.6611     -137164.01    
    203600   2509.3415     -880.09665      4367.1865     -137162.85    
    203700   2317.3326      2258.0463      4362.7259     -137161.03    
    203800   2377.1488      4933.1239      4370.4146     -137167.19    
    203900   2275.2724      716.83807      4396.2731     -137165.78    
    204000   2430.5246     -4155.6973      4410.2127     -137161.24    
    204100   2645.555      -1357.1122      4383.3618     -137162.76    
    204200   2640.5462      802.59712      4363.1785     -137163.72    
    204300   2480.1716      256.70053      4363.9791     -137164.36    
    204400   2429.8577     -672.00513      4384.0343     -137170.81    
    204500   2183.1349     -10703.305      4412.081      -137169.34    
    204600   2502.0646     -2491.4853      4383.5704     -137166.68    
    204700   2384.8444      2312.5847      4343.7689     -137160.01    
    204800   2601.8411      4111.2543      4313.4708     -137164.15    
    204900   2482.4234      12023.253      4315.0071     -137164.15    
    205000   2308.5807     -7966.6196      4376.6198     -137163.53    
    205100   2539.0846     -5895.4407      4410.5266     -137163.92    
    205200   2569.2281      3967.0638      4429.8647     -137158.43    
    205300   2503.2526     -8631.9066      4451.3025     -137159.72    
    205400   2413.9917     -849.20305      4421.437      -137161.81    
    205500   2355.9831      10587.309      4389.6321     -137160.1     
    205600   2718.001      -621.17297      4421.9522     -137160.19    
    205700   2631.2857      3913.3056      4470.8438     -137153.96    
    205800   2597.5673     -10533.603      4495.1202     -137158.86    
    205900   2522.0811      1409.5766      4476.8693     -137159.65    
    206000   2584.2507     -10429.105      4455.8686     -137163.79    
    206100   2560.7256      1927.5627      4404.4044     -137166.37    
    206200   2180.8707      1366.563       4364.2982     -137164.46    
    206300   2324.8125      5514.4861      4345.5468     -137169.34    
    206400   2486.5826      6549.3779      4366.6888     -137162.37    
    206500   2598.1134     -2795.7915      4437.618      -137162.6     
    206600   2596.7574     -10280.145      4488.845      -137162.66    
    206700   2502.3532      5576.3044      4491.2418     -137159.93    
    206800   2526.9838     -10412.885      4506.8136     -137159.42    
    206900   2527.1426      4020.2359      4454.149      -137159.42    
    207000   2388.5577     -33.200387      4388.2935     -137160.72    
    207100   2202.6419      7164.1491      4324.7799     -137160.74    
    207200   2584.5273      1943.5525      4304.4083     -137168.53    
    207300   2600.046       6833.2703      4333.6794     -137159.31    
    207400   2632.1883     -165.13494      4433.0121     -137157.77    
    207500   2489.1678     -11247.444      4554.3765     -137156.7     
    207600   2459.9017     -5626.7276      4593.8922     -137157.37    
    207700   2558.0166     -9869.9487      4555.5181     -137161.46    
    207800   2591.3006      221.52249      4486.388      -137161.32    
    207900   2685.2846      2307.4403      4426.4409     -137163.33    
    208000   2631.937      -2386.2668      4376.1042     -137166.74    
    208100   2356.6824      7207.7721      4336.1082     -137165.55    
    208200   2486.3888     -3382.8585      4335.5801     -137167.09    
    208300   2519.9381      6676.1344      4336.7918     -137162.14    
    208400   2644.7407      4229.4222      4371.3604     -137163.17    
    208500   2358.084      -13835.984      4445.8326     -137158.73    
    208600   2329.4334     -6253.7958      4453.1744     -137158.81    
    208700   2442.2793      5113.8595      4372.0955     -137161       
    208800   2400.8077      8636.2539      4303.6157     -137163.36    
    208900   2425.5866      763.22566      4284.6236     -137168.4     
    209000   2455.7754      7769.0043      4294.6081     -137165.81    
    209100   2600.6316      8672.8569      4353.264      -137160.6     
    209200   2604.961      -942.79421      4474.944      -137159.01    
    209300   2460.7046     -18237.145      4588.5435     -137157.34    
    209400   2416.9566     -3421.6368      4578.3099     -137156.98    
    209500   2481.7967     -5213.9812      4499.6463     -137157.64    
    209600   2728.3535     -7027.1906      4367.4748     -137163.01    
    209700   2671.8798      16626.399      4232.6235     -137166.98    
    209800   2425.5516      3700.2369      4218.1074     -137166.47    
    209900   2505.894       6222.4377      4248.1196     -137167.95    
    210000   2537.16       -3111.8878      4318.9886     -137165.18    
    210100   2520.9983     -6433.3863      4376.1158     -137159.25    
    210200   2710.8429     -2025.9151      4389.6945     -137160.34    
    210300   2525.1124      10480.578      4392.7216     -137155.71    
    210400   2262.0681      1237.2849      4414.1997     -137157.3     
    210500   2516.4184      2401.4031      4419.4868     -137166.27    
    210600   2374.5397      1122.094       4440.5188     -137162.32    
    210700   2696.4968     -3054.0355      4458.1687     -137162.38    
    210800   2631.4053     -12377.964      4444.811      -137155.4     
    210900   2564.5835      1201.7953      4387.1299     -137157.79    
    211000   2456.4627      6089.1491      4337.3311     -137160.74    
    211100   2536.8974      1917.3105      4332.0905     -137166.05    
    211200   2436.2759     -8049.2856      4359.5746     -137165.09    
    211300   2507.3839      266.90084      4351.2947     -137166.73    
    211400   2473.6039      18037.518      4370.9016     -137158.98    
    211500   2680.5268     -12337.155      4454.7886     -137159.67    
    211600   2488.1288     -1153.4756      4483.964      -137158.51    
    211700   2482.4634     -2041.947       4492.6432     -137165.37    
    211800   2295.7902     -432.55275      4492.7105     -137162.79    
    211900   2336.2634     -1902.0381      4446.6708     -137160.92    
    212000   2423.779       12826.524      4367.1796     -137159.02    
    212100   2580.0372      6151.7378      4328.3393     -137166.29    
    212200   2392.3403     -6902.3794      4335.8127     -137166.64    
    212300   2544.4525     -4556.6261      4346.0788     -137171.76    
    212400   2442.4868     -1811.4447      4367.0608     -137164.4     
    212500   2732.5275     -7176.0964      4389.3243     -137163.3     
    212600   2564.474       6026.4293      4392.0084     -137160.22    
    212700   2528.3357     -6058.5577      4421.2916     -137163.23    
    212800   2407.7641     -7830.3136      4422.5498     -137160.13    
    212900   2662.5089      9914.1087      4389.5423     -137165.14    
    213000   2377.6928      19.609151      4412.7024     -137161.96    
    213100   2222.659      -4928.1422      4430.7069     -137167.64    
    213200   2170.4174      3217.2728      4393.5691     -137161.96    
    213300   2505.5898     -1428.5346      4348.0673     -137163.42    
    213400   2621.5566      11214.805      4314.7591     -137163.11    
    213500   2490.1062      3226.2087      4331.5743     -137165.85    
    213600   2284.5841     -3678.1424      4375.5517     -137164.7     
    213700   2389.2038      2902.2806      4398.1253     -137162.76    
    213800   2653.9973     -4873.685       4414.2221     -137166.6     
    213900   2432.8216      8781.2009      4418.7298     -137160.36    
    214000   2591.0725     -657.83025      4447.3764     -137161.99    
    214100   2612.9706     -3601.1579      4478.253      -137157.92    
    214200   2800.1759     -8496.3906      4493.9923     -137156.96    
    214300   2617.5237      3336.177       4486.7095     -137159.05    
    214400   2413.2574     -5718.9233      4505.3457     -137159.05    
    214500   2571.3351     -3336.8398      4491.8449     -137162.89    
    214600   2648.292      -3758.654       4458.5464     -137165.74    
    214700   2343.322      -1373.8314      4392.166      -137165.57    
    214800   2321.1322      10102.521      4309.1111     -137169.01    
    214900   2344.1832      6501.2482      4278.7125     -137164.38    
    215000   2492.1247      509.70772      4287.8465     -137161.49    
    215100   2504.6991      9516.414       4335.9207     -137162.73    
    215200   2315.5748     -3916.4753      4456.9908     -137158.54    
    215300   2406.7199     -10641.873      4543.2864     -137156.5     
    215400   2820.4822     -14834.369      4557.3535     -137159.3     
    215500   2499.6753     -7017.1982      4482.1867     -137154.65    
    215600   2590.9266      4001.7253      4339.7249     -137163.16    
    215700   2732.602       12161.196      4218.6025     -137170.37    
    215800   2473.9229      5615.8765      4210.0012     -137168.54    
    215900   2347.7715     -297.17364      4269.6839     -137165.99    
    216000   2603.2171      6444.6652      4341.7039     -137168.15    
    216100   2666.7899     -413.45138      4434.7445     -137159.48    
    216200   2444.9971      1441.3651      4488.7325     -137154.14    
    216300   2370.5977     -5974.7414      4499.4019     -137154.07    
    216400   2532.2639      4121.5598      4453.4026     -137160.26    
    216500   2528.8345      6022.9763      4429.1471     -137162.65    
    216600   2454.1013     -4496.7845      4429.4383     -137162.35    
    216700   2572.4709     -2217.9652      4402.5477     -137162.38    
    216800   2833.1269      8379.6708      4365.7174     -137161.79    
    216900   2575.7814      6877.6058      4383.8688     -137160.38    
    217000   2393.6327      1542.0818      4429.32       -137163.35    
    217100   2362.005      -8306.8377      4471.9706     -137161.07    
    217200   2567.0337      4556.8726      4465.9836     -137159.86    
    217300   2512.3948     -1037.0931      4444.1157     -137158.99    
    217400   2458.301      -3475.485       4403.6097     -137161.9     
    217500   2615.7115      2891.3755      4345.4026     -137167.91    
    217600   2502.1326     -4335.1059      4309.9052     -137164.82    
    217700   2659.4129      9596.7516      4270.4033     -137169.01    
    217800   2330.9402      11413.686      4298.2487     -137167.12    
    217900   2222.0047     -8756.959       4406.8719     -137166.65    
    218000   2428.2082     -2048.761       4474.6587     -137167.36    
    218100   2501.0621     -15456.684      4500.697      -137164.56    
    218200   2531.3922     -3451.7561      4440.5901     -137160.68    
    218300   2776.1224     -2464.461       4350.5665     -137167.95    
    218400   2406.727      -926.32212      4285.9646     -137166.12    
    218500   2364.8532      5298.4196      4250.7403     -137167.36    
    218600   2503.8342      8267.4489      4263.5378     -137169.02    
    218700   2570.8438     -5634.189       4341.1286     -137167.2     
    218800   2419.3175     -909.28525      4418.7254     -137159.69    
    218900   2498.7741     -2118.2015      4468.8522     -137160.87    
    219000   2413.6826      3081.5653      4477.8583     -137160.29    
    219100   2334.0048     -1372.8194      4453.3385     -137158.78    
    219200   2500.2426      12331.263      4414.5298     -137159.61    
    219300   2547.7021     -2616.9776      4420.8877     -137159.04    
    219400   2513.6321     -2713.8526      4398.4679     -137160.14    
    219500   2410.053       1751.146       4320.7797     -137162.24    
    219600   2518.5664      17013.409      4241.4872     -137168.71    
    219700   2237.6945      2845.2249      4238.5343     -137166.8     
    219800   2427.2951      11416.879      4267.8403     -137168.37    
    219900   2534.4198      10181.285      4362.3376     -137163.32    
    220000   2346.1848     -14231.489      4488.9422     -137157.67    
    220100   2489.9284     -9223.0827      4510.724      -137156.8     
    220200   2624.3628      4941.5365      4452.9642     -137157.16    
    220300   2367.1051      5029.2896      4405.4188     -137161.56    
    220400   2282.3432      4035.8897      4389.2789     -137162.77    
    220500   2654.9897      4534.3537      4392.8207     -137167.94    
    220600   2676.9471      2974.1056      4435.5388     -137163.42    
    220700   2556.0835     -9779.7577      4502.7438     -137157.19    
    220800   2669.8222     -8778.0455      4510.3269     -137155.65    
    220900   2806.2376      5167.177       4474.3544     -137155.16    
    221000   2507.4504     -227.89204      4474.4664     -137157.42    
    221100   2467.6684     -6898.2031      4467.5344     -137160.34    
    221200   2618.4702      7656.3573      4409.894      -137163.67    
    221300   2563.7077     -963.19955      4376.3704     -137162.96    
    221400   2592.7384      4362.8794      4358.5381     -137164.64    
    221500   2227.7778      10414.985      4359.6572     -137160.57    
    221600   2377.108       684.4646       4387.3463     -137166.7     
    221700   2683.8969     -12069.935      4411.7178     -137167.49    
    221800   2547.5113      6862.5529      4403.4749     -137158.69    
    221900   2487.9369      7909.203       4418.7721     -137158.75    
    222000   2487.5764     -10457.488      4477.1048     -137163.12    
    222100   2310.746      -6479.3579      4470.3984     -137164.22    
    222200   2228.5203      6000.7456      4392.9179     -137163.11    
    222300   2613.4407      2852.2081      4329.5247     -137166.66    
    222400   2619.4297      11573.768      4308.8447     -137163.36    
    222500   2371.2712      5757.6304      4349.5113     -137161.55    
    222600   2453.2678     -3171.9764      4416.5851     -137164.72    
    222700   2614.4882     -3272.0993      4445.867      -137161.6     
    222800   2757.5424      2056.7389      4443.1036     -137160.3     
    222900   2539.6537     -3898.8789      4436.8588     -137158.57    
    223000   2497.5931     -5810.8794      4416.6957     -137160.44    
    223100   2608.1109      11275.686      4375.6045     -137163.65    
    223200   2374.0115      5856.7543      4364.5688     -137160.23    
    223300   2591.9025      4010.6078      4365.6048     -137169.07    
    223400   2295.3031     -5853.5183      4381.2296     -137167.62    
    223500   2370.9487     -1747.1905      4394.1693     -137168.99    
    223600   2496.7817      13235.251      4415.3945     -137163.08    
    223700   2480.0335     -2925.9749      4473.1846     -137161.53    
    223800   2421.3823     -11505.314      4511.0654     -137159.01    
    223900   2810.1024     -6104.5842      4478.5235     -137164.76    
    224000   2748.4237      9787.8676      4441.5585     -137160.58    
    224100   2421.4413     -2925.0904      4447.9039     -137162.77    
    224200   2466.2033     -19157.944      4429.572      -137164.76    
    224300   2509.7836      18250.039      4344.4864     -137160.84    
    224400   2513.6779      9246.4733      4341.9351     -137158.02    
    224500   2635.3488      1558.3623      4407.7766     -137160.27    
    224600   2440.8997     -11089.633      4501.3795     -137160.91    
    224700   2334.3847     -12590.922      4532.1056     -137161.05    
    224800   2444.8021      8152.0231      4461.5783     -137160.76    
    224900   2783.9677      12847.488      4418.3585     -137162.16    
    225000   2542.8209      935.73643      4456.9093     -137157.56    
    225100   2294.9385     -14081.742      4495.9543     -137159.02    
    225200   2391.8955     -238.65801      4456.7539     -137160.43    
    225300   2624.8816     -4252.1657      4402.2416     -137164.65    
    225400   2497.1         9807.6823      4340.3449     -137160.9     
    225500   2648.3088      10431.639      4325.0493     -137169.05    
    225600   2300.331      -3469.6228      4376.2834     -137166.38    
    225700   2364.6951     -11273.882      4420.1065     -137162.74    
    225800   2530.0349     -871.67955      4417.7876     -137161.99    
    225900   2542.0997      3290.2989      4406.766      -137162.21    
    226000   2448.1075      2080.7222      4417.2888     -137161.09    
    226100   2402.4014     -4574.6831      4442.3386     -137161.66    
    226200   2386.5958     -920.42501      4425.0451     -137159.33    
    226300   2716.6978      4653.3121      4402.8004     -137161       
    226400   2583.5121     -8077.0652      4417.3831     -137159.56    
    226500   2438.1717     -987.98734      4394.6225     -137162.7     
    226600   2553.1251      3378.8374      4376.4952     -137164.51    
    226700   2459.9753      1363.6534      4394.7364     -137162.74    
    226800   2487.1716     -9190.5732      4423.017      -137166.15    
    226900   2353.9198     -7767.2406      4400.7278     -137166.57    
    227000   2422.1543      9179.0568      4334.872      -137164.64    
    227100   2422.9973      7815.9639      4302.4089     -137157.43    
    227200   2741.0991      7120.8502      4325.8665     -137164.04    
    227300   2382.6919     -1703.777       4398.1772     -137161.37    
    227400   2356.7667     -9257.763       4481.9224     -137164.93    
    227500   2437.2003     -16178.042      4529.8019     -137163.88    
    227600   2453.436      -7227.0144      4482.2714     -137161.24    
    227700   2500.5487      8099.7085      4347.4527     -137161.17    
    227800   2395.0408      16800.44       4237.7762     -137161.26    
    227900   2293.534       3827.2068      4243.5434     -137165.81    
    228000   2254.6133      8825.6834      4323.6539     -137160.28    
    228100   2614.86       -611.4247       4436.1316     -137161.33    
    228200   2372.7557     -10294.81       4519.6416     -137157.09    
    228300   2300.1238     -3271.4305      4511.4379     -137155.1     
    228400   2543.7283      4489.3258      4441.5859     -137156.6     
    228500   2766.3943      7108.8671      4387.1354     -137161.72    
    228600   2320.8721     -2435.1247      4387.549      -137160.49    
    228700   2427.3184     -5567.5382      4376.189      -137163.37    
    228800   2517.6546      2514.7373      4351.0002     -137162.3     
    228900   2621.4177     -5624.6019      4359.6125     -137163.55    
    229000   2435.0096     -4772.4846      4374.2136     -137163.39    
    229100   2229.1035     -2412.5055      4358.9179     -137164.05    
    229200   2452.5347      4200.1335      4324.9589     -137165.72    
    229300   2575.1024      3772.3478      4343.7033     -137163.76    
    229400   2471.3564      4147.2295      4405.4393     -137159.91    
    229500   2435.0697      2068.5783      4467.0191     -137160.21    
    229600   2622.7431     -9299.0124      4500.8109     -137165.4     
    229700   2427.8436     -7526.1879      4468.3401     -137160.25    
    229800   2755.4626     -1725.0508      4391.4416     -137160.24    
    229900   2731.261       11152.441      4310.7755     -137160.25    
    230000   2444.7816      15455.561      4304.0881     -137161.69    
    230100   2482.2945      3145.3507      4384.64       -137166.13    
    230200   2414.4402     -3079.8789      4487.7691     -137162.57    
    230300   2447.4755      1342.1519      4554.2114     -137155.44    
    230400   2575.2036     -13951.877      4565.4617     -137157.32    
    230500   2630.1755     -6053.8581      4490.999      -137161.65    
    230600   2574.275      -12470.876      4391.6873     -137163.03    
    230700   2498.9408      18441.446      4297.542      -137159.95    
    230800   2540.3156      11220.399      4302.0136     -137163.83    
    230900   2357.9932     -1577.9489      4352.0639     -137164.1     
    231000   2294.2245     -1363.8784      4386.6803     -137165.68    
    231100   2183.7801     -1530.8095      4398.1475     -137163.33    
    231200   2559.8215      6249.2884      4392.232      -137164.05    
    231300   2600.7838      6015.4126      4419.0872     -137161.25    
    231400   2623.4271     -4675.3269      4478.1283     -137162.6     
    231500   2348.161      -2399.5097      4520.6668     -137161.78    
    231600   2439.8032     -7228.6374      4515.3638     -137167.26    
    231700   2621.5088     -1604.9461      4461.5079     -137165.22    
    231800   2640.3268      5107.918       4393.3314     -137158.31    
    231900   2518.6794      8492.2619      4361.6829     -137158.82    
    232000   2441.8613     -1713.5019      4370.0938     -137161.99    
    232100   2375.3138     -7086.3148      4385.0736     -137162.27    
    232200   2507.3948     -2467.9929      4372.5533     -137162.92    
    232300   2817.1522      2384.6225      4339.5148     -137161.2     
    232400   2662.3781      4424.8505      4319.9129     -137159.87    
    232500   2492.029      -166.57937      4337.9462     -137163.46    
    232600   2535.9558     -3208.7407      4357.5881     -137165.99    
    232700   2435.4075      2574.2404      4362.1703     -137164.58    
    232800   2389.785      -1059.4326      4385.0838     -137163.04    
    232900   2681.3212     -5504.8789      4397.8987     -137162.96    
    233000   2645.7343      7549.0116      4385.3335     -137159.32    
    233100   2681.4469     -4126.5655      4419.3286     -137166.5     
    233200   2468.2802     -6917.5023      4457.3221     -137163.81    
    233300   2445.081       1976.2651      4454.0803     -137161.56    
    233400   2543.9603      135.78004      4456.6306     -137160.72    
    233500   2514.6446     -1111.8648      4463.9689     -137154.5     
    233600   2597.0122      3023.785       4464.7176     -137153.11    
    233700   2507.135      -5316.5589      4453.0881     -137162.2     
    233800   2391.0806     -3496.0154      4389.3888     -137163.32    
    233900   2440.3044      21157.571      4309.2165     -137161.37    
    234000   2616.5927      7040.7936      4319.7682     -137164.13    
    234100   2297.5925     -9655.8884      4392.0372     -137162.9     
    234200   2272.6968     -14149.788      4415.7105     -137164.57    
    234300   2534.9763      5671.835       4366.9578     -137164.52    
    234400   2430.789       10650.023      4330.8502     -137161.28    
    234500   2356.2305      10578.46       4349.4041     -137162.02    
    234600   2526.6022     -6903.9359      4427.2468     -137164.74    
    234700   2591.4792      864.446        4498.2164     -137159.58    
    234800   2721.2771     -13442.036      4575.7968     -137159.59    
    234900   2405.4116     -10471.252      4561.2461     -137160.33    
    235000   2276.303      -8135.2312      4451.292      -137160.39    
    235100   2720.2836      9877.6057      4298.5878     -137169.12    
    235200   2504.2467      12598.918      4247.8432     -137165.95    
    235300   2493.4573     -5466.2953      4291.6304     -137169.03    
    235400   2391.5036      2017.0085      4322.4999     -137165.09    
    235500   2522.7354     -5032.8175      4362.8383     -137163.36    
    235600   2468.0995      7297.2113      4385.4274     -137160.52    
    235700   2587.8761      1284.1381      4430.0914     -137163.6     
    235800   2529.3461     -6676.708       4496.7848     -137163.67    
    235900   2436.9398     -10946.884      4519.1281     -137161.92    
    236000   2599.7352     -3375.0595      4459.9202     -137159.8     
    236100   2803.1025      15092.753      4403.507      -137161.31    
    236200   2499.6566     -2884.3654      4452.9533     -137160.21    
    236300   2559.2717     -9349.6239      4523.1254     -137164.48    
    236400   2421.0682     -16805.424      4552.648      -137160.17    
    236500   2537.4892     -8816.4376      4478.1256     -137162.08    
    236600   2628.2152      8642.3649      4355.5415     -137164.39    
    236700   2315.4403      14302.202      4295.1833     -137164.21    
    236800   2283.3691     -587.76921      4293.8612     -137166.55    
    236900   2374.4249      8736.9013      4279.7238     -137163.99    
    237000   2674.2563      1017.8525      4300.8541     -137166.18    
    237100   2539.6318      2692.0746      4350.2191     -137164.05    
    237200   2378.6331      3.6575571      4414.9439     -137160.1     
    237300   2537.1736     -3224.3852      4477.4684     -137161.82    
    237400   2503.439      -4482.924       4517.4462     -137159       
    237500   2485.2953     -13015.974      4494.9998     -137158.63    
    237600   2639.4416     -4999.0932      4388.1252     -137164.94    
    237700   2476.2549      11689.833      4289.9922     -137162       
    237800   2611.008       708.59899      4268.8948     -137166.69    
    237900   2594.1524      4043.5788      4303.9534     -137169.51    
    238000   2231.7984      424.77338      4380.0359     -137162.45    
    238100   2600.7986     -7169.3775      4436.8346     -137166.76    
    238200   2562.9195     -3981.0877      4460.6353     -137156.97    
    238300   2672.7673     -436.96301      4458.3387     -137159.66    
    238400   2577.0401      3178.2323      4446.6799     -137162.8     
    238500   2299.0983      6323.7052      4448.9467     -137158.87    
    238600   2445.8189     -1499.9045      4450.2108     -137161.32    
    238700   2450.7681      6598.8425      4427.6445     -137157.88    
    238800   2743.9098      2005.7244      4422.3439     -137162.42    
    238900   2604.0475     -458.31316      4447.332      -137162.57    
    239000   2336.1674     -5552.1231      4477.7663     -137161.45    
    239100   2350.801       12287.69       4473.1864     -137161.31    
    239200   2737.1683     -5318.5525      4500.9054     -137164.04    
    239300   2639.4887     -9221.1173      4509.8902     -137158.36    
    239400   2610.3815      5024.9721      4472.1772     -137161.86    
    239500   2724.0344     -6195.5206      4446.5391     -137167.55    
    239600   2388.1857     -10700.681      4413.7897     -137160.97    
    239700   2505.2016      7028.0281      4347.4145     -137163.51    
    239800   2768.4185      6696.5846      4318.102      -137163.73    
    239900   2750.2946      7442.4979      4364.4311     -137161.38    
    240000   2430.5966     -9237.9718      4454.712      -137161.11    
    240100   2340.9952     -11168.862      4481.5002     -137160.73    
    240200   2335.6446      2761.2249      4410.8862     -137158.52    
    240300   2731.0451     -2403.0016      4311.1261     -137163.93    
    240400   2603.6061      20886.291      4246.3066     -137161.1     
    240500   2454.4848     -425.96289      4312.1026     -137166.04    
    240600   2336.7808     -8307.3512      4395.5823     -137162.17    
    240700   2526.2701     -2515.8569      4434.0338     -137160.89    
    240800   2739.8486     -9973.9159      4448.2628     -137162.7     
    240900   2438.8471     -2455.7681      4408.0192     -137158.96    
    241000   2465.4496     -2332.1299      4368.7793     -137164.48    
    241100   2202.1792      1918.2948      4336.015      -137165       
    241200   2296.2189      3898.7044      4289.1706     -137168.75    
    241300   2646.8567      16493.218      4270.668      -137167.28    
    241400   2518.4984      8819.8862      4352.3457     -137164.96    
    241500   2265.3364     -10833.917      4463.3828     -137162.27    
    241600   2439.3466     -14846.832      4490.0483     -137161.47    
    241700   2676.598       1736.5414      4438.9236     -137162.84    
    241800   2418.296      -2671.3671      4402.9891     -137158.39    
    241900   2489.4065      9682.2805      4360.2856     -137161.81    
    242000   2269.6146     -2428.9512      4347.4837     -137163.85    
    242100   2250.8257     -1635.0137      4338.052      -137166.77    
    242200   2552.7744      3620.126       4344.8707     -137168.27    
    242300   2481.7215     -1154.294       4394.9278     -137164.61    
    242400   2502.506      -8571.8742      4437.2855     -137163.14    
    242500   2533.1407     -3179.629       4434.7175     -137157.97    
    242600   2583.1013      9110.7422      4416.7607     -137157.39    
    242700   2353.4459     -1033.9096      4447.1601     -137161.33    
    242800   2375.0305     -18130.198      4445.9667     -137164.62    
    242900   2575.4301      3822.1879      4334.3242     -137167.05    
    243000   2602.8211      16693.397      4247.3356     -137162.9     
    243100   2737.9929      10322.962      4241.3035     -137163.91    
    243200   2687.4242      2255.6865      4317.8457     -137171.47    
    243300   2288.3406     -9981.699       4409.8314     -137165.56    
    243400   2419.0961     -155.72366      4432.1859     -137163.47    
    243500   2405.5139      4074.7693      4425.1636     -137157.72    
    243600   2600.3451     -2096.4131      4429.5777     -137161.3     
    243700   2520.51       -5698.2715      4419.4897     -137162.75    
    243800   2266.2639      4464.2903      4376.4567     -137162.2     
    243900   2153.7401      1710.7545      4325.1895     -137167.74    
    244000   2251.4431      4279.3757      4290.2991     -137171.53    
    244100   2383.3989     -2533.3793      4293.2252     -137166.91    
    244200   2513.0183      8142.0611      4316.183      -137165.02    
    244300   2593.5501     -3731.0103      4373.9787     -137166.1     
    244400   2464.9117      2138.5342      4414.6744     -137165.52    
    244500   2262.1719     -10115.163      4454.0874     -137165.36    
    244600   2307.8689     -11059.627      4425.9081     -137165.92    
    244700   2593.8567      8225.3314      4327.459      -137163.39    
    244800   2561.9934      11641.261      4259.5161     -137162.97    
    244900   2518.9805      8852.8342      4262.5992     -137169.87    
    245000   2338.7786      1244.5858      4323.1164     -137167.29    
    245100   2496.1833     -5870.4844      4411.5342     -137165.64    
    245200   2495.3704     -11159.962      4473.9512     -137161.68    
    245300   2414.0643     -4342.9691      4474.4053     -137158.81    
    245400   2528.5039      7505.4847      4438.3574     -137161.91    
    245500   2449.0621     -9144.3282      4416.5654     -137163.33    
    245600   2398.9738      5917.8088      4366.0622     -137167.6     
    245700   2463.3151     -5017.4655      4339.2399     -137169.42    
    245800   2840.3046     -4044.0244      4311.0527     -137171.63    
    245900   2628.5995      9680.9779      4294.4687     -137165.28    
    246000   2450.201       5286.4135      4352.2004     -137166.72    
    246100   2288.5282     -13209.134      4433.6917     -137168       
    246200   2352.3649     -3142.4633      4436.9349     -137167.13    
    246300   2616.8071     -5209.5861      4411.7068     -137168.4     
    246400   2646.422      -1862.3875      4386.5233     -137164.72    
    246500   2692.6519      1390.0691      4371.5728     -137162.19    
    246600   2461.0079      5198.1623      4355.6863     -137157.23    
    246700   2302.454       742.80036      4350.0531     -137162.28    
    246800   2444.3605     -2139.1943      4350.5338     -137166.89    
    246900   2471.8879     -771.08899      4343.7        -137164.75    
    247000   2593.8246      1730.7772      4343.2253     -137163.67    
    247100   2614.2466      6853.5943      4367.3344     -137161.97    
    247200   2333.1452     -7053.8295      4405.9118     -137159.66    
    247300   2461.26        1670.8195      4392.6975     -137165.6     
    247400   2594.4746      2983.8193      4378.4119     -137167.53    
    247500   2529.3035      6109.7077      4394.8649     -137163.21    
    247600   2620.9992     -298.80798      4447.1184     -137163.18    
    247700   2600.2293     -9748.5138      4522.3717     -137164.37    
    247800   2384.5964     -21229.714      4581.3298     -137163.99    
    247900   2378.448      -5117.311       4530.5901     -137159.46    
    248000   2752.6313      5548.6085      4402.8649     -137162.53    
    248100   2616.1941      12167.464      4310.3574     -137163.04    
    248200   2318.1112      11204.868      4310.5198     -137160.98    
    248300   2371.0736      5741.3097      4380.7522     -137163.77    
    248400   2461.5904     -11164.894      4465.0617     -137160.9     
    248500   2577.0661     -8565.0852      4483.4236     -137156.37    
    248600   2677.3189      2797.7052      4446.1688     -137162.46    
    248700   2619.6696     -9389.2561      4436.9848     -137166.55    
    248800   2485.0748      1720.0371      4404.1074     -137165.85    
    248900   2564.6174      4523.3038      4357.092      -137166.41    
    249000   2706.0851      3844.5864      4326.3684     -137164.01    
    249100   2716.2373      4717.5523      4325.44       -137162.41    
    249200   2517.6173     -771.252        4354.5864     -137166.08    
    249300   2431.3265     -10341.341      4390.5507     -137165.59    
    249400   2534.2227     -463.43755      4376.8506     -137165.12    
    249500   2556.7325     -4110.6777      4355.3528     -137163.96    
    249600   2582.9972      4193.0615      4342.9898     -137161.85    
    249700   2613.7962      6608.7602      4341.7434     -137163.07    
    249800   2410.6794     -3711.4595      4371.0475     -137163.37    
    249900   2368.3545     -7416.6678      4383.4886     -137167.45    
    250000   2293.2577      10009.078      4366.87       -137164.39    
    250100   2704.6524     -988.35486      4348.44       -137165.78    
    250200   2615.8609      9095.6778      4334.9703     -137162.77    
    250300   2363.7075      3102.3399      4381.972      -137161.25    
    250400   2448.2652     -3931.2878      4446.5657     -137164.57    
    250500   2544.7754      588.67594      4484.8819     -137162.57    
    250600   2562.9591     -12658.031      4485.334      -137154.71    
    250700   2735.3636      13129.631      4413.7763     -137157.31    
    250800   2516.7724      2087.2292      4405.358      -137157.72    
    250900   2506.2549     -8608.1268      4427.6505     -137165.54    
    251000   2364.0853     -1425.0825      4439.2327     -137163.06    
    251100   2393.9678      2168.7695      4456.1385     -137159.44    
    251200   2665.4882     -1853.1623      4466.9827     -137159.41    
    251300   2647.951       9646.8895      4458.2816     -137159.38    
    251400   2457.0022     -11204.238      4473.3673     -137162.42    
    251500   2467.089      -2283.7424      4435.113      -137161.93    
    251600   2522.5719      5767.445       4380.5398     -137159.4     
    251700   2501.7432      4501.4008      4365.3073     -137158.3     
    251800   2411.4149      2373.5548      4373.665      -137162.47    
    251900   2267.0682     -5486.4753      4380.6315     -137163.99    
    252000   2381.9703      5083.9627      4373.5092     -137163.08    
    252100   2457.4559     -1761.7412      4371.2791     -137162.21    
    252200   2458.2145      11571.993      4348.7347     -137159.84    
    252300   2580.3359      493.32231      4371.1879     -137161.66    
    252400   2557.5993     -3244.209       4436.5566     -137166.78    
    252500   2270.7294     -12582.046      4504.3989     -137162.98    
    252600   2479.9586     -3185.0241      4507.371      -137160.17    
    252700   2592.0401     -1323.8665      4469.345      -137161.1     
    252800   2522.08        8076.3946      4427.991      -137161.35    
    252900   2281.3195     -6997.1514      4425.5418     -137158.7     
    253000   2278.5522      8514.8389      4384.0091     -137160.63    
    253100   2639.4924     -4560.9779      4363.3766     -137167.77    
    253200   2491.3578      3476.0036      4340.5321     -137162.07    
    253300   2575.9655      2623.9504      4306.7862     -137166.3     
    253400   2307.9344      14301.271      4260.5526     -137165.83    
    253500   2335.1328      9015.9205      4276.3071     -137168.51    
    253600   2493.3484      905.3988       4356.4785     -137165.56    
    253700   2750.2336     -9833.5371      4440.0918     -137165.28    
    253800   2397.0435     -2199.4891      4492.3859     -137158.53    
    253900   2424.761      -1180.1562      4525.0642     -137159.64    
    254000   2546.9166     -8009.3524      4550.0011     -137158.55    
    254100   2722.679      -1634.1288      4539.3645     -137155.58    
    254200   2597.8775      1732.494       4500.5529     -137157.33    
    254300   2386.9551     -3447.4023      4459.8341     -137159.73    
    254400   2519.788      -11376.186      4422.2828     -137161.95    
    254500   2616.9822      7688.2128      4345.6498     -137164.42    
    254600   2512.1591      2636.8405      4291.4485     -137167.01    
    254700   2247.6612      5942.9266      4269.3608     -137166.33    
    254800   2431.7679      5471.93        4285.9508     -137167.42    
    254900   2381.5306     -1203.348       4345.0766     -137161.74    
    255000   2430.5505     -1802.1697      4415.8386     -137160.31    
    255100   2390.1338      1525.5684      4472.7046     -137153.16    
    255200   2721.6778      3835.7298      4500.3028     -137160.5     
    255300   2559.2509     -10505.826      4531.283      -137161.32    
    255400   2311.85        2345.4399      4513.8938     -137156.84    
    255500   2619.1414      1178.5373      4476.3991     -137164.6     
    255600   2414.3244      3519.742       4435.4197     -137159       
    255700   2568.8667     -640.81776      4403.4344     -137160.44    
    255800   2787.78        6889.5621      4368.8387     -137159.94    
    255900   2628.8871      6745.7472      4357.7132     -137160.88    
    256000   2465.5106     -1731.7875      4383.1271     -137166.04    
    256100   2351.38        453.57433      4408.9256     -137162.95    
    256200   2552.7805      2271.5335      4425.338      -137163.42    
    256300   2551.7431      7500.6546      4453.7696     -137158.63    
    256400   2466.8155      5411.7495      4526.49       -137153.42    
    256500   2450.2345     -7805.9779      4615.9242     -137152.41    
    256600   2501.3654     -7122.4698      4644.647      -137153.42    
    256700   2462.6556     -241.34857      4584.0666     -137156.11    
    256800   2431.088       2681.7685      4484.9793     -137160.62    
    256900   2532.4431     -7562.6578      4371.9517     -137168.86    
    257000   2433.6072      14352.425      4252.6488     -137168.55    
    257100   2354.919       7476.0059      4215.1884     -137171.56    
    257200   2318.8975     -1907.5068      4231.0088     -137172.93    
    257300   2618.0765      1817.6539      4246.0621     -137173.62    
    257400   2564.4224      2014.2416      4292.1677     -137167.62    
    257500   2300.4683      4671.3144      4373.0586     -137158.1     
    257600   2477.3275     -7061.8381      4449.0461     -137160.85    
    257700   2492.2239     -3814.2533      4477.2609     -137159.31    
    257800   2705.7113     -6129.1605      4483.5602     -137154.62    
    257900   2675.4002     -6445.0979      4462.1573     -137154.24    
    258000   2478.8297      7287.7908      4437.6378     -137159.4     
    258100   2526.5681     -7049.5014      4430.3416     -137163.18    
    258200   2572.6845      296.0609       4367.0456     -137165.71    
    258300   2391.4435     -228.77768      4309.3136     -137165.42    
    258400   2278.4269      6836.9079      4265.2209     -137167.05    
    258500   2367.0935     -5559.8848      4251.3515     -137166.83    
    258600   2726.5555      11273.248      4266.9857     -137166.51    
    258700   2555.8324     -1538.4905      4373.6394     -137161.89    
    258800   2415.4847     -16795.98       4458.3753     -137162.03    
    258900   2210.7493     -4255.616       4440.5993     -137160.78    
    259000   2500.1044     -4355.8775      4373.3374     -137170.17    
    259100   2395.9733      7064.4631      4310.6485     -137164.51    
    259200   2572.7355      9843.7142      4301.8586     -137162.66    
    259300   2640.5129     -179.85061      4352.6756     -137162.8     
    259400   2375.6253     -8090.8594      4409.1398     -137161.86    
    259500   2346.812      -5052.7507      4418.2101     -137161.76    
    259600   2706.086       5864.1238      4383.7796     -137160.53    
    259700   2749.3411      1916.846       4361.8471     -137163.75    
    259800   2431.1485      2639.635       4367.9604     -137164.32    
    259900   2446.5414     -2094.6654      4386.4146     -137166.01    
    260000   2635.4365     -1955.6554      4398.671      -137167.72    
    260100   2598.6169      2494.5273      4402.4802     -137164.2     
    260200   2697.2813     -3255.3106      4424.1676     -137164.09    
    260300   2557.8248     -2996.4414      4437.0438     -137160.1     
    260400   2358.4192      1973.3955      4420.8262     -137159.04    
    260500   2392.6299     -2820.343       4397.5284     -137163.94    
    260600   2453.2122     -3280.9301      4368.2587     -137169.57    
    260700   2424.7567     -6227.4694      4336.0032     -137169.81    
    260800   2691.9236      1616.0579      4297.5634     -137168.94    
    260900   2651.3034      9294.5869      4297.4266     -137165.03    
    261000   2305.1061      4155.9514      4358.2456     -137161.48    
    261100   2300.587      -8834.3079      4417.3916     -137162.05    
    261200   2476.2858     -4528.8441      4416.8246     -137162.83    
    261300   2553.6082      4581.4126      4383.5526     -137164.3     
    261400   2432.1532      8599.1766      4374.1773     -137162.44    
    261500   2581.3678     -11654.014      4401.7944     -137167.58    
    261600   2320.5416     -7961.6149      4368.4669     -137162.9     
    261700   2746.3736      5638.1737      4306.5108     -137170.67    
    261800   2455.4402      9157.4454      4311.2501     -137160.44    
    261900   2474.6751     -1979.9281      4375.6111     -137157.97    
    262000   2607.329       2209.2742      4424.913      -137157.72    
    262100   2584.0107      74.403145      4482.2162     -137155.03    
    262200   2495.4162     -12755.176      4515.9097     -137161.39    
    262300   2414.9065      5799.9074      4480.6656     -137164.25    
    262400   2320.78       -4257.4233      4429.6645     -137161.15    
    262500   2728.3681      7789.501       4349.302      -137164.73    
    262600   2669.6063      6545.4384      4331.5952     -137163.55    
    262700   2405.6319     -1578.2918      4379.532      -137161.06    
    262800   2408.6303      14693.022      4421.8062     -137163.51    
    262900   2395.0036     -5881.4309      4506.2209     -137159.83    
    263000   2615.2166     -6646.1586      4541.0238     -137154.37    
    263100   2684.9437     -7379.5424      4511.5917     -137157.62    
    263200   2564.0301     -1126.5785      4448.7492     -137160.55    
    263300   2360.4655      11325.424      4399.6408     -137159.75    
    263400   2331.6843      3212.1059      4397.1539     -137161.31    
    263500   2530.3984     -3590.2716      4391.2257     -137163.05    
    263600   2807.5766      8339.7917      4371.7823     -137161.27    
    263700   2532.6316      9750.0438      4403.9164     -137159.96    
    263800   2465.8855     -9685.449       4462.8343     -137164.12    
    263900   2444.8641     -7768.2502      4473.4061     -137163.16    
    264000   2407.9265     -984.26882      4453.9767     -137157.58    
    264100   2630.8488      3228.7724      4418.6518     -137159.5     
    264200   2647.0966      7318.6204      4407.7767     -137156.65    
    264300   2512.4848     -7126.8401      4426.5388     -137159.91    
    264400   2279.0802     -5052.5759      4413.1975     -137159.63    
    264500   2467.875       6965.3738      4350.3979     -137162.23    
    264600   2575.9573      10973.142      4337.018      -137160.24    
    264700   2540.4515     -3361.9294      4377.1356     -137163.96    
    264800   2225.7834     -11861.913      4409.7263     -137163.33    
    264900   2305.8373     -4025.4791      4379.9203     -137161.46    
    265000   2656.5463      10685.242      4326.5586     -137165.32    
    265100   2544.6146      12483.546      4329.7392     -137163.55    
    265200   2380.4147      3063.1599      4401.9989     -137162.51    
    265300   2300.7333     -4932.7668      4476.2311     -137162.53    
    265400   2463.7988     -12638.162      4493.278      -137160.26    
    265500   2621.1705      6204.3394      4439.4624     -137158.75    
    265600   2559.5464      5731.9463      4416.0675     -137160.03    
    265700   2286.642      -726.6416       4425.4144     -137158.95    
    265800   2361.8677      2420.9162      4451.0991     -137159.47    
    265900   2466.0625     -8325.8087      4468.7925     -137159.45    
    266000   2627.9649      13218.422      4445.3799     -137163.88    
    266100   2427.3323     -1939.7451      4463.4702     -137161.19    
    266200   2495.5689     -12532.016      4480.6546     -137161.1     
    266300   2622.6773      5031.4951      4445.0838     -137157.85    
    266400   2769.3468     -158.52935      4420.2054     -137157.26    
    266500   2518.8917     -2444.3537      4417.0559     -137159.9     
    266600   2351.9669      32.086841      4418.2232     -137158.48    
    266700   2476.5267     -3769.5944      4403.5969     -137162.59    
    266800   2452.5296      4507.8842      4381.9475     -137161.56    
    266900   2751.2283      7457.8452      4378.2963     -137162.6     
    267000   2757.5802      879.9336       4439.0336     -137161.28    
    267100   2436.1572     -17233.076      4511.0236     -137160.65    
    267200   2543.8823     -487.62549      4489.2677     -137165.44    
    267300   2579.9554     -10860.747      4439.5452     -137166.25    
    267400   2479.4829      1350.3407      4348.3816     -137164.5     
    267500   2304.6708      9367.7567      4272.3566     -137164.98    
    267600   2361.5201      7667.3076      4247.9934     -137173.9     
    267700   2355.2431      8136.9433      4276.4643     -137170.2     
    267800   2430.1719      7039.3297      4335.4935     -137165.34    
    267900   2605.2863     -101.84738      4417.2382     -137166.54    
    268000   2386.7023     -7519.3306      4483.6066     -137157.54    
    268100   2495.581      -1384.6013      4488.1695     -137157.86    
    268200   2467.8853     -6321.3398      4472.3502     -137160.14    
    268300   2502.2868     -9393.0465      4412.3761     -137167.53    
    268400   2484.8422     -2368.6136      4321.2569     -137169.38    
    268500   2614.2674     -5732.7456      4249.8771     -137170.2     
    268600   2763.4129      20568.472      4206.7209     -137166.94    
    268700   2744.3828      1444.3329      4281.4638     -137165.36    
    268800   2374.2702      4936.3737      4386.7647     -137165.19    
    268900   2183.4959     -17677.868      4483.4299     -137161.14    
    269000   2434.1221     -4510.0729      4463.386      -137161.48    
    269100   2401.7304      5604.6083      4399.584      -137156.15    
    269200   2710.2661     -5507.8602      4368.4014     -137164.17    
    269300   2470.3103      5472.8964      4339.1083     -137166.59    
    269400   2262.8864      4526.7199      4332.4814     -137164.07    
    269500   2592.7117     -65.245433      4337.0633     -137170.58    
    269600   2477.6984      5113.7669      4360.3329     -137165.73    
    269700   2614.1378      712.33379      4423.4467     -137162.46    
    269800   2679.7915     -4719.891       4490.2341     -137157.14    
    269900   2568.812      -1816.0064      4521.0956     -137157.06    
    270000   2461.3895     -2690.5696      4509.4145     -137157.06    
    270100   2494.9138     -9915.0978      4480.5739     -137158.33    
    270200   2610.8192     -2155.3233      4408.4662     -137164.55    
    270300   2354.9639      17873.767      4347.7256     -137160.05    
    270400   2605.1645     -1048.6911      4384.2849     -137165.44    
    270500   2306.4074      9331.3381      4455.8153     -137157.16    
    270600   2508.3821     -5862.777       4541.1996     -137157.58    
    270700   2647.5499     -9811.8588      4567.1212     -137156.85    
    270800   2705.2345     -8002.1133      4525.1338     -137158.7     
    270900   2439.9056      6267.9947      4442.84       -137162.27    
    271000   2502.274       653.65811      4370.776      -137168.26    
    271100   2439.6316      10202.899      4329.6248     -137165.83    
    271200   2675.7168      1126.2397      4347.3446     -137166.28    
    271300   2578.6578     -684.11135      4392.2483     -137158.28    
    271400   2450.1238      6548.9234      4431.3701     -137155.78    
    271500   2350.3814     -4925.4063      4464.6295     -137162.45    
    271600   2420.2331     -7093.3402      4467.2569     -137164.15    
    271700   2405.4622     -1658.3054      4417.0282     -137156.75    
    271800   2718.5398      4843.5464      4353.954      -137162.64    
    271900   2644.7283     -2112.0136      4356.6484     -137165.02    
    272000   2533.9088     -9528.5846      4386.24       -137167.07    
    272100   2389.0026     -10568.801      4389.3961     -137164.24    
    272200   2480.0933      477.39363      4367.2811     -137163.92    
    272300   2590.6492     -498.41196      4360.7907     -137165.13    
    272400   2385.0644      9997.5923      4360.8361     -137160.28    
    272500   2419.7469      6705.5608      4402.1329     -137160.88    
    272600   2601.2745     -7748.9713      4476.7179     -137162.79    
    272700   2738.4511     -9123.3249      4506.5286     -137159.47    
    272800   2713.2412      6654.2709      4499.5994     -137152.65    
    272900   2609.4889     -2757.0787      4507.7286     -137161.63    
    273000   2504.4373     -10285.108      4503.6936     -137162.08    
    273100   2488.3566      270.69174      4442.0701     -137160.66    
    273200   2628.1939      518.60589      4387.3303     -137160.85    
    273300   2704.0032      3882.7013      4360.18       -137162.34    
    273400   2443.6872      4992.9845      4348.1199     -137164.91    
    273500   2361.4291      2515.1836      4358.2864     -137165.14    
    273600   2622.4029     -5937.3204      4379.8687     -137168.35    
    273700   2650.695       596.86236      4419.8147     -137163.76    
    273800   2670.1275     -9407.0641      4465.8035     -137163.69    
    273900   2645.6433     -10373.062      4464.3415     -137165.35    
    274000   2485.2907      1001.0129      4404.82       -137164.55    
    274100   2582.8471     -4325.1625      4337.0376     -137167.7     
    274200   2223.0034      8700.688       4282.4691     -137160.76    
    274300   2349.0382      8980.6268      4295.6085     -137170.99    
    274400   2194.6237     -4761.3844      4369.5641     -137164.71    
    274500   2465.1744      5643.5292      4412.8529     -137162.51    
    274600   2486.6369     -1226.2224      4454.856      -137162.31    
    274700   2344.0557     -5245.3894      4465.3089     -137161.99    
    274800   2674.9799     -5064.9213      4453.568      -137169.77    
    274900   2504.0329     -5239.2945      4455.3751     -137158.05    
    275000   2668.7656     -6361.4208      4453.7204     -137156.3     
    275100   2711.661      -11607.275      4427.2868     -137161.63    
    275200   2513.2493      5422.1044      4345.1935     -137161.63    
    275300   2569.0535      3579.7619      4288.6177     -137165.41    
    275400   2543.1314      4647.2186      4259.1182     -137167.92    
    275500   2355.5654      11768.763      4280.3836     -137162.07    
    275600   2708.4686      1167.4471      4340.3172     -137162.4     
    275700   2750.4491     -2258.5357      4395.8698     -137162.31    
    275800   2518.5432     -11456.004      4453.1932     -137163.77    
    275900   2579.8491     -7844.5763      4456.1147     -137167.03    
    276000   2387.6197      5136.7756      4412.4174     -137161.99    
    276100   2601.3334     -3193.9006      4396.6459     -137164.48    
    276200   2828.2104      2868.7108      4409.4328     -137163.78    
    276300   2591.1593      1010.7665      4460.8682     -137157.91    
    276400   2383.6807     -13074.601      4487.4046     -137162.32    
    276500   2509.4065     -546.50749      4422.276      -137166.77    
    276600   2411.0364      3049.6719      4343.9465     -137165       
    276700   2603.5354      5916.3686      4292.2815     -137168.19    
    276800   2653.9202      15937.19       4302.6595     -137163.05    
    276900   2636.6496     -7106.1547      4418.4209     -137162.77    
    277000   2288.8493     -8938.6369      4529.7279     -137160.36    
    277100   2466.0213     -7818.5396      4582.0512     -137165.86    
    277200   2435.2788     -15319.47       4592.9        -137158.43    
    277300   2453.4173      5470.1525      4519.9071     -137155.99    
    277400   2585.7684     -2959.7203      4429.4955     -137161.24    
    277500   2416.393       181.01347      4316.7983     -137163.7     
    277600   2531.4832      15375.322      4219.0821     -137170.11    
    277700   2299.955       16484.613      4221.3484     -137165.08    
    277800   2474.6025      10553.192      4329.818      -137163.04    
    277900   2544.4017     -8297.6899      4502.7324     -137156.7     
    278000   2615.3863     -16197.332      4634.1699     -137158.1     
    278100   2492.3957     -11936.283      4665.5248     -137155.59    
    278200   2507.3985     -4299.2598      4597.9023     -137161.86    
    278300   2520.8265     -6171.3958      4492.3274     -137168.19    
    278400   2314.8852      4137.1232      4382.7154     -137165.18    
    278500   2353.3635      9110.7064      4307.7811     -137163.15    
    278600   2599.6112      13497.894      4284.4195     -137160.85    
    278700   2675.7697      6181.9208      4337.1015     -137165.9     
    278800   2234.4719     -9129.2537      4419.1618     -137160.54    
    278900   2452.2937     -10556.643      4439.1877     -137165.55    
    279000   2390.7716      7071.8841      4419.8872     -137160.09    
    279100   2781.3873      3045.7616      4440.7909     -137160.61    
    279200   2676.5453     -4056.331       4483.6553     -137156.64    
    279300   2572.9368     -4289.3189      4482.8679     -137158.88    
    279400   2496.9622      2579.8381      4448.2165     -137163.22    
    279500   2341.8991      2650.9789      4416.2522     -137162.2     
    279600   2513.4682     -1623.1696      4420.735      -137162.87    
    279700   2770.0542     -7887.4195      4456.6226     -137162.57    
    279800   2575.4364     -5092.7657      4462.8806     -137158.67    
    279900   2578.6495     -924.11614      4437.843      -137162.83    
    280000   2214.9789      4517.0525      4411.4404     -137155.9     
    280100   2584.7332     -8250.6571      4381.0149     -137165.22    
    280200   2469.2366      4609.046       4309.5544     -137164.85    
    280300   2407.3344      3752.5066      4267.012      -137168.84    
    280400   2151.3763      2323.5089      4259.0354     -137169.84    
    280500   2355.82        3001.5676      4271.7396     -137170.76    
    280600   2374.5837     -5762.927       4324.3442     -137163.64    
    280700   2581.82        7375.2846      4374.1145     -137165       
    280800   2449.0665     -4351.8064      4443.8564     -137158.62    
    280900   2657.6681      2575.8801      4491.3814     -137160.22    
    281000   2480.3436     -12340.364      4535.3087     -137156.46    
    281100   2324.2803     -1324.5361      4488.7893     -137160.08    
    281200   2267.6523      6200.3024      4407.9242     -137161.95    
    281300   2520.0352     -6517.5653      4366.7222     -137164.48    
    281400   2831.8727      7611.4648      4344.4196     -137165.54    
    281500   2598.8943      4925.8749      4381.9061     -137162.59    
    281600   2463.0125     -2962.0714      4455.2405     -137162.67    
    281700   2186.4225      1430.9768      4513.8755     -137154.38    
    281800   2561.5321     -14749.002      4532.2399     -137156.76    
    281900   2649.8779      372.24391      4482.4048     -137157.96    
    282000   2617.3278      7267.6901      4446.878      -137161.12    
    282100   2528.5098     -6473.4208      4469.9199     -137163.35    
    282200   2246.2369      9896.3668      4474.8927     -137157.57    
    282300   2502.214       6635.3323      4505.3364     -137163.32    
    282400   2380.7851     -5474.892       4543.7705     -137158.82    
    282500   2406.8728     -12566.973      4534.8122     -137156.31    
    282600   2608.6766      4111.0277      4470.7049     -137159.43    
    282700   2507.8294      8193.7642      4439.2593     -137162.37    
    282800   2267.5142     -9250.2988      4428.0701     -137165.65    
    282900   2375.0551      6014.1172      4394.1139     -137162.87    
    283000   2694.2182     -6207.6754      4381.7228     -137165.99    
    283100   2504.1812      4495.6129      4361.2629     -137162.48    
    283200   2248.7968      5214.4682      4365.3657     -137160.86    
    283300   2442.0677     -10272.872      4385.0863     -137169.38    
    283400   2308.4214     -2581.0424      4343.9713     -137166.42    
    283500   2620.755       11477.837      4282.4184     -137167.26    
    283600   2670.7707      8591.1394      4302.3021     -137165.08    
    283700   2441.3399     -8654.8963      4375.7793     -137163.84    
    283800   2214.2805     -11089.712      4390.5979     -137161.48    
    283900   2580.0216      11846.542      4349.0818     -137163.16    
    284000   2794.833       6912.8869      4380.0132     -137164.27    
    284100   2360.0967     -11028.628      4453.4626     -137158.5     
    284200   2306.6675     -4445.7329      4448.6395     -137156.87    
    284300   2689.7508      4161.9087      4401.9294     -137161.57    
    284400   2795.3954      6123.0543      4392.9589     -137165.26    
    284500   2383.3077     -18856.535      4429.8579     -137165.1     
    284600   2408.302      -3635.8321      4390.5921     -137164.93    
    284700   2612.9617     -5802.2384      4315.8843     -137165.74    
    284800   2522.2885      11114.649      4248.3048     -137162.44    
    284900   2439.6281      11522.027      4263.9916     -137166.59    
    285000   2163.3675     -5000.9648      4348.295      -137167.07    
    285100   2284.5599     -7805.9308      4394.4315     -137166.19    
    285200   2500.633      -6136.119       4401.3329     -137166.11    
    285300   2636.7247     -6853.7438      4367.5921     -137163.83    
    285400   2774.7642      1949.3842      4316.8468     -137166.02    
    285500   2313.3335      145.47211      4298.3238     -137161.16    
    285600   2451.2101      6445.9397      4300.9002     -137166.91    
    285700   2466.4553     -1730.7212      4345.2569     -137165.19    
    285800   2562.0199     -11681.856      4384.7539     -137165.21    
    285900   2460.3953     -6327.3785      4369.548      -137161.83    
    286000   2571.2422     -2135.9193      4308.836      -137164.34    
    286100   2595.2494      8770.4986      4239.6154     -137167.19    
    286200   2518.9525      15492.694      4243.5218     -137166.85    
    286300   2405.3622     -2278.9276      4324.9818     -137163.96    
    286400   2618.0037     -2474.2581      4388.5099     -137165.06    
    286500   2534.0765     -5917.9937      4428.7044     -137157.59    
    286600   2699.3666     -10537.15       4425.7144     -137158.7     
    286700   2723.2087      9483.7845      4408.7612     -137160.79    
    286800   2356.0153     -108.39206      4447.4184     -137160.41    
    286900   2356.4173     -11062.694      4474.2269     -137161.96    
    287000   2516.5461      5431.8558      4447.6508     -137160.71    
    287100   2628.2382      8762.9108      4461.5853     -137159.68    
    287200   2457.3792     -5384.1372      4539.5684     -137159.93    
    287300   2107.7997     -15383.655      4576.1657     -137158.62    
    287400   2549.3228     -4300.0014      4514.0307     -137165.1     
    287500   2554.0886     -1291.658       4414.7182     -137161.45    
    287600   2427.3733      5537.8909      4305.0536     -137160.52    
    287700   2514.8566      10153.565      4227.1134     -137167.15    
    287800   2382.5023      6383.5442      4198.8234     -137172.22    
    287900   2340.0818      5047.7458      4222.0272     -137171.4     
    288000   2382.8585     -2035.4027      4291.9903     -137167.06    
    288100   2516.3112     -183.01582      4359.5905     -137167.5     
    288200   2432.9244     -4345.6669      4435.1581     -137162.63    
    288300   2619.3079     -2714.5888      4479.0761     -137160.65    
    288400   2547.2112     -8200.1009      4493.2968     -137156.69    
    288500   2719.0404     -12057.131      4464.8505     -137164.53    
    288600   2461.9203      1118.4559      4393.5796     -137161.71    
    288700   2180.7823      8419.8684      4323.8229     -137165.09    
    288800   2349.9089     -4611.8186      4286.8497     -137167.62    
    288900   2491.0345      5177.1095      4248.0736     -137164.64    
    289000   2569.669       7845.8125      4251.9054     -137164.13    
    289100   2401.6724      6873.2192      4305.4227     -137163.9     
    289200   2345.0824      3640.9616      4388.149      -137164.84    
    289300   2337.5037     -9409.102       4474.2416     -137160.67    
    289400   2428.8076     -9708.2889      4495.0907     -137160.4     
    289500   2626.8957     -6791.6699      4463.8428     -137162.84    
    289600   2618.6406     -440.70518      4388.7668     -137163.95    
    289700   2402.6037      8319.7615      4316.7889     -137162       
    289800   2386.0912      9643.2394      4285.3303     -137164.99    
    289900   2219.0375      1807.3043      4297.011      -137165.12    
    290000   2376.2676      9452.1869      4320.241      -137167.58    
    290100   2411.9029     -877.83824      4377.4679     -137159.03    
    290200   2603.6304     -3241.4748      4421.2414     -137160.09    
    290300   2542.8748     -1136.8194      4437.0767     -137159.21    
    290400   2464.2464     -3855.2059      4433.6013     -137163.44    
    290500   2305.9556     -3067.5766      4403.8415     -137163.95    
    290600   2810.2737      1113.4544      4359.3726     -137171.08    
    290700   2723.8541      7142.3518      4353.2128     -137160.55    
    290800   2456.9666      2375.3777      4416.5431     -137157.21    
    290900   2574.0723     -11026.001      4446.939      -137165.42    
    291000   2386.6706      6283.5527      4410.3002     -137162.82    
    291100   2362.7739      4613.1256      4395.7394     -137162.07    
    291200   2527.3199      617.71458      4402.7222     -137163.09    
    291300   2820.2071      9565.3855      4427.1983     -137160.91    
    291400   2500.8979     -110.5902       4505.0902     -137156.22    
    291500   2353.6765     -13616.897      4560.0721     -137158.08    
    291600   2497.0614     -1731.9572      4500.0607     -137162.45    
    291700   2649.7796     -1289.2186      4414.0395     -137167.24    
    291800   2605.4292      6022.0822      4368.0333     -137167.5     
    291900   2380.8089      3630.7317      4385.2813     -137164.86    
    292000   2429.7542     -9232.749       4410.4622     -137163.63    
    292100   2628.7804      3015.5969      4388.915      -137159.94    
    292200   2628.2438      8251.1098      4369.362      -137162.53    
    292300   2479.7828     -1418.933       4387.268      -137164.97    
    292400   2404.4559      583.2143       4394.0862     -137163       
    292500   2593.9412     -6450.873       4379.7723     -137165.24    
    292600   2509.9197      9871.1264      4357.0408     -137162.43    
    292700   2359.1277      2614.2433      4400.425      -137166.31    
    292800   2124.6117     -4803.4474      4461.2023     -137165.13    
    292900   2326.5623     -3461.7341      4454.9603     -137164.03    
    293000   2585.2336      6562.7112      4401.0526     -137165.68    
    293100   2438.7776      1844.057       4371.6329     -137161.86    
    293200   2439.2155      6744.1922      4362.6608     -137161.82    
    293300   2559.2375      3654.9873      4397.3769     -137162.28    
    293400   2481.0723      5905.6447      4428.9118     -137159.08    
    293500   2590.4572     -6103.828       4449.517      -137161.15    
    293600   2550.1952     -5974.0185      4418.2088     -137161.66    
    293700   2491.9425      4879.4077      4338.7161     -137167.66    
    293800   2259.9251      10528.142      4291.9439     -137164.6     
    293900   2391.1878      15974.876      4307.5848     -137164.16    
    294000   2546.0727      678.23535      4405.9853     -137161.18    
    294100   2576.7432     -5044.7585      4504.2565     -137158.73    
    294200   2331.3196     -4011.7977      4538.0063     -137158.82    
    294300   2392.6419     -1070.6083      4499.666      -137166.83    
    294400   2404.7095      2401.6586      4423.3225     -137165.83    
    294500   2484.2559      9643.1812      4347.9495     -137161.57    
    294600   2721.5649      6529.2609      4305.8972     -137164.93    
    294700   2416.9935     -2496.4692      4303.9317     -137164.01    
    294800   2377.9152     -29.542574      4307.0273     -137166.63    
    294900   2397.3689      7687.169       4310.7118     -137164.45    
    295000   2415.0569      640.09931      4346.6726     -137161.22    
    295100   2548.4807      1948.0017      4382.4837     -137160.1     
    295200   2653.8792     -5851.6009      4408.7115     -137162.17    
    295300   2450.6528      8023.3643      4408.167      -137161.38    
    295400   2578.1196     -3826.7987      4422.6754     -137167.58    
    295500   2560.2162     -6868.006       4412.9419     -137168.46    
    295600   2271.3227      7177.001       4354.5176     -137160.35    
    295700   2629.4345      13038.595      4284.9703     -137163.88    
    295800   2851.1727      8235.2618      4279.6626     -137169.95    
    295900   2335.7633     -2560.1283      4371.2657     -137166.4     
    296000   2456.2928     -14134.106      4482.9601     -137168.48    
    296100   2255.167      -15578.932      4521.9383     -137157.22    
    296200   2616.6539     -2312.5372      4439.1693     -137163.21    
    296300   2376.0916      8073.326       4310.1532     -137158.09    
    296400   2533.9306      18074.543      4212.3954     -137165.6     
    296500   2318.2077      1720.134       4216.4345     -137170.84    
    296600   2352.731      -960.20157      4264.5799     -137169.58    
    296700   2410.6127     -497.23633      4319.0915     -137163.57    
    296800   2587.4535     -650.33099      4387.3141     -137163.09    
    296900   2616.1966     -6508.3346      4441.7626     -137163.55    
    297000   2398.0649      825.86678      4456.6069     -137161.8     
    297100   2385.2304     -11535.667      4427.1895     -137168.08    
    297200   2250.9621      5647.9268      4356.0014     -137164.51    
    297300   2502.8881      9196.1478      4312.5588     -137161.2     
    297400   2545.678       13672.466      4311.8736     -137161.44    
    297500   2426.4376     -5860.4012      4387.5236     -137163.84    
    297600   2352.4459     -3711.4741      4452.3888     -137163.15    
    297700   2568.5171     -6025.0132      4483.7204     -137162.75    
    297800   2558.1093     -7306.4338      4487.151      -137161.67    
    297900   2617.122      -1438.4729      4474.5779     -137163.79    
    298000   2497.479       2308.0172      4458.872      -137163       
    298100   2337.1494     -12202.015      4416.4795     -137164.62    
    298200   2423.8254      4574.3576      4311.6932     -137171.32    
    298300   2438.8866      8264.2093      4249.4196     -137170.63    
    298400   2733.5999      6592.5335      4272.9198     -137168.95    
    298500   2585.9374     -6545.5261      4361.8493     -137164.2     
    298600   2509.3234     -15934.175      4437.8202     -137160.77    
    298700   2786.0683      527.78913      4457.6714     -137159.64    
    298800   2803.1262     -6373.2079      4489.4182     -137160.37    
    298900   2448.3073      1716.1995      4495.0528     -137158.39    
    299000   2601.9712     -5763.4755      4490.1536     -137164.53    
    299100   2573.8609     -4777.9308      4462.5755     -137164.66    
    299200   2352.9483      9001.775       4416.0135     -137160.98    
    299300   2490.6767     -1922.5996      4388.9826     -137165.47    
    299400   2591.2634      1692.0558      4372.1454     -137163.95    
    299500   2370.4797      8086.4079      4376.0836     -137156.07    
    299600   2612.2351     -3916.6381      4407.7343     -137161.45    
    299700   2470.0342      823.06256      4418.1237     -137160.77    
    299800   2521.5489     -6498.4315      4428.838      -137166.67    
    299900   2386.6778     -2656.3835      4418.8573     -137163.37    
    300000   2603.87       -2946.4287      4385.847      -137159.3     
    300100   2573.2978     -650.26096      4335.1258     -137157.21    
    300200   2606.8394      11969.9        4283.9437     -137165.18    
    300300   2374.8091     -2147.2986      4308.0996     -137165.02    
    300400   2347.1704      4094.9815      4349.4375     -137163.41    
    300500   2447.5279      8967.2629      4405.332      -137161.52    
    300600   2459.6908     -8560.3114      4489.1019     -137160.56    
    300700   2517.7706      2012.9398      4549.8252     -137152.17    
    300800   2678.1551     -13649.909      4596.5964     -137151.87    
    300900   2701.997      -14758.53       4561.3513     -137159.6     
    301000   2409.6602     -5478.9102      4438.3564     -137160.15    
    301100   2446.4638      8815.4366      4278.5947     -137163.96    
    301200   2459.2883      16588.152      4204.9994     -137163.93    
    301300   2404.2276      12370.673      4223.3679     -137165.66    
    301400   2252.8117      8334.8613      4284.9974     -137166.75    
    301500   2317.8241     -9708.0421      4357.365      -137165.69    
    301600   2526.9733      1556.659       4366.9722     -137162.49    
    301700   2528.6039      427.25711      4378.357      -137160.59    
    301800   2420.5688      1719.1976      4405.1765     -137158.14    
    301900   2613.232      -5755.6715      4423.8198     -137165.57    
    302000   2315.4227     -7859.7953      4417.7856     -137164.31    
    302100   2266.5781     -1158.7216      4371.8809     -137162.28    
    302200   2408.8999      10260.143      4326.6915     -137157.23    
    302300   2597.6726      11597.884      4309.4693     -137162.13    
    302400   2372.9347     -2381.5304      4334.4641     -137161.08    
    302500   2451.6235      7399.0266      4367.1884     -137164.27    
    302600   2269.0333      5570.9483      4404.4387     -137159.32    
    302700   2778.7223      1579.3647      4445.4736     -137163.89    
    302800   2508.8256      9693.0207      4508.5383     -137157.23    
    302900   2416.8076     -4671.1994      4591.8221     -137160.93    
    303000   2219.9508     -16192.786      4629.2191     -137157.18    
    303100   2569.2849     -1369.5346      4554.5319     -137161.23    
    303200   2544.6829      14226.953      4449.9888     -137159.53    
    303300   2554.5515     -2952.6144      4406.0126     -137163.33    
    303400   2505.2379      4224.8541      4380.2337     -137164.75    
    303500   2628.6415     -9049.1516      4382.6067     -137167.56    
    303600   2553.27        3190.3358      4355.6481     -137160.12    
    303700   2788.2634     -689.81238      4338.1862     -137161.54    
    303800   2605.8227     -1326.1899      4338.9611     -137165.1     
    303900   2440.217       1014.3892      4343.8189     -137166.12    
    304000   2463.6291      1353.4069      4371.3811     -137166.5     
    304100   2648.9847     -8416.1983      4422.2148     -137166.48    
    304200   2484.5579     -6180.8676      4456.6399     -137155.46    
    304300   2559.9399      4474.8017      4455.5818     -137154.39    
    304400   2481.1293     -9575.7644      4455.314      -137158.23    
    304500   2429.8337     -5663.9842      4411.2493     -137164.86    
    304600   2220.0054      2988.4976      4339.1652     -137160.49    
    304700   2644.9955      3922.4255      4277.85       -137167.86    
    304800   2810.4762      9470.0148      4259.3683     -137170.22    
    304900   2359.0325      5204.7463      4312.6798     -137163.16    
    305000   2336.1931     -6989.1429      4373.241      -137165.82    
    305100   2528.4671     -8399.4789      4421.3431     -137164.11    
    305200   2697.9704     -573.85978      4443.3528     -137162.9     
    305300   2552.1055      2908.8389      4446.6221     -137161.38    
    305400   2461.6343     -5608.9206      4452.8644     -137162.31    
    305500   2378.3496      2893.4228      4427.6195     -137160.43    
    305600   2588.3282      11142.804      4392.9291     -137160.36    
    305700   2697.3857      2807.2061      4400.5601     -137159.2     
    305800   2578.8041     -4293.4449      4434.8515     -137161.72    
    305900   2348.5047      225.14756      4449.1122     -137159.75    
    306000   2473.9292     -1631.9852      4436.9746     -137161.33    
    306100   2753.4932     -4490.8845      4424.8715     -137158.82    
    306200   2624.8462      9007.4466      4411.9666     -137155       
    306300   2484.4795      1730.5215      4424.9788     -137162.41    
    306400   2349.2735     -3238.2889      4460.0134     -137159.87    
    306500   2561.2407     -8402.9656      4483.7147     -137160.2     
    306600   2528.4409      3978.7935      4457.5684     -137158.17    
    306700   2473.6612      554.42806      4430.3674     -137162.45    
    306800   2406.9787     -5531.0046      4410.1358     -137166.43    
    306900   2339.7626      10252.832      4391.8012     -137162.27    
    307000   2618.5338     -3501.0249      4430.0192     -137165.36    
    307100   2344.3971      18392.149      4455.5525     -137158.06    
    307200   2505.308      -13712.518      4498.5047     -137161.06    
    307300   2563.4383     -5625.2666      4470.4822     -137157.64    
    307400   2805.1198      3314.8706      4399.7295     -137161.72    
    307500   2408.7024     -2982.0755      4350.401      -137161.69    
    307600   2575.287       7718.6476      4296.0783     -137171.07    
    307700   2482.8487      2717.9329      4303.0245     -137171.2     
    307800   2492.3891     -995.52653      4352.0506     -137168.55    
    307900   2505.6853      8122.9653      4399.7709     -137159.99    
    308000   2458.0527      12845.463      4490.4225     -137155.12    
    308100   2513.524      -5175.0177      4597.9781     -137158.59    
    308200   2384.5534     -20330.988      4651.6707     -137155.75    
    308300   2533.1228     -8210.6855      4579.6068     -137157.23    
    308400   2792.8773      4446.7016      4458.9315     -137155.29    
    308500   2579.1004      3344.6998      4378.7649     -137154.53    
    308600   2432.8624      220.37497      4347.1778     -137159.5     
    308700   2462.4753     -1822.3827      4333.1155     -137163.76    
    308800   2478.3292     -93.240041      4319.1868     -137166.4     
    308900   2358.4791      6758.9226      4322.0915     -137162.2     
    309000   2724.5181      3524.9505      4355.5868     -137164.33    
    309100   2759.6025     -5821.5708      4401.6842     -137163.44    
    309200   2458.7757     -7332.6102      4437.1613     -137162.12    
    309300   2400.3933     -7457.2149      4451.5283     -137162.83    
    309400   2361.1052      2557.7485      4444.8175     -137160.45    
    309500   2497.656       1077.232       4425.3848     -137163       
    309600   2571.4116     -834.56922      4399.3387     -137163.86    
    309700   2728.2549     -7842.8568      4396.1632     -137163.05    
    309800   2869.2261      6622.5195      4391.8248     -137164.5     
    309900   2466.7197      419.261        4442.6123     -137163.75    
    310000   2269.3271     -7146.8567      4482.4511     -137161.4     
    310100   2511.5281      601.69518      4453.0797     -137163.82    
    310200   2543.282       10126.713      4431.9882     -137159.87    
    310300   2486.0425     -31.025479      4454.7561     -137153.87    
    310400   2673.2997     -2951.8445      4450.4419     -137160.49    
    310500   2409.3026      4929.5066      4433.7012     -137163.51    
    310600   2374.0647      3273.0193      4444.2329     -137165.34    
    310700   2450.5959     -1156.0389      4467.5689     -137163.63    
    310800   2771.8123     -5688.3484      4463.2716     -137165.25    
    310900   2535.9487      5951.2728      4424.5101     -137161.07    
    311000   2427.1556      10383.767      4406.642      -137162.76    
    311100   2448.9877      1282.2172      4424.2451     -137165.22    
    311200   2376.2696      2254.3721      4431.5717     -137162.1     
    311300   2548.8917     -3444.2542      4418.7237     -137163.18    
    311400   2478.3529     -4769.4754      4412.8896     -137157.86    
    311500   2482.2249      5482.6546      4390.1634     -137159.32    
    311600   2509.1743     -66.246846      4387.4608     -137170.69    
    311700   2383.8583     -4821.2227      4410.4579     -137167.29    
    311800   2405.1726      195.95832      4439.2198     -137160.52    
    311900   2732.9949     -1386.2733      4469.4732     -137167.19    
    312000   2406.1761     -13983.88       4477.8062     -137160.61    
    312100   2583.9271      8507.4954      4406.8823     -137166.6     
    312200   2399.9846      7513.1202      4385.7079     -137162.04    
    312300   2443.0706      385.42464      4404.9552     -137161.34    
    312400   2623.6789     -5903.186       4410.1138     -137164.01    
    312500   2501.5678      4382.035       4368.2389     -137163.63    
    312600   2453.218      -4454.0379      4334.7349     -137166.42    
    312700   2542.98        13221.152      4313.951      -137165.88    
    312800   2624.5127      3102.4934      4366.5161     -137160.72    
    312900   2598.4264     -3224.6704      4442.1951     -137158.68    
    313000   2364.2013     -9857.419       4487.9705     -137161.36    
    313100   2339.5539     -11311.925      4470.3906     -137163.9     
    313200   2495.4036      7337.889       4403.598      -137163.67    
    313300   2456.1371     -903.51         4365.8879     -137160.9     
    313400   2521.3422      9789.4111      4311.4056     -137163.76    
    313500   2340.9789      13016.247      4300.2829     -137163.13    
    313600   2355.4108     -9843.9902      4348.0584     -137167.21    
    313700   2437.3267      4179.4069      4360.8932     -137163.19    
    313800   2659.8534     -6663.7712      4378.855      -137164.44    
    313900   2531.3911      5175.8514      4378.8582     -137164.14    
    314000   2378.398      -9175.8376      4378.6712     -137166       
    314100   2472.6949     -2066.1473      4347.2517     -137165.73    
    314200   2724.1005      10722.385      4311.8309     -137158.98    
    314300   2775.8817      7639.907       4330.4839     -137163.66    
    314400   2492.4001     -4247.3434      4397.116      -137163.88    
    314500   2315.3948     -8855.5595      4446.8327     -137161.43    
    314600   2439.4546     -2565.7844      4445.8816     -137160.78    
    314700   2779.4453      58.727578      4409.2319     -137163.05    
    314800   2662.4207     -6842.2473      4368.2617     -137163.62    
    314900   2376.2938      1364.7766      4318.9293     -137165.01    
    315000   2293.8012      9468.7166      4274.221      -137161.79    
    315100   2458.6169      1278.4906      4270.7192     -137162.6     
    315200   2563.442       11914.23       4307.4021     -137160.44    
    315300   2522.5812      1308.2267      4424.2006     -137160.87    
    315400   2268.4318     -5250.8805      4567.5049     -137162.24    
    315500   2215.6916     -10578.495      4638.1241     -137159.85    
    315600   2463.3993     -11468.739      4621.1812     -137159.63    
    315700   2527.5446     -986.03654      4525.3899     -137158.49    
    315800   2662.2737      8816.354       4424.517      -137161.14    
    315900   2404.2636      13278.675      4375.2031     -137163.18    
    316000   2389.6132     -405.20133      4370.5608     -137165.21    
    316100   2492.8011      3323.3911      4351.3606     -137165.86    
    316200   2621.9035      649.3237       4358.2494     -137163.86    
    316300   2640.1856      6976.8982      4382.7857     -137157.17    
    316400   2728.9447      5848.6244      4430.3109     -137155.32    
    316500   2616.3859     -6656.2447      4487.3426     -137163.74    
    316600   2266.7335     -3684.9605      4515.2498     -137157.5     
    316700   2520.3437     -1580.4038      4508.7164     -137158.43    
    316800   2760.086       2445.2009      4479.2522     -137160.28    
    316900   2474.6904     -2628.0482      4457.5318     -137157.53    
    317000   2446.4312     -6410.7673      4421.7959     -137160.95    
    317100   2524.9097      3689.7427      4369.3344     -137164.46    
    317200   2488.8156      7923.6646      4344.1944     -137164.06    
    317300   2372.7304     -173.32851      4360.0326     -137158.03    
    317400   2598.1727      5152.0928      4374.7017     -137159.78    
    317500   2615.1027     -1977.0583      4410.2551     -137163.68    
    317600   2354.7434     -13625.519      4456.1203     -137166.55    
    317700   2490.2233     -9484.1392      4463.1898     -137168.52    
    317800   2573.3224      597.29271      4437.5549     -137165.23    
    317900   2462.9764      3515.34        4418.3597     -137157.37    
    318000   2567.521       1611.6544      4400.3884     -137159.26    
    318100   2469.7719     -4755.2006      4366.328      -137164.63    
    318200   2387.3784     -1400.9744      4313.8536     -137168.89    
    318300   2300.2785      8708.2089      4269.1555     -137164.76    
    318400   2603.1378      4751.3843      4265.5367     -137167.76    
    318500   2451.1543      8270.2018      4312.1063     -137161.69    
    318600   2341.0273      6162.1668      4372.7391     -137159.58    
    318700   2315.6503     -5603.0082      4418.4893     -137166.48    
    318800   2276.679      -3218.0571      4420.2952     -137164.53    
    318900   2452.9907      5694.2365      4398.1509     -137161.28    
    319000   2624.8428      4593.304       4402.7478     -137162.82    
    319100   2503.7754      864.14222      4437.1753     -137159.36    
    319200   2417.0181     -5892.7223      4465.5243     -137162.18    
    319300   2317.8052     -4394.1349      4435.1344     -137166.93    
    319400   2473.1559      9113.2617      4341.8735     -137170.06    
    319500   2623.5279      7191.4914      4285.497      -137166.76    
    319600   2661.6473      14358.675      4293.7905     -137160.77    
    319700   2491.0089      86.981102      4376.5253     -137163.82    
    319800   2484.5086     -15258.387      4473.3609     -137169.78    
    319900   2270.7492     -9337.7096      4496.3088     -137160.71    
    320000   2654.9989     -1716.5971      4460.2691     -137163.28    
    320100   2581.4291      5336.3465      4427.16       -137161.92    
    320200   2430.0313     -1854.8506      4404.6944     -137161.7     
    320300   2413.418       6883.7083      4379.9658     -137160.89    
    320400   2581.0096      3901.7375      4404.9366     -137158.74    
    320500   3052.728      -8642.3814      4452.6279     -137162.23    
    320600   2683.2813     -1541.8565      4490.2016     -137158.28    
    320700   2649.7271     -6288.0728      4505.4162     -137163.57    
    320800   2373.9934     -9514.785       4472.2131     -137160.98    
    320900   2514.2508      10922.535      4377.465      -137165.46    
    321000   2606.8633      18542.841      4335.8971     -137166.71    
    321100   2455.5179      7146.3766      4409.277      -137163.92    
    321200   2316.7681     -10924.308      4524.4886     -137161.72    
    321300   2427.9071     -13102.398      4585.1674     -137156.2     
    321400   2628.2486     -10479.337      4535.7579     -137156.42    
    321500   2667.3946      5037.5201      4419.5357     -137160.63    
    321600   2598.2508      5228.9593      4344.291      -137168.03    
    321700   2389.33       -5730.7227      4316.7826     -137165.5     
    321800   2636.423       3587.541       4291.9733     -137170.51    
    321900   2646.0897      1955.7629      4323.3243     -137165.35    
    322000   2564.632       549.61585      4396.6156     -137158.32    
    322100   2718.4207     -1281.9562      4471.9095     -137154.8     
    322200   2935.5842     -758.38756      4519.9371     -137162.68    
    322300   2456.2267     -8869.0105      4538.4728     -137160.75    
    322400   2384.3625     -14725.704      4510.2392     -137159.78    
    322500   2644.1646      178.58783      4433.3545     -137163.15    
    322600   2581.7035      5569.2839      4366.221      -137159.69    
    322700   2503.714       1317.4839      4344.5168     -137163.51    
    322800   2366.0338      3630.4066      4352.9487     -137166.43    
    322900   2243.943       5622.3212      4383.8285     -137161.17    
    323000   2455.6524      935.70274      4409.2225     -137161.63    
    323100   2525.0596      633.04559      4399.3427     -137161.87    
    323200   2534.3547     -3468.0287      4375.0411     -137161.52    
    323300   2601.5257      1519.9791      4365.8905     -137163.99    
    323400   2325.9198     -3420.8348      4372.8641     -137162.09    
    323500   2421.6163     -6006.6502      4367.2523     -137167.72    
    323600   2623.0886      1808.1849      4354.2755     -137168.17    
    323700   2620.1977      1563.3985      4348.3077     -137165.25    
    323800   2427.6649     -3658.9513      4366.7713     -137167.14    
    323900   2223.8093      5397.0544      4386.3549     -137165.13    
    324000   2531.2677     -4102.6193      4430.8297     -137166.72    
    324100   2528.4254     -7351.2249      4462.7661     -137161.24    
    324200   2697.6163     -2317.0958      4451.6466     -137163.84    
    324300   2638.8856     -17946.962      4434.9325     -137167.39    
    324400   2418.1812     -602.92123      4329.56       -137167.27    
    324500   2547.9488      11077.114      4226.2064     -137171.42    
    324600   2301.5933      11300.875      4199.2234     -137171.41    
    324700   2175.9793      3841.6344      4232.5271     -137172.83    
    324800   2428.6344      3091.9525      4275.5869     -137171.79    
    324900   2624.093      -1179.1497      4340.4527     -137171.2     
    325000   2540.675      -3769.8381      4441.8177     -137163.87    
    325100   2413.3148     -7490.7827      4537.4543     -137155.02    
    325200   2568.0875     -15284.113      4580.9112     -137156.02    
    325300   2680.0295      6296.1742      4530.6697     -137161.98    
    325400   2301.7249     -12539.465      4474.2878     -137163.73    
    325500   2355.3613     -805.14643      4368.7593     -137164.19    
    325600   2521.6178      12605.132      4288.9742     -137163.43    
    325700   2535.0711      8724.4624      4288.7258     -137164.45    
    325800   2242.8336      2084.0495      4325.0912     -137162.92    
    325900   2306.7881     -90.134433      4344.2195     -137164.19    
    326000   2667.7403      1162.4792      4351.0332     -137164.43    
    326100   2663.9896     -1789.4507      4366.4296     -137164.61    
    326200   2483.2101     -3121.865       4378.2594     -137163.5     
    326300   2445.1456     -387.42745      4374.9321     -137165.68    
    326400   2366.2057     -2899.0338      4373.968      -137165.12    
    326500   2360.968       4296.0851      4359.7503     -137159.95    
    326600   2511.6387      12345.742      4343.9187     -137159.15    
    326700   2450.1218     -3326.7009      4365.3996     -137161.92    
    326800   2548.9079     -744.64207      4371.3066     -137171.03    
    326900   2555.3347     -8267.9429      4367.9924     -137172.1     
    327000   2400.9227      347.09757      4355.9769     -137164.52    
    327100   2596.2586     -7813.0096      4344.1156     -137167.24    
    327200   2561.9562      10051.946      4308.596      -137166.39    
    327300   2588.6014      1202.9767      4314.2307     -137170.25    
    327400   2214.3466      1346.2931      4335.4        -137164.17    
    327500   2322.2288     -812.71021      4359.9392     -137166.25    
    327600   2489.2204     -7064.4342      4385.2656     -137161.14    
    327700   2641.5664      7253.3746      4369.53       -137160.95    
    327800   2629.3119     -9528.327       4378.9605     -137164.68    
    327900   2269.041       4751.5543      4389.7951     -137161.24    
    328000   2396.6035     -3084.549       4406.7262     -137163.63    
    328100   2626.1739      2677.7769      4412.9192     -137160.38    
    328200   2705.6426     -5592.34        4436.7532     -137163.04    
    328300   2398.3055     -303.49285      4431.948      -137158.64    
    328400   2527.0353      136.44195      4390.6932     -137164.57    
    328500   2483.0992      4291.5171      4361.0895     -137165.06    
    328600   2532.5575      10.129789      4364.8839     -137164.76    
    328700   2845.2546      272.94596      4399.4169     -137168.22    
    328800   2454.2403     -4137.0538      4469.1999     -137157.93    
    328900   2230.7889      3926.666       4493.5374     -137157.22    
    329000   2329.6918     -6472.9443      4519.4991     -137158.33    
    329100   2424.1098      3718.716       4508.1784     -137151.93    
    329200   2722.0387     -7528.7914      4479.9266     -137159.18    
    329300   2461.0638      1679.0769      4433.8004     -137158.6     
    329400   2499.5819     -3391.0696      4381.4184     -137161.83    
    329500   2500.485       2571.5944      4322.629      -137160.22    
    329600   2671.0722      11606.403      4302.7989     -137162.95    
    329700   2569.567      -3308.9792      4374.1314     -137167.99    
    329800   2360.3318     -15024.455      4469.6359     -137166.83    
    329900   2341.5096     -11058.12       4504.9919     -137160.54    
    330000   2536.2724      4295.9758      4460.1012     -137160.38    
    330100   2530.8487     -4921.2887      4424.567      -137155.93    
    330200   2916.0207     -8719.3577      4376.9988     -137166.84    
    330300   2482.7694     -757.93928      4305.0531     -137166.45    
    330400   2452.3254      5566.2347      4245.8717     -137165.72    
    330500   2529.1475      14955.16       4252.9695     -137165.71    
    330600   2624.5555     -1858.5509      4363.7362     -137167.13    
    330700   2345.3851     -1223.0864      4477.5884     -137159.42    
    330800   2661.7137     -11123.001      4540.082      -137164.7     
    330900   2540.4676     -8738.0481      4524.4875     -137158.49    
    331000   2605.641      -3184.4546      4446.416      -137162.39    
    331100   2375.4738      3594.9427      4348.9409     -137164.07    
    331200   2396.9437      3484.534       4277.7162     -137167.84    
    331300   2469.9415      5899.1908      4245.1227     -137165.98    
    331400   2831.7152      14288.366      4246.0185     -137165.93    
    331500   2438.9382      8197.9587      4312.0199     -137159.06    
    331600   2505.2864     -12482.302      4402.613      -137164.4     
    331700   2487.2277     -7925.6841      4434.2276     -137165.14    
    331800   2630.8613      4463.0358      4439.8432     -137164.77    
    331900   2525.0488      6648.319       4468.1413     -137156.27    
    332000   2663.6095     -1328.4537      4517.0073     -137156.97    
    332100   2516.191      -10022.493      4542.3784     -137160.34    
    332200   2217.3278     -4165.0734      4504.4457     -137157.65    
    332300   2528.0549     -2312.8485      4404.5206     -137162.78    
    332400   2681.814       4763.3766      4308.7643     -137165.8     
    332500   2543.394       5508.4065      4269.4441     -137165.4     
    332600   2479.161       1772.9132      4278.0166     -137167.6     
    332700   2357.563      -1169.8566      4295.1387     -137166.29    
    332800   2374.6287      7370.8346      4305.5992     -137162.57    
    332900   2602.9174     -3475.9506      4331.2664     -137163.79    
    333000   2544.2802      7665.4546      4359.9648     -137162.65    
    333100   2512.3189     -11783.5        4410.6483     -137164.13    
    333200   2410.6973     -2889.7252      4419.2027     -137162.43    
    333300   2627.0833      6512.3834      4410.5868     -137163.93    
    333400   2868.6287      3593.3151      4427.063      -137166.24    
    333500   2509.4016      3132.7488      4472.6789     -137163.46    
    333600   2261.3178     -12462.503      4525.8609     -137162.14    
    333700   2441.1932     -11551.862      4525.2731     -137162.87    
    333800   2625.8814     -3487.6128      4476.3566     -137164.2     
    333900   2535.8373      4023.0547      4433.895      -137162.41    
    334000   2506.7109      2953.535       4410.7827     -137164.48    
    334100   2357.0164     -4834.9546      4396.8864     -137164.3     
    334200   2418.5555     -3311.5496      4367.0815     -137169.79    
    334300   2488.797       7132.3787      4333.8966     -137168.37    
    334400   2444.2832      8131.6956      4338.4015     -137160.09    
    334500   2524.5207     -7896.5415      4369.4962     -137160.44    
    334600   2574.3919      1872.7339      4379.6456     -137163.96    
    334700   2310.6148     -7285.9116      4396.7795     -137166.14    
    334800   2412.4546     -4127.8512      4381.0091     -137167.51    
    334900   2549.7366      1994.299       4358.0534     -137165.06    
    335000   2505.2233      3626.3338      4347.819      -137163.29    
    335100   2450.8885      4391.3099      4334.8842     -137163.29    
    335200   2537.4608     -6856.631       4327.1001     -137166.04    
    335300   2430.5328      8335.4901      4313.6621     -137161.44    
    335400   2598.3853      2730.4638      4342.5303     -137163.08    
    335500   2537.0015      3233.1131      4404.3494     -137164.16    
    335600   2132.9801     -1695.0106      4468.6763     -137159.2     
    335700   2214.1532     -8122.9702      4491.4625     -137159.17    
    335800   2585.7757     -1223.6556      4457.4643     -137160.04    
    335900   2530.311      -4833.2543      4427.6608     -137157.96    
    336000   2520.1867      7027.8297      4396.8512     -137163.83    
    336100   2232.7512     -2802.758       4410.1404     -137160.49    
    336200   2413.2229     -2467.2937      4389.469      -137161.28    
    336300   2563.1631      8758.3194      4346.0569     -137160.73    
    336400   2574.9862      14017.644      4353.8937     -137162.81    
    336500   2429.7807     -5926.863       4426.6146     -137163.59    
    336600   2439.5776     -2920.316       4474.615      -137163.47    
    336700   2644.9365     -4000.3172      4462.6876     -137162.88    
    336800   2687.0938      7520.5534      4403.8339     -137154.63    
    336900   2758.7221      10308.623      4360.5073     -137160.91    
    337000   2624.9696      4326.6866      4378.8225     -137163.29    
    337100   2453.5249     -5225.4853      4414.0159     -137165       
    337200   2354.8743      2523.0437      4404.986      -137162.17    
    337300   2504.016       4439.2445      4390.9592     -137160.68    
    337400   2530.5663      5542.3267      4384.6116     -137156.64    
    337500   2797.159       7821.5003      4398.5878     -137158.9     
    337600   2687.8182     -2060.1095      4462.9501     -137158.67    
    337700   2315.7662     -10866.671      4519.705      -137157.61    
    337800   2355.3455     -479.52528      4486.0127     -137157.56    
    337900   2514.557       10855.629      4405.101      -137156.71    
    338000   2634.1442      9354.602       4357.5499     -137163.05    
    338100   2198.772      -2863.4634      4357.7915     -137160.51    
    338200   2364.9248      697.27311      4348.0745     -137162.83    
    338300   2466.0306      6109.2815      4346.5333     -137160.04    
    338400   2630.3601      903.08766      4373.9988     -137161.98    
    338500   2563.7867     -5385.8164      4402.3976     -137165.34    
    338600   2195.2757     -11517.888      4381.5897     -137163.46    
    338700   2376.9771      11167.599      4304.5969     -137165.06    
    338800   2518.5014      18687.118      4276.9039     -137165.54    
    338900   2482.0216      8740.2626      4370.3828     -137164.08    
    339000   2419.5391     -14823.344      4544.0573     -137157.89    
    339100   2666.7986     -10879.489      4647.2062     -137154.34    
    339200   2541.3465     -11888.254      4672.3004     -137151.97    
    339300   2572.8443     -10179.331      4619.3917     -137159.34    
    339400   2407.5684     -4314.7362      4492.0873     -137160.09    
    339500   2614.6473      6439.0069      4324.0461     -137166.3     
    339600   2639.3307      400.59705      4225.8058     -137168.95    
    339700   2473.7408      9245.8332      4202.1784     -137171.86    
    339800   2480.0037      779.21121      4237.3597     -137173.73    
    339900   2380.3228      1629.6303      4291.6731     -137167.63    
    340000   2575.226       579.41028      4358.4989     -137166.54    
    340100   2581.69       -8017.5012      4428.8379     -137165.48    
    340200   2445.0044     -9242.1753      4457.9212     -137162.73    
    340300   2604.5026      4808.1904      4448.3734     -137166.28    
    340400   2574.5205     -5927.1864      4452.1763     -137162.6     
    340500   2713.097       4192.0973      4423.6737     -137162.72    
    340600   2507.3394      5418.3048      4417.5397     -137160.63    
    340700   2468.7888     -6215.9447      4432.8189     -137165.79    
    340800   2387.9803     -12625.905      4427.4673     -137162.46    
    340900   2801.0141      4541.8341      4396.9799     -137163.89    
    341000   2604.2964     -4706.1747      4423.0357     -137159.77    
    341100   2491.3835     -4657.4982      4467.8223     -137160.2     
    341200   2389.7867     -4916.8789      4513.2243     -137158.92    
    341300   2475.8018     -9076.072       4514.5998     -137157.28    
    341400   2596.4803      205.06565      4460.289      -137152.66    
    341500   2779.1885      5903.0998      4405.247      -137160.5     
    341600   2557.5254      6591.2636      4392.5445     -137159.68    
    341700   2475.8484      2724.4016      4442.7891     -137160.54    
    341800   2375.4431     -11672.496      4495.4593     -137159.11    
    341900   2569.8618      5060.0917      4482.2428     -137161.99    
    342000   2497.6857      805.03715      4486.6546     -137159.77    
    342100   2510.7596     -9783.6949      4475.0128     -137164.16    
    342200   2247.3192      1753.1511      4415.5763     -137162.35    
    342300   2464.1596      1677.8977      4349.568      -137165.79    
    342400   2576.9494      5176.3063      4284.6997     -137160       
    342500   2731.8401      7995.9045      4269.4377     -137163.57    
    342600   2579.0767      1471.3892      4337.5157     -137163.01    
    342700   2588.3226     -3394.1354      4431.2208     -137164.9     
    342800   2235.042      -7634.4851      4487.969      -137156.76    
    342900   2528.6596      899.77462      4477.5676     -137162.16    
    343000   2755.4633     -4091.1285      4456.6396     -137160.42    
    343100   2604.1149      201.98463      4436.5786     -137160.33    
    343200   2464.6862      1501.8913      4414.2972     -137163.57    
    343300   2492.3343     -7057.2168      4378.678      -137165.27    
    343400   2627.7833     -9674.7437      4322.5745     -137166.59    
    343500   2749.1045      15506.491      4278.1689     -137162.86    
    343600   2788.3454      7224.2947      4328.6674     -137164.53    
    343700   2432.9771      5200.4447      4420.2479     -137166.41    
    343800   2191.9536     -6956.2135      4511.8279     -137161.45    
    343900   2496.5178     -9982.4902      4539.0733     -137161.65    
    344000   2605.7133     -9429.9906      4492.4881     -137162.21    
    344100   2416.7892      7450.6218      4409.4925     -137160.14    
    344200   2301.934       7392.1784      4378.4827     -137160.96    
    344300   2269.1762      3054.16        4395.4829     -137164.65    
    344400   2435.5184     -10861.097      4422.5185     -137164.73    
    344500   2640.2608     -4297.6645      4402.8203     -137161.77    
    344600   2544.7111      14907.694      4362.2517     -137158.93    
    344700   2381.879      -7395.9041      4375.6036     -137160.88    
    344800   2336.93       -2095.0609      4351.8061     -137162.76    
    344900   2668.0028      604.36298      4304.6771     -137168.34    
    345000   2586.0546      6810.8253      4287.7544     -137161.95    
    345100   2603.187       15054.961      4327.0673     -137158.07    
    345200   2584.0425     -7018.735       4435.8424     -137162.65    
    345300   2306.4903     -9351.6616      4514.4631     -137159.57    
    345400   2565.7662     -6510.185       4535.4814     -137162.39    
    345500   2486.4423     -5250.8216      4522.4544     -137155.38    
    345600   2632.4516      1249.8982      4475.1801     -137158.01    
    345700   2449.5836     -5223.9301      4436.417      -137160.21    
    345800   2485.1523      7349.7423      4397.409      -137166.57    
    345900   2336.3338      4231.9242      4424.4031     -137162.32    
    346000   2497.9706      13081.459      4484.6532     -137159.09    
    346100   2636.5981     -17084.047      4555.091      -137160.53    
    346200   2583.7914     -12872.964      4502.044      -137161.97    
    346300   2579.3681      7160.1453      4371.7175     -137163.35    
    346400   2482.1041      1480.9805      4282.6417     -137163.53    
    346500   2593.6234      7896.0578      4247.0072     -137169.39    
    346600   2407.8709      2380.296       4272.6069     -137167.12    
    346700   2456.2521     -632.72136      4326.9241     -137167.3     
    346800   2575.9529      5338.2069      4390.3298     -137164.95    
    346900   2528.3042     -789.25224      4472.7155     -137157.27    
    347000   2897.8806     -6841.7088      4525.0697     -137156.15    
    347100   2706.6601     -9063.9046      4533.6116     -137153.03    
    347200   2585.7276     -7586.5278      4472.2682     -137157.88    
    347300   2626.1288      12632.414      4385.1118     -137163.06    
    347400   2381.2903      4389.6229      4386.2321     -137161.92    
    347500   2373.7194      1175.94        4412.6753     -137163.19    
    347600   2514.6997     -6480.3062      4415.7809     -137163.27    
    347700   2747.7912      8138.2918      4371.9502     -137161.11    
    347800   2768.8612      14143.801      4378.7041     -137153.51    
    347900   2707.3152      4085.6798      4473.7141     -137159.72    
    348000   2218.2382     -3741.9139      4589.3186     -137149.97    
    348100   2569.4134     -17287.647      4628.2675     -137158.57    
    348200   2540.9112     -6826.9373      4570.6678     -137155.32    
    348300   2603.0303     -4773.2426      4471.5936     -137160.6     
    348400   2347.9993      3284.2599      4379.6281     -137162.79    
    348500   2412.8052      9203.4509      4321.9479     -137165       
    348600   2441.2253      10544.746      4311.0533     -137164.53    
    348700   2447.0762      1506.9983      4361.5987     -137164.23    
    348800   2516.5325     -3837.8454      4434.0229     -137161.91    
    348900   2508.0591     -1364.4809      4479.3037     -137155.88    
    349000   2534.8763     -5348.5117      4493.2325     -137154.72    
    349100   2508.8326     -6167.7302      4476.5714     -137157.2     
    349200   2345.2823     -2610.5839      4432.756      -137160.53    
    349300   2427.0255      1071.3307      4371.5999     -137165.87    
    349400   2515.1218      2401.8786      4328.5446     -137165.4     
    349500   2723.4636      7823.5271      4321.672      -137161.25    
    349600   2804.5207     -1315.5251      4384.3842     -137165.5     
    349700   2470.6862     -10668.532      4464.4425     -137163.63    
    349800   2452.7172     -6559.2013      4492.6479     -137163.45    
    349900   2532.2866     -6765.2722      4449.0156     -137164.3     
    350000   2520.1594      4131.8583      4363.8648     -137161.27    
    350100   2781.8917      2503.7424      4312.3698     -137162.21    
    350200   2661.8396      7204.5471      4288.4496     -137165.67    
    350300   2541.6792      4.9264223      4330.0575     -137168.65    
    350400   2353.5142      7779.2937      4417.586      -137164.13    
    350500   2401.7289     -18056.013      4533.4072     -137159.4     
    350600   2619.6523      2335.0607      4543.0794     -137158.22    
    350700   2599.3814     -5318.8488      4522.2586     -137158.11    
    350800   2617.1406     -1597.4374      4465.2894     -137160.52    
    350900   2482.5811     -3376.981       4405.169      -137160.69    
    351000   2466.6396     -4176.879       4337.4474     -137168.82    
    351100   2235.6298      6348.4477      4268.5486     -137169.05    
    351200   2487.052       6823.9033      4276.8498     -137172.27    
    351300   2423.6691     -1247.8628      4355.3634     -137166.86    
    351400   2383.7184     -5697.0655      4422.3155     -137159.36    
    351500   2682.8423      40.631346      4442.6034     -137162.59    
    351600   2609.1515      1747.2965      4445.3637     -137161.31    
    351700   2539.4913      1409.2692      4445.3575     -137162.8     
    351800   2389.2349     -2644.603       4452.9487     -137161.85    
    351900   2390.1783     -7214.3653      4439.1573     -137165.88    
    352000   2324.7045      3928.1795      4366.9463     -137168.66    
    352100   2368.6885      7608.7936      4293.1324     -137166.49    
    352200   2502.7574      14465.144      4286.7149     -137162.73    
    352300   2531.9967      5417.211       4381.1808     -137162       
    352400   2505.2529     -5126.8949      4493.8035     -137159.33    
    352500   2597.3558      523.39116      4542.0324     -137157.73    
    352600   2686.3777     -15393.973      4570.2843     -137157.3     
    352700   2577.817      -9343.7415      4513.8168     -137158.13    
    352800   2518.2689     -1991.5257      4394.9264     -137164.81    
    352900   2395.881       10297.154      4300.207      -137163.83    
    353000   2507.154       13241.562      4264.6419     -137167.59    
    353100   2278.2148      2398.3475      4279.9646     -137165.94    
    353200   2279.4802     -6844.1075      4300.8851     -137169.39    
    353300   2452.1196     -1056.3698      4288.9747     -137165.55    
    353400   2726.6913      1948.7341      4271.9254     -137169.41    
    353500   2536.6446      2742.0565      4295.7738     -137168.2     
    353600   2384.5189     -6446.8315      4351.6423     -137167.95    
    353700   2487.1535      1685.643       4374.9822     -137165.22    
    353800   2527.9118      13595.738      4384.3041     -137158.53    
    353900   2590.5752     -4603.3228      4438.0251     -137162.88    
    354000   2426.6646     -10925.238      4470.1205     -137161.42    
    354100   2360.8674      2034.6006      4439.7422     -137163.79    
    354200   2251.8581     -3863.1557      4410.8969     -137165.03    
    354300   2417.6002      9723.7875      4379.1882     -137163.99    
    354400   2615.1128      2374.7624      4406.7488     -137162.13    
    354500   2490.0022     -9352.7557      4456.3555     -137157.51    
    354600   2544.9911     -7321.8578      4458.1197     -137163.36    
    354700   2351.0141     -10590.234      4441.4905     -137165.13    
    354800   2213.1369      2653.576       4384.2255     -137161.85    
    354900   2580.3207      12902.136      4326.4648     -137159.08    
    355000   2463.5509      13219.902      4344.281      -137155.57    
    355100   2537.7692     -6352.7272      4437.6877     -137161.95    
    355200   2355.7588     -9162.2772      4504.1118     -137161.51    
    355300   2347.7151      1972.3805      4498.4224     -137158.78    
    355400   2669.3425      4186.9658      4457.2327     -137157.06    
    355500   2501.8105      10006.315      4436.9524     -137153.34    
    355600   2565.3184     -4158.6822      4467.0312     -137159.75    
    355700   2338.4821     -105.41887      4476.0082     -137159.26    
    355800   2378.1169     -6720.1117      4458.2005     -137159.9     
    355900   2586.5767      254.48133      4377.3964     -137163.29    
    356000   2637.8643      12309.092      4283.8707     -137163.63    
    356100   2304.0165      9525.5946      4265.1588     -137159.59    
    356200   2292.692      -1188.4641      4314.6044     -137167.45    
    356300   2321.7016      5.8016742      4387.4438     -137165.26    
    356400   2395.0415     -9488.0771      4466.5614     -137162.03    
    356500   2511.9137     -1405.5334      4503.612      -137161.58    
    356600   2586.8399     -5114.1122      4508.3289     -137160.26    
    356700   2685.3759     -7737.7356      4450.7641     -137162.72    
    356800   2247.5613      2938.0774      4343.0419     -137162.06    
    356900   2551.8254      3835.8977      4259.8273     -137169.67    
    357000   2646.3911      7866.9151      4235.2457     -137169.83    
    357100   2566.5906      10592.226      4276.6442     -137165.69    
    357200   2437.033      -248.18508      4374.1416     -137166.93    
    357300   2317.5737     -308.05041      4469.0023     -137166.27    
    357400   2372.4008     -11038.952      4526.1711     -137159.92    
    357500   2684.4611     -7180.6519      4514.7987     -137162.76    
    357600   2654.5853     -6710.1645      4467.9214     -137164.07    
    357700   2440.8489      4848.6291      4403.5157     -137164.87    
    357800   2236.8142      9252.8645      4389.7307     -137160.61    
    357900   2399.6978     -3694.7777      4410.7619     -137160.8     
    358000   2509.9875     -4341.915       4388.4354     -137162.31    
    358100   2555.5059      635.06351      4344.0164     -137164.72    
    358200   2534.6479      3964.7191      4336.4109     -137168.5     
    358300   2275.6869      8778.0994      4371.9248     -137167.23    
    358400   2331.4741     -7236.608       4444.3789     -137164.75    
    358500   2668.6217     -5802.4666      4479.0821     -137163.97    
    358600   2397.8684      794.33464      4501.999      -137156.62    
    358700   2487.073      -7870.7781      4524.48       -137158.89    
    358800   2496.6465     -9673.2482      4489.2384     -137159.96    
    358900   2460.4653     -569.16568      4399.8383     -137162.48    
    359000   2551.0811      3472.1042      4335.8211     -137166.8     
    359100   2466.4876      5178.5602      4293.2206     -137167.54    
    359200   2454.3759      944.42094      4280.6614     -137170.29    
    359300   2439.2828      4341.0295      4305.4397     -137168.19    
    359400   2585.3045      747.44162      4336.795      -137163.23    
    359500   2574.2577      665.76025      4377.6646     -137160.88    
    359600   2499.0218     -4940.6386      4435.0884     -137160.57    
    359700   2258.5299     -12533.643      4448.3121     -137161.28    
    359800   2311.7841     -4159.1189      4366.6466     -137167.78    
    359900   2601.7068      15912.11       4274.3786     -137168.21    
    360000   2564.2963      12810.779      4286.4312     -137163.89    
    360100   2525.8992     -2484.2111      4358.5575     -137164.93    
    360200   2423.025      -6602.1594      4434.0065     -137164.14    
    360300   2435.8752     -6464.6401      4483.0516     -137161.61    
    360400   2825.5003     -6601.2257      4493.9667     -137163.58    
    360500   2714.6485     -7396.831       4481.4741     -137164.13    
    360600   2566.898      -2457.1359      4438.0757     -137165.84    
    360700   2384.9828      76.987648      4397.8383     -137162.09    
    360800   2425.7434      5191.6301      4370.9335     -137162.15    
    360900   2448.4465      2234.2055      4347.5348     -137160.17    
    361000   2769.1368      9484.9275      4328.4977     -137158.74    
    361100   2678.9351      1172.2454      4364.5953     -137161.45    
    361200   2378.2371     -2623.0333      4411.8928     -137160.39    
    361300   2423.2195     -1865.2903      4419.4035     -137161.45    
    361400   2672.3366      4198.8093      4401.5458     -137164.38    
    361500   2551.7503     -3648.0909      4401.0079     -137160.32    
    361600   2488.0118     -7159.8103      4372.0933     -137164.38    
    361700   2350.6443      1662.4308      4311.4121     -137165.5     
    361800   2449.3902      9604.9497      4280.2314     -137163.42    
    361900   2658.3518      3652.5733      4303.4187     -137163.91    
    362000   2390.1877     -5915.301       4377.0616     -137163.11    
    362100   2215.0384     -9552.5021      4444.1605     -137164.08    
    362200   2516.6363      7180.5137      4469.9287     -137166.37    
    362300   2518.2287     -9006.8667      4491.0581     -137162.67    
    362400   2496.2316     -9593.898       4435.0853     -137161.06    
    362500   2502.5924      5119.1305      4332.712      -137162.66    
    362600   2486.9699      1602.3554      4276.7529     -137169.85    
    362700   2162.2762      7373.0171      4263.4944     -137165.22    
    362800   2592.0845      5089.9662      4296.9605     -137171.15    
    362900   2458.9108     -5837.9714      4363.7955     -137162.62    
    363000   2458.922      -8430.9432      4396.3773     -137159.86    
    363100   2465.6202      3292.1785      4415.8183     -137159.12    
    363200   2500.2646     -2399.7701      4449.8561     -137159.03    
    363300   2626.7644      1908.8503      4470.321      -137161.86    
    363400   2457.5307     -6319.0402      4492.0765     -137161.67    
    363500   2222.3937     -3204.0992      4487.3535     -137160.15    
    363600   2499.6777     -3324.1027      4461.9613     -137163.47    
    363700   2611.4149      3478.1124      4410.459      -137161.34    
    363800   2576.5203     -1665.6901      4383.099      -137162.63    
    363900   2282.3384      233.11608      4378.3158     -137162.73    
    364000   2224.9884     -1739.8276      4360.4745     -137166.04    
    364100   2605.2358      15092.17       4356.6737     -137163.36    
    364200   2633.7258     -10526.471      4426.5945     -137160.37    
    364300   2549.3807     -4109.2242      4462.9813     -137160.17    
    364400   2361.9251     -3494.1506      4452.8982     -137159.44    
    364500   2358.5421     -1204.5814      4399.4838     -137162.61    
    364600   2494.3822      3470.3596      4335.1188     -137166.58    
    364700   2524.9026      578.58883      4303.045      -137164.3     
    364800   2679.5275      9059.4529      4286.2438     -137165.3     
    364900   2496.2857     -2436.7036      4331.8889     -137164.92    
    365000   2447.5512     -15558.804      4381.2736     -137168.13    
    365100   2368.5392      7922.9811      4354.6836     -137163.32    
    365200   2683.5606      9486.7629      4354.5567     -137161.98    
    365300   2450.402       9118.5637      4411.5906     -137157.17    
    365400   2378.5047     -6555.4066      4504.7397     -137158.8     
    365500   2316.7103     -16344.447      4553.3395     -137157.46    
    365600   2614.9015     -9533.1295      4496.5869     -137162.02    
    365700   2371.5857      13066.695      4387.2516     -137155.58    
    365800   2624.5864      6422.971       4316.6506     -137165.96    
    365900   2479.2328      19263.007      4310.3544     -137167.84    
    366000   2429.4427      954.42857      4396.4342     -137167.01    
    366100   2398.2693     -4120.886       4477.1393     -137161.33    
    366200   2437.3919     -5018.9744      4510.4929     -137157.49    
    366300   2481.522       4054.6358      4498.687      -137158.47    
    366400   2360.0647     -5887.7101      4493.5417     -137159.43    
    366500   2367.4495     -3788.311       4452.584      -137162.01    
    366600   2700.6794     -6183.9929      4379.3544     -137166.8     
    366700   2733.1018     -1263.3335      4308.0447     -137164.69    
    366800   2563.4789      9936.5485      4261.7197     -137165.13    
    366900   2251.634       4437.2061      4268.3207     -137163.29    
    367000   2425.0822      2438.6896      4308.796      -137166.49    
    367100   2485.0828     -5390.9105      4384.3495     -137162.89    
    367200   2704.291       110.88708      4450.1402     -137165.84    
    367300   2356.1799     -4942.9258      4497.091      -137159.51    
    367400   2556.5397     -11097.962      4504.8683     -137163.35    
    367500   2617.1985      6380.7535      4450.0145     -137158.4     
    367600   2646.9768      7312.0406      4396.5126     -137157.22    
    367700   2324.6128      1864.755       4358.5067     -137160.85    
    367800   2398.9668      6194.67        4322.9006     -137162.74    
    367900   2591.4511      9464.3965      4329.015      -137163.61    
    368000   2467.3059     -1597.6143      4384.1144     -137158.16    
    368100   2573.2131     -10778.787      4405.0552     -137166.16    
    368200   2323.137      -2124.2308      4366.186      -137166.9     
    368300   2336.8724      5979.2436      4318.1928     -137164.39    
    368400   2534.5887      8112.2423      4306.7045     -137163.86    
    368500   2345.8209      9389.0285      4345.0874     -137157.61    
    368600   2474.1078     -4629.3875      4423.082      -137159.73    
    368700   2456.2182      1441.9973      4496.9368     -137154.42    
    368800   2685.5761     -4293.7865      4550.726      -137151.07    
    368900   2755.5384     -12259.702      4560.8366     -137157.29    
    369000   2614.2254     -7189.1754      4523.9243     -137161.44    
    369100   2473.4177      1011.2709      4461.3574     -137161.09    
    369200   2469.0487     -3642.06        4400.5096     -137163.56    
    369300   2538.1201     -2159.2932      4322.7166     -137169.14    
    369400   2385.5281      16249.259      4251.6452     -137168.58    
    369500   2434.3431      10236.474      4260.3058     -137170.17    
    369600   2502.9174     -3959.8327      4340.533      -137163.44    
    369700   2698.4404     -5559.354       4416.2882     -137163.91    
    369800   2469.4705     -2313.1065      4460.9907     -137159.17    
    369900   2385.3084     -8262.353       4473.3893     -137162.01    
    370000   2341.2626     -4663.4061      4419.6108     -137166.96    
    370100   2421.96        699.41371      4340.7421     -137167.52    
    370200   2500.5264      13794.128      4309.0783     -137159.6     
    370300   2675.1268     -3173.6459      4370.786      -137163.7     
    370400   2382.467      -12036.864      4446.3559     -137160.44    
    370500   2407.8932     -12621.849      4473.1303     -137163.91    
    370600   2469.1331     -1103.2457      4440.1597     -137164.98    
    370700   2706.8823      829.91429      4386.5352     -137165.06    
    370800   2497.3706      8421.285       4357.0254     -137159.68    
    370900   2373.0339     -11.636808      4377.3389     -137161.97    
    371000   2358.8053     -6761.6569      4375.4983     -137160.92    
    371100   2649.475       15670.977      4342.9452     -137157.7     
    371200   2699.6809      8590.1622      4374.115      -137160.81    
    371300   2492.3231     -2059.0419      4452.0571     -137161.75    
    371400   2407.1889     -7749.4625      4517.3342     -137161.07    
    371500   2599.0904     -6493.0378      4532.32       -137161.59    
    371600   2508.7236     -488.05109      4492.8392     -137157.6     
    371700   2400.2776     -5766.2494      4427.1329     -137161.6     
    371800   2409.7833      2206.9814      4341.1438     -137168.51    
    371900   2313.5481      4561.7244      4267.4735     -137166.05    
    372000   2552.8729      16632.088      4252.9558     -137165.01    
    372100   2501.7942      8609.546       4342.8527     -137159.53    
    372200   2508.463      -10205.697      4461.823      -137160.61    
    372300   2550.5915     -9490.2024      4523.1674     -137162.54    
    372400   2460.5571     -3133.336       4526.3197     -137159.85    
    372500   2473.1805     -8687.0413      4504.7646     -137158       
    372600   2590.4169     -7099.4926      4446.4156     -137159.92    
    372700   2599.7046      3393.9319      4378.2129     -137162.48    
    372800   2356.9993      5996.8474      4346.8024     -137161.04    
    372900   2265.1311     -3923.2059      4333.7193     -137164.75    
    373000   2430.7017      3161.1682      4313.1609     -137166.17    
    373100   2691.8849      4606.3999      4315.8948     -137164.12    
    373200   2672.538       4852.5915      4356.5876     -137167.23    
    373300   2326.5677     -10565.055      4418.4763     -137164.39    
    373400   2358.7271     -1497.4654      4410.9957     -137163.96    
    373500   2521.8283      4086.5502      4390.5269     -137163.59    
    373600   2564.0123      1746.8697      4407.3847     -137162.19    
    373700   2540.5661     -3465.4678      4409.2494     -137161.44    
    373800   2734.0845      4921.1759      4385.451      -137167.33    
    373900   2295.9605     -7918.563       4375.4415     -137166.09    
    374000   2264.6966      1548.0956      4310.3058     -137165.02    
    374100   2716.4699      8181.2618      4240.8595     -137171.45    
    374200   2449.1802     -6414.5891      4236.4576     -137165.52    
    374300   2334.3137      14231.119      4246.6565     -137162.64    
    374400   2474.4362      11805.034      4328.0543     -137161.14    
    374500   2746.1425     -5402.4634      4472.8717     -137161.63    
    374600   2387.6276     -11648.167      4564.969      -137155.31    
    374700   2223.6912     -12225.726      4550.0407     -137155.59    
    374800   2451.2685      1742.1156      4460.9647     -137158.22    
    374900   2671.4822      3700.3462      4372.2916     -137158.57    
    375000   2915.2051      5085.9959      4314.7278     -137158.36    
    375100   2674.7889      12505.568      4315.2235     -137161.52    
    375200   2443.8447     -2127.3056      4388.6019     -137163.13    
    375300   2266.1106     -1885.6969      4439.8014     -137158.98    
    375400   2673.0631     -6735.2982      4463.4457     -137163.99    
    375500   2640.0386     -6755.9414      4467.9446     -137164.54    
    375600   2242.1506     -1714.8233      4448.9187     -137162.71    
    375700   2329.97       -5594.8574      4417.0713     -137165.57    
    375800   2444.1078     -16687.777      4354.5523     -137164.62    
    375900   2610.5278      12819.176      4249.9858     -137165.63    
    376000   2509.9815      7904.2356      4245.1829     -137164.4     
    376100   2368.8598     -2844.4533      4322.9269     -137167.46    
    376200   2179.2554     -5827.5242      4385.4192     -137165.6     
    376300   2469.1024     -12003.767      4387.3496     -137162.56    
    376400   2580.0289      767.95964      4313.4343     -137163.08    
    376500   2474.6509      11123.196      4237.0845     -137163.22    
    376600   2412.7876      16416.532      4230.3136     -137166.76    
    376700   2373.5074     -3853.5542      4306.225      -137166.08    
    376800   2343.669       16882.265      4380.6791     -137157.9     
    376900   2471.7389      2207.5933      4499.333      -137155.86    
    377000   2502.5765     -8818.8286      4587.4237     -137156.59    
    377100   2509.9822     -4854.2932      4583.2879     -137157.17    
    377200   2493.0586      3048.8982      4485.5999     -137160.14    
    377300   2555.9111      3860.1596      4375.9492     -137165.28    
    377400   2411.728       13972.791      4318.6385     -137163.47    
    377500   2458.029       5200.369       4351.1067     -137165.21    
    377600   2477.0232     -2592.5791      4424.4981     -137165.12    
    377700   2607.474      -2153.5762      4475.5224     -137163.83    
    377800   2728.7769     -4573.589       4500.2343     -137160.32    
    377900   2402.9517      6099.9563      4502.0191     -137151.13    
    378000   2543.3055     -3437.9331      4484.5987     -137164.67    
    378100   2343.1798      5556.9671      4446.9309     -137162.63    
    378200   2328.9953      4472.9531      4408.2375     -137158.61    
    378300   2592.3698      3668.2463      4371.6181     -137161.83    
    378400   2664.9631      1882.0774      4366.8225     -137165.26    
    378500   2221.2302      975.69996      4400.13       -137162.52    
    378600   2280.9125     -11252.496      4417.8644     -137165.5     
    378700   2545.7072     -27.339546      4364.8718     -137165.95    
    378800   2757.689       2493.5045      4322.4379     -137169.03    
    378900   2396.5326      1955.7955      4337.9813     -137162.42    
    379000   2553.222      -4984.387       4368.2824     -137167.98    
    379100   2541.232       11547.714      4397.3256     -137161.79    
    379200   2793.1415     -3217.4938      4459.4924     -137161.06    
    379300   2677.894      -7888.7121      4512.5373     -137161.6     
    379400   2360.8212     -7070.7741      4502.6096     -137158.88    
    379500   2452.4109     -8163.542       4420.5875     -137161.12    
    379600   2597.827       23971.982      4313.8853     -137163.48    
    379700   2421.013       3874.0206      4330.2817     -137163.17    
    379800   2443.9916     -14375.062      4385.1539     -137170.82    
    379900   2337.532      -2270.755       4379.5241     -137167.89    
    380000   2545.4704      8791.0578      4368.2981     -137169.3     
    380100   2407.6865     -5069.3483      4395.3018     -137163.45    
    380200   2545.1196      1607.9546      4390.3728     -137163.07    
    380300   2648.7627     -4830.4648      4379.7063     -137162.7     
    380400   2705.7011     -2181.2082      4372.866      -137163.91    
    380500   2393.571      -1424.8198      4379.2626     -137164.92    
    380600   2383.31        429.73459      4385.7061     -137166.74    
    380700   2499.459      -4435.9068      4390.5083     -137164.79    
    380800   2595.8854      2222.125       4393.0673     -137162.93    
    380900   2549.538      -8665.7139      4418.0149     -137162.71    
    381000   2409.7594     -5756.5472      4399.8343     -137160.55    
    381100   2411.8821      4705.4         4353.1736     -137160.83    
    381200   2351.022       8305.0622      4324.9772     -137158.91    
    381300   2405.5582      17743.012      4321.4869     -137162.52    
    381400   2508.6594     -2982.5873      4369.7735     -137168.94    
    381500   2362.8632     -6251.9039      4409.0605     -137165.92    
    381600   2540.3398     -7747.38        4439.4546     -137163.39    
    381700   2577.89        8114.7779      4433.3203     -137160.81    
    381800   2484.3228     -12481.015      4431.4602     -137161.41    
    381900   2383.2801      4028.0278      4395.4886     -137159.67    
    382000   2468.6385      7296.5256      4346.9567     -137163.16    
    382100   2470.9918      4429.6438      4337.4802     -137165.42    
    382200   2507.8048     -7351.5989      4374.3913     -137166.83    
    382300   2387.9414     -12448.413      4405.9923     -137160.08    
    382400   2667.4554      7497.315       4410.5357     -137160.75    
    382500   2645.164      -11464.039      4473.2485     -137162.06    
    382600   2300.2445     -2920.5188      4494.2564     -137159.95    
    382700   2373.605       3106.5053      4471.68       -137161.98    
    382800   2509.084      -3431.7108      4462.5596     -137163.27    
    382900   2449.956       1292.4706      4420.07       -137159.97    
    383000   2578.5206     -984.82802      4369.0041     -137162.34    
    383100   2494.2733      8051.898       4345.1812     -137162.46    
    383200   2247.8794      643.01178      4383.9891     -137162.32    
    383300   2422.071      -7028.4406      4434.7029     -137169.94    
    383400   2467.7979     -10751.816      4444.9897     -137163.5     
    383500   2702.5594      991.90111      4386.5747     -137162.96    
    383600   2566.2859      10149.29       4353.8619     -137160.86    
    383700   2406.6204     -5853.2089      4393.2579     -137159.8     
    383800   2425.7345     -5942.5965      4401.9489     -137161.59    
    383900   2541.0673      1679.2561      4369.9193     -137167.83    
    384000   2473.3667      9589.5691      4371.7471     -137168.34    
    384100   2399.2241      169.68352      4439.7109     -137163.33    
    384200   2564.0061     -15324.054      4513.1503     -137159.11    
    384300   2714.8283     -1000.9715      4534.8482     -137159.88    
    384400   2580.5387     -16627.443      4534.5446     -137160.08    
    384500   2508.7603      6432.5         4435.0285     -137162.4     
    384600   2393.1255      4092.342       4340.7213     -137160.56    
    384700   2489.146       6817.3329      4286.774      -137162.72    
    384800   2457.6173      15941.106      4287.5857     -137163.07    
    384900   2232.0789      3870.8179      4366.3446     -137159.93    
    385000   2412.3012     -7137.6525      4445.253      -137164.25    
    385100   2638.629      -8174.02        4462.7805     -137162.65    
    385200   2471.9707      1457.5331      4442.0941     -137156.34    
    385300   2520.2172     -2762.0233      4416.6182     -137164.53    
    385400   2430.5915      4944.8898      4369.1026     -137167.93    
    385500   2267.8073      4061.3092      4340.7982     -137162.21    
    385600   2624.9806      9185.0608      4324.4521     -137166.28    
    385700   2522.5564      8867.4733      4370.6052     -137162.19    
    385800   2281.5228     -8879.5208      4462.8914     -137158.6     
    385900   2292.7977     -12345.095      4486.4992     -137163.53    
    386000   2195.36       -2397.0589      4403.5744     -137163.09    
    386100   2402.8028      15483.912      4273.5701     -137160.24    
    386200   2622.5656      23801.324      4203.9933     -137163.99    
    386300   2595.1531      2219.6853      4251.0017     -137169.98    
    386400   2315.0849     -4466.2965      4334.668      -137166.34    
    386500   2388.8029     -6899.5266      4389.862      -137166.18    
    386600   2442.7312     -4116.6061      4405.2479     -137163.08    
    386700   2644.8158      4476.143       4395.9058     -137166.33    
    386800   2535.8296     -692.22134      4402.6263     -137165.05    
    386900   2392.5168      935.5514       4399.6716     -137163.96    
    387000   2428.4084      513.8332       4392.6639     -137169.9     
    387100   2253.5731     -6580.4641      4373.3841     -137165.15    
    387200   2686.3404      7675.1476      4331.0217     -137168.23    
    387300   2557.1021      1519.6264      4343.3065     -137165.06    
    387400   2417.1965     -9095.3075      4365.1052     -137163.1     
    387500   2497.6052     -1920.435       4336.5242     -137166.73    
    387600   2416.2526      1735.2631      4301.4667     -137165.39    
    387700   2321.5645      9543.8118      4280.9441     -137161.96    
    387800   2515.4391      10720.214      4309.1077     -137160.7     
    387900   2636.2701     -1650.3416      4378.1258     -137160.46    
    388000   2345.505      -1145.8717      4422.4128     -137157.99    
    388100   2460.2032     -10727.366      4432.4709     -137166.17    
    388200   2446.9317      5718.3882      4396.9186     -137164.75    
    388300   2720.3217     -8973.9197      4373.671      -137166.22    
    388400   2693.8708      12945.606      4368.6096     -137163.9     
    388500   2256.8544      4048.3889      4425.6397     -137158.93    
    388600   2251.9907     -1932.1191      4493.2565     -137159.65    
    388700   2465.7468     -7508.9364      4522.9775     -137156.92    
    388800   2683.6585     -6985.0856      4501.3345     -137161.12    
    388900   2335.4815      7226.9251      4451.0382     -137157.25    
    389000   2454.809      -47.434068      4414.7085     -137162.17    
    389100   2511.5115      728.12322      4389.0327     -137161.96    
    389200   2652.9026     -1282.5371      4365.7546     -137160.33    
    389300   2722.7624      4386.3157      4368.6142     -137161.18    
    389400   2421.8028     -631.6311       4416.1319     -137162.72    
    389500   2353.0973     -1488.9756      4436.5242     -137162.23    
    389600   2581.4492     -4547.7357      4421.3232     -137163.67    
    389700   2496.66        7748.9432      4398.5397     -137157.91    
    389800   2670.7659      4282.6296      4430.1974     -137162.02    
    389900   2390.7612     -8913.5468      4469.7243     -137161.72    
    390000   2397.597      -4574.4338      4465.288      -137163.79    
    390100   2601.4187      3144.005       4434.6244     -137163.39    
    390200   2506.1581     -4725.9557      4411.6531     -137156.4     
    390300   2685.4149      5215.8247      4384.4967     -137161.07    
    390400   2313.9815      3103.2597      4390.0038     -137162.92    
    390500   2275.2149     -1742.3062      4403.8929     -137161.85    
    390600   2640.3724     -4860.2971      4410.0211     -137163.97    
    390700   2579.9265      2354.6861      4409.6583     -137159.33    
    390800   2599.3806      2393.7894      4401.1885     -137162.34    
    390900   2353.3777     -1867.4025      4407.315      -137162.19    
    391000   2418.1853     -718.86219      4402.2785     -137169.02    
    391100   2305.7537     -400.52276      4406.3089     -137163.64    
    391200   2609.9986      142.23658      4422.7984     -137162.36    
    391300   2641.4902     -10817.338      4436.6276     -137164.72    
    391400   2612.3322     -2060.1747      4407.4733     -137167.08    
    391500   2483.0533     -3236.0691      4355.4909     -137168.23    
    391600   2211.1651      9921.3475      4297.8647     -137166.5     
    391700   2219.3354      7232.6749      4277.1485     -137164.61    
    391800   2626.2926      11927.058      4294.7706     -137166.01    
    391900   2454.9187      392.3317       4355.5858     -137160.81    
    392000   2613.694       5203.3248      4405.6617     -137164.51    
    392100   2560.7713     -5264.5863      4468.5399     -137161.72    
    392200   2477.4952     -6352.4074      4504.5855     -137157.55    
    392300   2665.3682     -7689.4324      4484.1539     -137164.11    
    392400   2455.6683     -3495.7814      4450.3022     -137161.75    
    392500   2457.7195      1747.7643      4402.962      -137165.48    
    392600   2386.5085     -7325.6921      4364.3765     -137167.28    
    392700   2410.615       6562.481       4311.8922     -137165.3     
    392800   2691.9028      1869.0461      4279.6687     -137163.73    
    392900   2557.0956      18563.247      4295.192      -137161.66    
    393000   2418.049      -1906.1005      4391.9288     -137162.99    
    393100   2474.3563     -10865.354      4469.9467     -137164.29    
    393200   2697.8702     -4340.3547      4492.087      -137162.38    
    393300   2640.3853      2173.7908      4496.5364     -137154.37    
    393400   2541.8887      3598.9168      4502.4719     -137156.22    
    393500   2526.2075     -12340.917      4505.1926     -137161.64    
    393600   2509.17       -1642.6702      4427.0582     -137166.03    
    393700   2522.3034     -2278.2736      4324.2357     -137166.24    
    393800   2783.2259      11955.405      4259.8532     -137168.96    
    393900   2619.0955      13142.178      4270.8913     -137165.15    
    394000   2540.6926     -3671.3891      4350.6715     -137169.19    
    394100   2286.1331     -7609.6475      4414.795      -137164.41    
    394200   2532.2181     -615.33273      4445.0848     -137162.12    
    394300   2420.9329      2825.1471      4455.2776     -137157.11    
    394400   2469.3022      7303.9139      4447.5719     -137160.2     
    394500   2494.9063     -4627.2982      4461.5006     -137165.43    
    394600   2139.6243      2401.8686      4444.1533     -137160.13    
    394700   2407.3211      1824.045       4397.1815     -137166.82    
    394800   2523.5109      570.34449      4350.5479     -137161.61    
    394900   2663.524       8041.026       4328.3746     -137161.04    
    395000   2537.7236     -1072.0942      4357.556      -137162.72    
    395100   2385.3747     -2229.2265      4404.34       -137164.5     
    395200   2371.7853     -10473.347      4442.755      -137162.88    
    395300   2448.053      -10267.734      4428.2932     -137161.47    
    395400   2632.8918     -4503.718       4358.5553     -137161.71    
    395500   2625.3373      13373.792      4265.7997     -137162.04    
    395600   2453.1477      17653.381      4233.7692     -137164.84    
    395700   2316.463      -974.266        4294.1116     -137162.97    
    395800   2595.7828     -4849.7169      4372.0091     -137167.83    
    395900   2575.9519     -14346.465      4430.5163     -137164.25    
    396000   2777.9932     -3606.9546      4436.9141     -137163.62    
    396100   2748.0406     -6636.2702      4435.9        -137159.06    
    396200   2682.84        3126.8078      4440.8979     -137160.93    
    396300   2368.1184     -2250.71        4468.1765     -137162.41    
    396400   2447.2944     -8655.4354      4472.1251     -137164.77    
    396500   2503.0026     -383.76678      4436.7171     -137160.98    
    396600   2490.0185      7360.1543      4397.9652     -137156.33    
    396700   2638.265       7542.4974      4399.5873     -137162.13    
    396800   2392.7401      2939.5045      4450.3118     -137159.07    
    396900   2354.7901     -4467.9936      4500.3683     -137158.28    
    397000   2419.8493      3874.7161      4481.3393     -137159.28    
    397100   2706.2733     -8100.905       4428.1689     -137165.69    
    397200   2344.896       5573.319       4333.98       -137163.53    
    397300   2496.1403      447.92014      4273.4688     -137171.73    
    397400   2545.5644      6679.9717      4269.8231     -137169.95    
    397500   2612.7965     -4827.0859      4339.927      -137163.48    
    397600   2516.1869     -6278.8188      4428.6863     -137160.84    
    397700   2318.736      -7044.3387      4471.3833     -137154.8     
    397800   2650.8375     -1769.1202      4415.0479     -137161.16    
    397900   2681.776       9826.9713      4354.1541     -137162.33    
    398000   2393.3567      4932.2725      4356.7045     -137164.63    
    398100   2380.4421      5245.0163      4409.4277     -137164.83    
    398200   2461.6799     -8161.5937      4471.5345     -137161.4     
    398300   2645.3512     -1295.6567      4483.1199     -137160.45    
    398400   2688.9771     -2822.031       4500.299      -137161.74    
    398500   2408.2909     -269.97679      4512.9456     -137155.39    
    398600   2594.7126     -7761.4818      4500.6763     -137159.42    
    398700   2690.9214      5069.4013      4444.9167     -137163.82    
    398800   2622.5259     -2394.0573      4397.3164     -137168.92    
    398900   2242.5559      3869.3251      4363.8524     -137159.21    
    399000   2516.6173      7670.7383      4334.7097     -137163.72    
    399100   2543.019       3803.9737      4340.525      -137165.22    
    399200   2332.1955      3266.7483      4374.7383     -137165.04    
    399300   2172.4492     -2304.9606      4409.1784     -137163.66    
    399400   2435.464       5922.1088      4413.7113     -137160.13    
    399500   2677.793      -9971.7455      4428.7837     -137162.26    
    399600   2598.2946     -2086.9576      4444.5745     -137159.03    
    399700   2597.7045     -8305.5799      4455.1881     -137162.51    
    399800   2356.7394     -3350.0176      4437.8414     -137164.98    
    399900   2403.3514      2489.0871      4390.0822     -137167.19    
    400000   2345.4935      6495.1032      4321.0903     -137162.03    
    400100   2577.6248      6741.3747      4264.7996     -137165.71    
    400200   2459.8671      16105.549      4273.2823     -137165.71    
    400300   2266.0349     -4084.0527      4377.0537     -137161.13    
    400400   2365.4762     -11559.088      4469.6946     -137159.08    
    400500   2527.9224     -716.67929      4482.0719     -137159.83    
    400600   2638.843      -6535.0481      4466.9708     -137161.17    
    400700   2482.7965      6010.3166      4440.4587     -137159.64    
    400800   2342.2409     -6416.9557      4437.3135     -137162.79    
    400900   2566.981      -8790.0676      4405.5623     -137167.48    
    401000   2451.4516     -3904.147       4338.2873     -137159.8     
    401100   2686.4272      14792.691      4260.5364     -137163.82    
    401200   2335.2721      8881.3195      4264.6435     -137163.55    
    401300   2437.1703      2754.607       4330.3038     -137169.06    
    401400   2387.2053      993.62734      4436.93       -137163.91    
    401500   2590.9905     -14718.688      4530.4167     -137161.1     
    401600   2547.9128     -10621.086      4511.1217     -137159.63    
    401700   2564.389       596.32694      4412.9771     -137163.63    
    401800   2470.2618     -80.71773       4320.3334     -137166.13    
    401900   2478.7824      4974.9104      4273.3264     -137170.93    
    402000   2212.1322     -3195.4667      4285.7293     -137171.48    
    402100   2368.7924     -4846.0657      4300.6609     -137171.56    
    402200   2424.5109      11704.841      4321.2243     -137164.58    
    402300   2398.1118      1510.7138      4383.6437     -137160.46    
    402400   2718.9548     -2081           4436.9126     -137166.03    
    402500   2401.6823     -9890.5737      4471.7723     -137161.36    
    402600   2330.395      -5221.9075      4443.4567     -137163.45    
    402700   2284.6655     -2894.3032      4363.0385     -137161.47    
    402800   2682.0149      6197.7764      4294.2797     -137164       
    402900   2530.8374      2622.3973      4273.6031     -137163.14    
    403000   2525.7963     -3305.3661      4288.7909     -137168.85    
    403100   2289.4934     -204.00087      4329.998      -137166.33    
    403200   2655.8795     -1121.6352      4386.6853     -137166.34    
    403300   2587.286       2283.747       4450.0204     -137160.67    
    403400   2498.2316     -12594.233      4516.6354     -137162.82    
    403500   2245.9982     -1579.4708      4500          -137157.72    
    403600   2749.1402      2465.2541      4441.7472     -137165       
    403700   2595.7362      2615.3416      4423.8925     -137159.42    
    403800   2298.8293     -9348.9875      4445.3428     -137160.4     
    403900   2275.0925     -2119.8197      4435.0364     -137163.53    
    404000   2441.0346     -4087.753       4401.5998     -137163.09    
    404100   2667.09       -290.22361      4348.2791     -137165.45    
    404200   2511.4208      10288.066      4326.2462     -137163.47    
    404300   2415.5043     -4113.5179      4369.4512     -137161.46    
    404400   2662.4744      6320.0035      4389.224      -137160.92    
    404500   2825.6435      4035.4113      4425.9105     -137158.97    
    404600   2477.0103      3353.6937      4488.0886     -137158.74    
    404700   2409.5971     -11813.328      4546.1896     -137160.86    
    404800   2459.3044     -9839.3113      4511.5886     -137161.78    
    404900   2650.1371      5790.299       4408.0132     -137165.36    
    405000   2387.9108      12050.024      4353.3604     -137163.76    
    405100   2239.9142      2460.1962      4341.0753     -137165.69    
    405200   2409.9433     -3766.0714      4326.7865     -137164.53    
    405300   2531.8905     -938.17043      4308.8853     -137162.96    
    405400   2653.0204      1768.8995      4297.2516     -137166.83    
    405500   2447.4217      6395.9897      4316.189      -137167       
    405600   2471.5703     -2024.863       4378.2967     -137168.53    
    405700   2329.943      -1970.0162      4431.4049     -137161.95    
    405800   2500.8523     -1393.568       4447.5821     -137163.56    
    405900   2560.7562     -4687.8173      4454.3249     -137160.33    
    406000   2662.2115      1830.4151      4467.2609     -137160.22    
    406100   2435.9513     -14869.184      4468.3096     -137160.08    
    406200   2299.7829     -7303.0901      4401.4009     -137163.38    
    406300   2609.8158      8371.0921      4306.9963     -137166.25    
    406400   2716.7763      10698.924      4270.7267     -137160.01    
    406500   2711.0145      2833.29        4314.9191     -137164.32    
    406600   2344.6195     -4896.306       4392.8832     -137159.16    
    406700   2411.3402     -6364.3316      4430.9094     -137159.48    
    406800   2548.3076     -651.37732      4419.0741     -137158.73    
    406900   2678.5529      4109.9892      4398.6927     -137158.37    
    407000   2789.0962     -2944.985       4419.5016     -137164.98    
    407100   2303.4852     -6582.849       4445.751      -137161.2     
    407200   2483.9696     -65.347196      4431.6167     -137164.28    
    407300   2689.1074     -3689.6192      4431.4147     -137164.88    
    407400   2556.1144     -768.3727       4430.0037     -137163.3     
    407500   2257.1752      4450.9183      4407.2532     -137161.99    
    407600   2327.4427      8955.2343      4385.2364     -137165.03    
    407700   2687.3927      3073.3771      4390.9019     -137163.91    
    407800   2673.6007     -5365.204       4424.3691     -137160.97    
    407900   2555.4741     -6658.606       4451.097      -137162.27    
    408000   2405.7933     -5198.7479      4446.7874     -137164.19    
    408100   2368.2605     -9974.1155      4408.3103     -137163.6     
    408200   2623.6612     -2994.9577      4310.2903     -137167.13    
    408300   2518.2456      28201.606      4216.474      -137163.48    
    408400   2503.2647     -2142.5087      4262.3776     -137165.99    
    408500   2356.8492      2580.3919      4337.0287     -137166.1     
    408600   2408.5557     -11085.805      4418.273      -137165.46    
    408700   2547.7704     -3059.223       4455.8232     -137157.91    
    408800   2524.2963      13410.83       4470.3771     -137158.24    
    408900   2452.5892     -16826.178      4517.4307     -137162.59    
    409000   2208.5972     -104.02795      4488.6999     -137157.28    
    409100   2656.7039      5505.8137      4423.3418     -137163.42    
    409200   2536.2564      4073.152       4378.1347     -137161.38    
    409300   2314.4575     -2040.3864      4348.5133     -137167.5     
    409400   2176.0089      814.89017      4331.3086     -137162.19    
    409500   2692.3524      1316.0883      4324.9943     -137169.33    
    409600   2534.6951      3837.7545      4352.3497     -137165.65    
    409700   2473.5659     -13462.2        4409.2818     -137167.86    
    409800   2390.9159      831.99847      4429.2929     -137168.39    
    409900   2329.1157     -10905.054      4448.5118     -137166.57    
    410000   2415.4494      1730.05        4410.6341     -137159.91    
    410100   2631.1972      8363.8555      4385.4661     -137160.89    
    410200   2486.2573     -2835.3966      4425.9601     -137160.34    
    410300   2257.1196     -12063.42       4444.5638     -137159.72    
    410400   2491.5645     -2560.8005      4362.8626     -137165.42    
    410500   2770.7909      17856.882      4283.4008     -137161.78    
    410600   2752.7304      6385.0715      4320.249      -137164.69    
    410700   2467.563      -6262.9102      4427.5996     -137164.46    
    410800   2322.003      -3704.35        4493.3979     -137161.8     
    410900   2521.4081     -9942.5059      4500.3103     -137161.93    
    411000   2713.832      -7108.4606      4434.891      -137162.77    
    411100   2497.7506      15480.816      4348.2442     -137158.72    
    411200   2430.1056      8637.431       4344.7548     -137159.56    
    411300   2463.2115     -1347.7478      4373.0418     -137163.12    
    411400   2403.6068      1127.088       4389.1499     -137163.8     
    411500   2431.9889      69.485241      4413.3333     -137163.93    
    411600   2625.269      -8921.9319      4442.6787     -137160.42    
    411700   2561.0599      9239.3781      4431.7336     -137155.7     
    411800   2588.2475     -9885.7473      4438.8517     -137162.61    
    411900   2461.6855      4321.3766      4421.8878     -137164.14    
    412000   2514.9256     -12881.485      4423.6167     -137163.89    
    412100   2424.3585      9480.1511      4385.6431     -137160.13    
    412200   2535.0983      1422.8243      4369.3602     -137164.43    
    412300   2398.0742      2468.2101      4366.5314     -137165.87    
    412400   2200.2064     -676.10251      4389.9821     -137168.83    
    412500   2415.1306     -9202.7297      4444.2086     -137169.09    
    412600   2419.2297      1108.5978      4476.0137     -137163.42    
    412700   2443.7903      3136.6639      4475.2958     -137161.53    
    412800   2669.5358     -4047.8296      4442.4266     -137165.75    
    412900   2604.6976     -10077.814      4399.9108     -137166.7     
    413000   2351.8861      11536.904      4316.517      -137168.62    
    413100   2235.9001      5950.3742      4280.5248     -137164.92    
    413200   2478.8174      9563.2286      4270.4583     -137164.1     
    413300   2491.8526      6299.3664      4326.5074     -137162.29    
    413400   2468.7352     -11310.42       4449.2014     -137161.22    
    413500   2577.4766     -11935.51       4503.6274     -137162.27    
    413600   2646.8787     -8340.4486      4480.0409     -137157.45    
    413700   2676.0264      244.80647      4430.0662     -137154.38    
    413800   2624.4376      5264.8032      4406.9304     -137162.06    
    413900   2380.6133     -3554.737       4428.9392     -137161.02    
    414000   2524.1566     -12352.405      4440.5333     -137162.35    
    414100   2611.9804      7236.8972      4410.0768     -137161.5     
    414200   2446.4961     -8303.0935      4401.6222     -137159.78    
    414300   2230.5883      4736.4681      4364.0281     -137162.82    
    414400   2341.5414      529.26544      4342.7572     -137165.45    
    414500   2424.3296      7810.003       4343.1197     -137161.01    
    414600   2591.5822     -9772.0194      4363.3145     -137162.28    
    414700   2663.1031     -2393.9716      4354.9496     -137162.39    
    414800   2597.5568     -3947.9985      4334.8379     -137165.98    
    414900   2342.0524      4477.815       4316.1781     -137164.84    
    415000   2391.5038      3881.7054      4315.0699     -137164.65    
    415100   2572.058       5308.9146      4325.6254     -137166.22    
    415200   2510.1948      145.25757      4355.913      -137164.29    
    415300   2343.869       7710.0291      4389.0006     -137163.91    
    415400   2144.5053     -2352.8386      4452.3434     -137162.92    
    415500   2564.0709     -5012.9497      4506.7873     -137167.11    
    415600   2576.5194     -12706.055      4547.3275     -137161.48    
    415700   2636.8941      1230.4321      4545.8428     -137161       
    415800   2557.1524     -2482.9864      4527.5343     -137162.01    
    415900   2153.5768     -9863.3515      4500.3192     -137157.9     
    416000   2356.3861     -3700.641       4389.0845     -137166.05    
    416100   2702.5113      12250.442      4265.0338     -137166.2     
    416200   2622.5599      19194.879      4226.5705     -137164.04    
    416300   2470.7393      11373.141      4299.6999     -137163.35    
    416400   2460.4806     -6742.9068      4438.0818     -137162.03    
    416500   2492.6472     -8985.0685      4513.2487     -137158.8     
    416600   2663.4715     -871.9951       4507.2931     -137161.73    
    416700   2420.1666     -9879.489       4492.02       -137162.96    
    416800   2500.2009     -5818.1876      4424.7225     -137170.98    
    416900   2514.9414      4383.2365      4331.5163     -137169.42    
    417000   2733.0001      7507.9446      4304.2487     -137169.59    
    417100   2475.9853      10231.082      4356.0154     -137161.05    
    417200   2533.3158      2988.9066      4446.5094     -137163.51    
    417300   2443.887      -19250.612      4523.8748     -137160.58    
    417400   2565.3544     -18740.582      4477.0023     -137162.64    
    417500   2505.5298      10885.195      4355.2398     -137161.56    
    417600   2490.4909      1722.8737      4309.1182     -137168.85    
    417700   2296.877      -2173.2008      4302.3217     -137167.59    
    417800   2392.3544      680.77813      4279.3135     -137165.5     
    417900   2504.2738      10236.255      4269.4276     -137164.13    
    418000   2475.946       7530.1077      4318.3861     -137163.07    
    418100   2461.1845      896.59784      4389.8404     -137166.63    
    418200   2089.4089     -871.10953      4445.3355     -137163.51    
    418300   2240.5615     -11457.955      4437.6451     -137163.46    
    418400   2647.507       6355.1225      4362.6364     -137165.76    
    418500   2380.649       12944.243      4332.5973     -137159.88    
    418600   2523.8459     -289.0296       4345.7987     -137167.68    
    418700   2346.063      -2462.6553      4365.5753     -137165.89    
    418800   2471.5665      6721.675       4380.3756     -137165.25    
    418900   2667.4451      2501.4814      4405.7274     -137162.48    
    419000   2587.2261     -3901.5782      4468.1186     -137160.5     
    419100   2417.7127     -10408.438      4519.735      -137160.89    
    419200   2292.4041     -11687.829      4484.0325     -137166.25    
    419300   2277.6036      2653.9209      4371.9088     -137172.82    
    419400   2213.2017      10014.787      4265.3629     -137165.71    
    419500   2559.478       24213.875      4226.4662     -137168.22    
    419600   2396.325      -4264.3434      4300.6739     -137164.3     
    419700   2514.7532     -10466.629      4380.6625     -137162.68    
    419800   2536.3705     -1994.382       4422.7072     -137157.71    
    419900   2559.8786     -3120.0016      4446.6993     -137159.72    
    420000   2354.0808     -18111.986      4434.9206     -137162.1     
    420100   2352.0563     -1852.7873      4322.9581     -137168.7     
    420200   2404.3097      19118.558      4216.0581     -137167.31    
    420300   2750.0618      11482.599      4226.0154     -137165.17    
    420400   2566.7156      2880.2728      4332.9257     -137165.03    
    420500   2449.3214     -15230.925      4454.0482     -137166.78    
    420600   2341.1        -17799.988      4479.3439     -137162.73    
    420700   2643.3684      7452.2035      4404.6976     -137161.58    
    420800   2686.6074      5834.6365      4362.3471     -137163.68    
    420900   2629.3456      6894.907       4366.1326     -137168.47    
    421000   2176.0293     -452.50284      4420.9922     -137158.77    
    421100   2499.9883     -4434.294       4467.0298     -137161.67    
    421200   2465.9214      1637.2705      4494.874      -137157.26    
    421300   2418.6132     -2791.2987      4530.2886     -137155.67    
    421400   2501.9746     -3991.3603      4533.373      -137159.54    
    421500   2437.3423     -7637.2645      4487.0396     -137157.33    
    421600   2894.0964      11419.869      4380.7532     -137159.61    
    421700   2866.8635      3855.1123      4339.7622     -137163.16    
    421800   2578.2558      6733.3983      4353.7635     -137163.2     
    421900   2274.9947      1059.183       4394.646      -137160.15    
    422000   2397.2685     -891.97151      4425.3515     -137162.69    
    422100   2638.8595     -3085.8923      4433.4508     -137162.65    
    422200   2582.4923      4822.6763      4438.4727     -137158.77    
    422300   2513.6773     -5563.5517      4479.3402     -137165.11    
    422400   2276.9375     -13041.806      4494.9053     -137164.26    
    422500   2327.8807      6299.4076      4423.0331     -137161.15    
    422600   2655.437      -1244.0378      4347.9945     -137167.34    
    422700   2329.47        13406.218      4304.068      -137161.47    
    422800   2348.7399      1859.8826      4317.1193     -137166.19    
    422900   2485.9726      883.21555      4343.5624     -137163.47    
    423000   2696.9208      6779.6218      4368.3391     -137162.44    
    423100   2535.3457     -10599.487      4446.4765     -137162.18    
    423200   2269.5715     -6894.6777      4475.8065     -137158.08    
    423300   2450.07        2890.1647      4432.379      -137158.88    
    423400   2622.8453      10353.004      4419.5624     -137153.92    
    423500   2748.949      -4392.4195      4454.505      -137160.96    
    423600   2502.4904     -8531.5749      4484.4889     -137159.94    
    423700   2405.356      -822.53477      4463.531      -137158.2     
    423800   2458.835      -8198.6492      4407.7714     -137157.97    
    423900   2702.8825      650.39842      4321.3302     -137166.74    
    424000   2341.5424      6008.5006      4249.0149     -137167.09    
    424100   2484.7739      10093.838      4217.7997     -137170.78    
    424200   2561.2613      17400.019      4272.3405     -137169.26    
    424300   2505.4934     -14354.142      4423.4195     -137161.23    
    424400   2733.2306     -4185.7844      4497.0467     -137161.57    
    424500   2377.4383     -1030.5693      4503.3704     -137157.79    
    424600   2254.4866      3857.3213      4467.3317     -137161.92    
    424700   2450.8414      3939.4248      4407.5057     -137163.32    
    424800   2545.9142      10068.781      4359.9993     -137162.35    
    424900   2405.2087     -155.99077      4346.6567     -137161.18    
    425000   2278.2674      2796.9538      4337.216      -137163.95    
    425100   2291.8864     -4034.7846      4315.5447     -137168.66    
    425200   2342.2285      9017.3997      4259.9439     -137163.74    
    425300   2584.6466      13692.512      4241.6845     -137163.81    
    425400   2641.8922      4876.3216      4314.5969     -137168.04    
    425500   2192.3033     -9272.6773      4423.8014     -137159.33    
    425600   2440.5543     -4271.5995      4463.749      -137159.85    
    425700   2643.6851     -9974.7774      4463.1252     -137159.75    
    425800   2561.1142      3012.6743      4408.6135     -137161.67    
    425900   2561.3637      3688.835       4342.7005     -137167.24    
    426000   2556.9804      8305.4127      4317.3581     -137169.74    
    426100   2367.2523      4131.9252      4357.4865     -137167.69    
    426200   2182.1432     -8734.7265      4394.1692     -137167.72    
    426300   2341.8649     -1142.759       4381.3899     -137164.46    
    426400   2548.3726      13712.698      4356.5296     -137164.22    
    426500   2577.8699     -376.29814      4384.3318     -137164.09    
    426600   2426.2454      6467.7651      4422.5663     -137156.79    
    426700   2763.1063     -5407.034       4466.0818     -137159.14    
    426800   2726.3187     -2772.3648      4493.2585     -137161.01    
    426900   2252.3788     -15165.329      4482.5209     -137156.99    
    427000   2577.4591      9463.2712      4363.8805     -137165.11    
    427100   2667.9722      680.9573       4298.7997     -137170.03    
    427200   2339.8481      8227.5954      4289.7594     -137167.75    
    427300   2509.5323     -2974.6405      4316.8581     -137172.35    
    427400   2541.6216      3762.3551      4352.5903     -137164.55    
    427500   2669.6073      3012.0156      4397.7475     -137160.71    
    427600   2462.5983     -2888.3321      4471.7047     -137158.72    
    427700   2414.5706     -11113.416      4507.1293     -137162.55    
    427800   2153.1073     -9101.5978      4445.6419     -137158.07    
    427900   2615.1633     -741.0704       4343.9858     -137160.45    
    428000   2737.0626      10810.576      4286.7814     -137164.26    
    428100   2433.67       -2321.0576      4326.7979     -137163.29    
    428200   2464.5128      1635.3146      4375.6486     -137166.3     
    428300   2274.7119     -4482.9362      4416.6087     -137158.42    
    428400   2711.8064      3349.0915      4418.3882     -137160.08    
    428500   2779.0495     -0.59753536     4427.2283     -137164.76    
    428600   2441.2105     -10649.029      4450.3325     -137162.18    
    428700   2477.7134     -4903.2688      4436.2792     -137163.36    
    428800   2593.8574     -1228.2306      4391.6555     -137161.43    
    428900   2603.9773      9400.895       4352.3834     -137160.78    
    429000   2240.498       7316.828       4369.3254     -137162.25    
    429100   2445.8993     -2045.1941      4391.6089     -137167.7     
    429200   2424.6656      4991.5685      4403.9845     -137161.61    
    429300   2653.4266     -7599.527       4416.9513     -137163.1     
    429400   2489.1635      869.12363      4399.3157     -137159.09    
    429500   2401.9842     -2518.2458      4367.4228     -137164.88    
    429600   2145.2924     -513.88874      4307.6584     -137162.63    
    429700   2590.5751      10950.671      4240.992      -137168.21    
    429800   2807.0238      13487.266      4278.2387     -137171.76    
    429900   2368.3658     -8071.1039      4429.345      -137162.46    
    430000   2497.641      -7748.7974      4543.0647     -137161.46    
    430100   2802.006      -2313.7252      4591.4808     -137158.95    
    430200   2427.55       -14970.785      4623.6328     -137150.17    
    430300   2423.9194     -5325.5539      4577.5953     -137150.67    
    430400   2540.6639      1986.3853      4447.4098     -137156.32    
    430500   2331.8876      14155.621      4323.9246     -137159.86    
    430600   2453.6182      19221.754      4296.1022     -137165.9     
    430700   2439.3436     -431.04698      4379.7333     -137164.06    
    430800   2389.877      -3836.9696      4471.2        -137156.89    
    430900   2715.6302     -12376.868      4534.4816     -137158.01    
    431000   2570.6473     -1034.4606      4527.4731     -137157.31    
    431100   2558.4998     -8165.7401      4497.0832     -137161.63    
    431200   2420.1348      698.79789      4426.9147     -137162.05    
    431300   2377.3963      2470.6394      4357.9637     -137163.6     
    431400   2380.153       221.29326      4312.1134     -137171.51    
    431500   2386.176       4526.9196      4290.1489     -137173.76    
    431600   2563.833      -2829.0893      4288.9441     -137170.52    
    431700   2520.2843      8886.6263      4306.3563     -137165.77    
    431800   2421.896      -5369.3266      4398.4745     -137161.75    
    431900   2459.6655     -7328.6116      4454.8957     -137158.66    
    432000   2893.5778      7553.6767      4433.4004     -137162.83    
    432100   2552.7783     -7722.8167      4430.2414     -137157.51    
    432200   2380.3788      494.05303      4403.2702     -137162.73    
    432300   2339.8544      10424.402      4373.0933     -137163.04    
    432400   2447.7511     -1697.9562      4398.7132     -137161.12    
    432500   2682.3303     -10049.629      4420.5895     -137160.45    
    432600   2680.322       3106.9014      4407.5571     -137162.12    
    432700   2466.5224     -2962.0591      4400.6455     -137162.63    
    432800   2527.7442      2971.883       4385.0424     -137166.25    
    432900   2378.6169     -4332.5175      4382.2841     -137165.13    
    433000   2491.1082      433.37671      4379.3727     -137169.71    
    433100   2522.8311     -2198.0301      4399.7213     -137167.78    
    433200   2529.2789      4053.8267      4412.5858     -137161.57    
    433300   2552.156      -2546.1872      4427.5704     -137158.98    
    433400   2550.6828     -131.99241      4420.1625     -137160.03    
    433500   2500.4129     -6073.5824      4416.7232     -137167.29    
    433600   2327.4473      5414.1619      4400.8669     -137165.76    
    433700   2562.9703     -1893.0048      4403.6997     -137167.64    
    433800   2426.7868      3113.2904      4412.9993     -137160.45    
    433900   2493.9033     -3503.4577      4440.1131     -137161.42    
    434000   2468.7331     -8122.6954      4460.2837     -137160.02    
    434100   2653.2938      510.05249      4442.605      -137162.88    
    434200   2566.1149     -341.04133      4427.4773     -137161.07    
    434300   2287.6578     -17058.941      4404.6352     -137163.45    
    434400   2388.152       7752.7215      4295.4705     -137166.53    
    434500   2656.7506      17134.14       4203.1347     -137167.91    
    434600   2548.584       12759.073      4238.1995     -137165.19    
    434700   2167.7518     -12260.392      4370.3701     -137162.77    
    434800   2304.7613     -15694.473      4438.0826     -137167.27    
    434900   2401.0453      5321.7266      4433.9794     -137159.38    
    435000   2597.5177     -11953.583      4444.0702     -137161.71    
    435100   2673.9557      2055.7595      4425.3098     -137163.92    
    435200   2587.9574     -2808.2017      4415.9039     -137166.38    
    435300   2522.1974     -5356.4736      4391.3876     -137170.08    
    435400   2337.4493     -3303.4469      4351.9342     -137167.72    
    435500   2584.399       3641.093       4318.7014     -137167.14    
    435600   2657.0376      348.82637      4312.7858     -137164.87    
    435700   2379.9935      11058.497      4341.1024     -137161.23    
    435800   2530.3279     -5709.8866      4427.2078     -137166.55    
    435900   2274.3699     -5953.2913      4486.9774     -137153.04    
    436000   2515.0668      201.00792      4462.2249     -137151.4     
    436100   2684.595       14844.907      4403.1744     -137159.07    
    436200   2534.3535     -1883.8964      4385.9216     -137163.76    
    436300   2470.6578     -857.3344       4397.0506     -137163.49    
    436400   2459.622      -6420.397       4395.6139     -137161.56    
    436500   2844.5098      3862.9523      4359.1045     -137164.57    
    436600   2636.0452      1944.1253      4367.4526     -137163.93    
    436700   2278.9449     -8998.8331      4414.9432     -137161.18    
    436800   2463.961       2415.4909      4420.217      -137163.22    
    436900   2502.3105      9601.2475      4398.7704     -137161.14    
    437000   2417.7809     -2175.1523      4376.4935     -137160.12    
    437100   2374.8898     -3274.0269      4323.3154     -137166.59    
    437200   2345.3892      9281.7066      4254.1003     -137170.81    
    437300   2276.1162      14061.117      4233.1778     -137164.23    
    437400   2428.8458      5527.0105      4277.5479     -137161.3     
    437500   2514.677      -1805.6859      4367.0957     -137160.98    
    437600   2588.7933     -3843.3952      4465.6677     -137159.76    
    437700   2479.6052     -3654.8924      4541.8197     -137156.4     
    437800   2538.8108     -10493.486      4557.9697     -137159.14    
    437900   2556.4284     -8028.5492      4493.6289     -137161.69    
    438000   2372.6482      5792.5394      4360.8853     -137161.29    
    438100   2403.6645      8008.3544      4228.436      -137164.98    
    438200   2443.3064      18883.497      4149.0039     -137172.33    
    438300   2219.6441      5901.6417      4196.2081     -137172.43    
    438400   2155.698       4127.4442      4306.5659     -137165.3     
    438500   2318.3771     -2085.4404      4427.8839     -137164.35    
    438600   2559.6675     -22076.61       4527.8951     -137162.68    
    438700   2640.8135     -7119.5152      4519.1454     -137159.87    
    438800   2477.8799      1637.9833      4476.252      -137158.04    
    438900   2495.6373     -10314.188      4432.6157     -137162.34    
    439000   2653.9362      5301.8023      4377.8865     -137168.81    
    439100   2353.4344      1842.0431      4391.14       -137167.12    
    439200   2388.1086      14421.287      4440.0175     -137168.2     
    439300   2408.4059     -8860.7108      4519.1086     -137160.11    
    439400   2460.0718     -3316.0793      4501.8494     -137157.31    
    439500   2395.0605      9589.358       4441.8754     -137154.96    
    439600   2594.9462      6405.5661      4416.6826     -137161.19    
    439700   2433.6287     -394.53159      4429.4796     -137160.34    
    439800   2467.6086     -9268.9449      4446.1832     -137166.06    
    439900   2566.0345     -6483.7331      4417.0569     -137167.93    
    440000   2681.5656      1795.0019      4372.9116     -137164.5     
    440100   2671.5082      9941.2548      4361.0577     -137163.06    
    440200   2434.8335     -10833.188      4386.9511     -137166.96    
    440300   2519.1316      227.66456      4374.0201     -137170.69    
    440400   2570.6402      2703.7763      4362.545      -137169.15    
    440500   2450.9448      7228.4755      4363.159      -137160.77    
    440600   2650.915       2191.4126      4387.9683     -137157.69    
    440700   2742.6528     -1961.7191      4429.3396     -137157.96    
    440800   2312.5357     -2698.262       4461.9923     -137156.9     
    440900   2454.5159     -9340.6795      4450.2469     -137161.61    
    441000   2511.7562      5813.1272      4379.6282     -137159.01    
    441100   2852.6481      4520.6326      4337.0564     -137167.39    
    441200   2385.2988     -5790.5385      4343.9535     -137164.4     
    441300   2485.0597      1051.9889      4363.0226     -137166.8     
    441400   2587.491      -3551.7439      4393.9163     -137167.19    
    441500   2563.8488     -9423.1636      4410.9817     -137164.91    
    441600   2645.9979      5959.4716      4401.8603     -137159.3     
    441700   2760.6495     -123.74513      4424.3306     -137160.78    
    441800   2519.7307     -11442.014      4446.9147     -137161.83    
    441900   2508.9757      2307.4435      4420.5737     -137163.94    
    442000   2527.3553     -6196.4827      4398.7982     -137163.59    
    442100   2539.8083      4840.3401      4362.9459     -137161.66    
    442200   2890.3828      3797.2938      4368.6737     -137161.67    
    442300   2781.9736     -9599.2267      4431.4575     -137159.83    
    442400   2454.6955     -3262.0549      4465.2757     -137159.05    
    442500   2581.9899      953.34557      4476.8545     -137163.79    
    442600   2575.858      -14729.178      4489.8265     -137163.49    
    442700   2532.5504      1037.0067      4430.856      -137159.33    
    442800   2696.8008      8250.7607      4348.3068     -137162.18    
    442900   2491.7379      8165.6913      4332.1182     -137166.18    
    443000   2258.6094      2174.4275      4386.577      -137162.64    
    443100   2456.9218     -12919.394      4452.7754     -137161.8     
    443200   2543.9945     -11124.186      4451.5924     -137159.09    
    443300   2569.8514      5514.0795      4379.1597     -137161.43    
    443400   2551.2275      6466.5997      4332.2253     -137165.29    
    443500   2319.1145     -3862.9094      4320.6975     -137164.4     
    443600   2474.336      -3585.8598      4309.2579     -137166.42    
    443700   2521.5328      3887.9168      4293.4745     -137165.84    
    443800   2511.3738      13258.549      4303.0634     -137166.51    
    443900   2258.5505     -8211.0195      4379.5331     -137164.81    
    444000   2307.9361     -10075.757      4412.4596     -137165.54    
    444100   2382.3972      2622.5828      4400.4587     -137156.9     
    444200   2717.4089      1580.2986      4389.7505     -137164.36    
    444300   2452.1858      5558.6427      4387.8775     -137162.65    
    444400   2416.9446      2070.5565      4407.3305     -137166.97    
    444500   2526.7986     -13142.54       4434.0787     -137169.08    
    444600   2662.8249     -3622.1354      4408.8527     -137165.05    
    444700   2795.9488      6626.7695      4377.028      -137163.37    
    444800   2737.5018      4040.7596      4409.1417     -137165.97    
    444900   2393.8606     -11153.281      4477.0388     -137160.81    
    445000   2507.7928     -3323.3593      4471.1089     -137161.91    
    445100   2547.3827      5106.0085      4419.6778     -137159.41    
    445200   2632.1102     -1542.1484      4389.9732     -137159.39    
    445300   2527.7109      7021.1182      4370.5731     -137165.11    
    445400   2469.4466      159.29281      4393.0742     -137169.23    
    445500   2339.0432     -3910.7255      4412.6879     -137162.04    
    445600   2569.5367     -1461.5065      4384.019      -137161.51    
    445700   2506.2012      13075.442      4360.6939     -137158.97    
    445800   2495.7294     -9382.4176      4387.5062     -137161.54    
    445900   2279.1983     -6338.4187      4367.17       -137159.55    
    446000   2229.9079     -1959.9386      4291.5546     -137165.44    
    446100   2250.875       22839.054      4205.4876     -137166.85    
    446200   2402.1762      4859.3053      4208.1855     -137161.79    
    446300   2537.2279      9766.6276      4258.3168     -137163.34    
    446400   2548.8647     -7207.2307      4379.5529     -137162.59    
    446500   2579.7685     -1971.8115      4491.8469     -137159.64    
    446600   2673.583      -8946.7898      4561.4096     -137154.8     
    446700   2678.112       7098.6804      4576.4684     -137153.98    
    446800   2383.1448     -3491.7858      4604.0405     -137156.01    
    446900   2561.8059     -7834.8084      4577.2933     -137162.24    
    447000   2641.4432     -4134.5018      4491.0349     -137163.23    
    447100   2529.1466      2861.996       4396.7673     -137160.77    
    447200   2334.4563      6850.5445      4337.0764     -137163.4     
    447300   2458.4886      3233.4735      4318.1842     -137169.37    
    447400   2566.9056      3903.5647      4324.6431     -137168.49    
    447500   2570.7005      3352.2216      4357.6658     -137160.63    
    447600   2709.4528      10432.375      4399.5072     -137161.16    
    447700   2416.9984     -10961.028      4455.9288     -137164.86    
    447800   2364.7688     -13386.524      4447.9947     -137164.61    
    447900   2530.9337      11004.461      4371.114      -137162.61    
    448000   2510.8204      7174.9477      4356.9136     -137159.11    
    448100   2406.3667      5223.3161      4374.6783     -137159.89    
    448200   2310.4012      684.45818      4398.4428     -137165.76    
    448300   2236.7824     -1393.904       4413.7196     -137166.81    
    448400   2414.2335     -4939.5082      4394.463      -137163.94    
    448500   2506.377       540.21044      4351.3495     -137163.31    
    448600   2483.8931      14385.3        4320.276      -137164.56    
    448700   2362.9833     -952.56188      4328.669      -137165.74    
    448800   2473.4279     -354.57277      4323.8377     -137170.45    
    448900   2297.8855      1860.5924      4328.6502     -137165.49    
    449000   2605.8189      1501.1         4326.0189     -137165.19    
    449100   2627.7741      6345.0494      4337.9422     -137163.42    
    449200   2276.0423      746.23493      4398.0694     -137158.41    
    449300   2396.2064     -6590.7945      4426.6573     -137167       
    449400   2104.3647     -97.524756      4406.8953     -137166.03    
    449500   2483.0345     -2186.1512      4380.5155     -137169.24    
    449600   2403.265       2593.2643      4352.3623     -137161.19    
    449700   2720.9775      10017.96       4341.3597     -137166.62    
    449800   2405.9856     -5458.8989      4394.5499     -137161.87    
    449900   2293.7956     -12149.367      4416.0053     -137164.01    
    450000   2543.8535     -312.71527      4367.711      -137167.48    
    450100   2833.3106      14496.861      4338.8361     -137165.21    
    450200   2642.1958     -5198.4054      4400.8591     -137163.74    
    450300   2402.2851     -9796.6707      4457.3909     -137160.86    
    450400   2480.8509     -5593.8241      4461.4311     -137161.08    
    450500   2527.3277      5684.5653      4412.5638     -137162.25    
    450600   2460.9653     -5907.9881      4397.9069     -137164.31    
    450700   2303.3213      34.012439      4394.2556     -137165.12    
    450800   2355.0423     -5977.7074      4394.6352     -137166.3     
    450900   2500.2919      1292.3126      4391.7097     -137159.83    
    451000   2658.5402     -5713.1359      4390.371      -137161.63    
    451100   2537.744       72.928513      4378.6157     -137161.8     
    451200   2434.2908     -2036.0807      4351.7231     -137164.56    
    451300   2405.6245     -3051.9711      4311.6494     -137169.68    
    451400   2126.6784      10040.517      4270.42       -137167.44    
    451500   2480.5808      8848.3862      4272.1787     -137169.69    
    451600   2688.1631      2790.8814      4335.6368     -137168.93    
    451700   2445.4625     -11149.454      4438.3261     -137164.17    
    451800   2332.6361     -12332.001      4507.5496     -137157.51    
    451900   2796.2733     -1034.6737      4486.5238     -137162.49    
    452000   2549.1086     -5922.4826      4415.472      -137159.48    
    452100   2383.6954      8716.7704      4321.0612     -137158.48    
    452200   2607.2055      8436.4347      4269.2822     -137166.41    
    452300   2418.7631      7011.5721      4258.8007     -137164.39    
    452400   2285.5642      12273.707      4285.1512     -137162.86    
    452500   2330.2422      3132.2308      4367.3126     -137165.99    
    452600   2376.0721     -10881.933      4473.6551     -137164.08    
    452700   2414.8837     -3127.4449      4516.1756     -137156.03    
    452800   2663.7939     -2339.5004      4499.676      -137157.83    
    452900   2570.8076     -3331.2315      4443.3817     -137161.16    
    453000   2517.5499     -3519.1095      4373.9922     -137166       
    453100   2361.1373      10569.601      4314.2722     -137163.58    
    453200   2403.5901      13699.52       4315.0482     -137163.75    
    453300   2868.1585     -8262.4099      4398.1885     -137168.41    
    453400   2629.8564     -7731.31        4487.5492     -137159.5     
    453500   2393.4373     -20718.152      4513.0239     -137157.43    
    453600   2391.5201      564.4114       4419.7773     -137163.23    
    453700   2463.1927      3133.3534      4347.1079     -137172.23    
    453800   2356.3471      10263.83       4328.3999     -137171.04    
    453900   2699.3563     -5542.281       4363.2614     -137169.72    
    454000   2624.4562     -34.343471      4385.5704     -137164.17    
    454100   2423.3         1020.147       4413.0346     -137161.39    
    454200   2327.382      -10060.643      4416.9611     -137160.21    
    454300   2664.3967      7503.9437      4369.8746     -137164.28    
    454400   2753.9781     -3606.9783      4358.8385     -137160.7     
    454500   2460.3043      5693.0337      4352.5402     -137158.42    
    454600   2369.0425      1936.2334      4366.2868     -137164.3     
    454700   2434.2652      1168.8644      4363.2009     -137165.48    
    454800   2610.894       1153.926       4354.9691     -137168.39    
    454900   2329.8159      1871.3732      4374.955      -137159.91    
    455000   2669.528       1419.548       4419.1022     -137161.88    
    455100   2711.2703      5707.6964      4501.9618     -137158.49    
    455200   2402.1633     -17246.868      4616.9489     -137154.07    
    455300   2290.2447     -20592.119      4618.4697     -137156.22    
    455400   2580.1546      428.35207      4451.1861     -137161.09    
    455500   2816.3829      17576.825      4257.5975     -137160.62    
    455600   2737.3383      20780.97       4166.2463     -137167.77    
    455700   2434.1473      13454.512      4223.1462     -137167.15    
    455800   2377.5925     -6585.7779      4373.6279     -137166.05    
    455900   2588.5736     -1690.8671      4484.957      -137165.3     
    456000   2504.5503     -11284.564      4540.7697     -137157.46    
    456100   2494.4639      9762.3279      4516.9572     -137156.97    
    456200   2357.6228     -3638.3957      4526.1843     -137158.43    
    456300   2017.8652     -4849.567       4489.9791     -137157.2     
    456400   2483.747       2956.2354      4400.5892     -137164.41    
    456500   2605.0976      2913.8388      4352.4874     -137163.88    
    456600   2586.393       2809.3871      4328.974      -137165.55    
    456700   2517.4917      2382.8099      4337.4644     -137166.83    
    456800   2255.719       5111.0132      4362.3724     -137162.98    
    456900   2317.2585     -9425.6435      4390.2818     -137164.12    
    457000   2610.4139      2947.0858      4383.5141     -137162.99    
    457100   2581.3698      3764.5214      4374.6795     -137160.42    
    457200   2566.04        2424.6033      4365.1734     -137164.19    
    457300   2288.3617      74.342725      4358.6828     -137163.69    
    457400   2440.5284     -553.11056      4351.9643     -137166.83    
    457500   2477.711       635.39571      4343.6792     -137165.87    
    457600   2532.0769      4760.7074      4350.9567     -137166.48    
    457700   2423.8349     -793.57907      4418.1278     -137159.32    
    457800   2348.4702     -2584.0326      4472.4954     -137154.18    
    457900   2618.1629     -5801.4082      4478.3801     -137162.1     
    458000   2545.0693      4756.4378      4446.1641     -137162.6     
    458100   2518.3195     -10241.958      4417.3946     -137166.42    
    458200   2285.9927     -422.65328      4337.934      -137167.33    
    458300   2146.1664      13335.404      4254.8499     -137170       
    458400   2233.8861      3226.6062      4251.3052     -137173.76    
    458500   2407.3393      760.33231      4269.8508     -137168.09    
    458600   2768.4981     -6990.5453      4292.6103     -137172.23    
    458700   2527.5737      771.13719      4332.0978     -137167.5     
    458800   2303.5276     -8767.9326      4413.8638     -137162.62    
    458900   2513.0184     -5984.6789      4456.0822     -137159.17    
    459000   2590.0476     -2043.6579      4444.4447     -137157.2     
    459100   2560.7487      2232.6306      4415.9103     -137159.18    
    459200   2486.2262     -1256.6864      4407.3882     -137163.87    
    459300   2425.1419     -4238.1624      4394.9845     -137164.44    
    459400   2468.9781     -6133.28        4359.0641     -137165.14    
    459500   2744.3768      3196.1977      4305.5392     -137168.34    
    459600   2597.1785      13426.648      4290.1709     -137164.73    
    459700   2465.2935      1663.3385      4362.7522     -137164.75    
    459800   2410.9167     -11250.335      4468.5814     -137162.2     
    459900   2471.7408     -4293.4956      4519.0805     -137160.57    
    460000   2658.5239     -5003.7466      4528.8952     -137162.11    
    460100   2657.229       6507.6463      4527.8922     -137158.82    
    460200   2422.8183     -7216.3565      4573.5977     -137153.6     
    460300   2289.6851     -7979.4527      4570.583      -137155.94    
    460400   2242.7585     -1290.4256      4476.0674     -137157.63    
    460500   2626.6307      10512.8        4345.1202     -137163.66    
    460600   2711.4921      13023.367      4289.1448     -137164.11    
    460700   2513.3531     -1349.3634      4340.4224     -137167.51    
    460800   2321.9885      516.47315      4425.405      -137165.2     
    460900   2441.8706     -8182.553       4492.1138     -137162.94    
    461000   2481.3302     -12026.153      4510.0673     -137160.03    
    461100   2523.3209     -2320.8644      4460.3016     -137162.34    
    461200   2438.7228      975.24525      4386.1552     -137160.02    
    461300   2463.3018      17515.959      4334.4662     -137159.16    
    461400   2504.2463     -1665.7676      4362.6539     -137159.5     
    461500   2609.788      -3806.6266      4379.1905     -137164.58    
    461600   2422.9693      8463.3152      4383.9167     -137166.22    
    461700   2212.0744     -8382.7124      4419.5007     -137162.15    
    461800   2444.7525     -3547.2618      4402.5699     -137159.93    
    461900   2620.3962      7800.164       4346.9495     -137162.58    
    462000   2519.3401      12987.599      4342.9951     -137162.77    
    462100   2408.4204     -3619.4315      4416.7734     -137163.72    
    462200   2377.1981     -5921.5215      4468.7877     -137163.62    
    462300   2518.2732     -2341.5834      4463.1813     -137164.04    
    462400   2636.02        12944.172      4444.5201     -137160.73    
    462500   2550.6235     -7369.5868      4463.1189     -137159.96    
    462600   2167.1743     -4552.2327      4457.1562     -137155.8     
    462700   2281.9412      368.55672      4417.1179     -137162.12    
    462800   2621.8242     -3668.3127      4357.3468     -137165.6     
    462900   2797.8368      5465.7581      4282.761      -137165.69    
    463000   2607.5125      15139.119      4249.8874     -137169.12    
    463100   2360.1831      13964.962      4311.5258     -137167.25    
    463200   2274.2188     -12125.929      4450.9437     -137160.53    
    463300   2471.9974     -10481.123      4542.2788     -137157.63    
    463400   2572.3508     -7419.7832      4554.2977     -137157.6     
    463500   2718.6081     -8677.6945      4488.6373     -137161.61    
    463600   2290.3994      6294.0751      4367.8098     -137158.63    
    463700   2473.5165      5494.0789      4255.6508     -137166.48    
    463800   2661.546       17362.377      4195.1306     -137170.52    
    463900   2474.0591      5213.8268      4237.5575     -137166.7     
    464000   2593.6297     -7983.3599      4325.0872     -137164.56    
    464100   2770.8813      2490.7047      4399.3754     -137158.92    
    464200   2722.7403     -13049.851      4474.2723     -137162.96    
    464300   2396.2571      911.09076      4496.2984     -137159.8     
    464400   2567.3203     -10264.662      4500.6565     -137166.07    
    464500   2456.9086      6746.1136      4469.309      -137161.03    
    464600   2737.9382     -2420.7095      4473.1136     -137159.37    
    464700   2719.4987     -1519.5066      4508.8118     -137158.8     
    464800   2476.967      -17217.669      4537.1335     -137159.24    
    464900   2637.3547     -3635.4646      4464.3141     -137165.81    
    465000   2526.841       5007.4535      4364.8427     -137163.31    
    465100   2612.2454     -5103.9655      4304.8579     -137168.24    
    465200   2381.6065      3023.1165      4262.3345     -137167.51    
    465300   2413.3879      7432.0565      4269.9596     -137170.9     
    465400   2389.406       2665.6853      4321.8991     -137164.72    
    465500   2575.9297     -1053.8578      4393.79       -137162.63    
    465600   2637.2463     -5483.8509      4490.5583     -137162.17    
    465700   2606.9394     -14200.431      4591.5187     -137161.19    
    465800   2434.1061     -7780.7037      4637.3264     -137156.76    
    465900   2589.0336     -12444.498      4598.0337     -137159.88    
    466000   2635.1873      1174.0318      4463.748      -137161.32    
    466100   2601.2575      1230.0872      4321.8202     -137167.9     
    466200   2386.2537      12383.246      4236.3061     -137166.95    
    466300   2549.4948      703.19167      4246.445      -137168.45    
    466400   2551.2339      8150.1395      4318.4826     -137162.96    
    466500   2494.9263     -3000.899       4440.8674     -137160.41    
    466600   2623.0631     -9085.6359      4550.6603     -137162.96    
    466700   2451.9855     -9826.6371      4585.6669     -137157.49    
    466800   2603.7836      3540.7251      4539.7364     -137161.01    
    466900   2569.6198     -9232.2         4500.9521     -137160.71    
    467000   2485.352      -1616.0574      4425.7148     -137160.13    
    467100   2639.5742     -488.84969      4316.2763     -137169.14    
    467200   2314.7454      4802.2487      4239.4903     -137166.5     
    467300   2327.6116      12706.634      4229.8485     -137169.77    
    467400   2357.4019      8998.0418      4277.5003     -137166.27    
    467500   2533.7923      4707.145       4359.9646     -137161.68    
    467600   2593.1092     -9397.2492      4437.3008     -137162.15    
    467700   2521.5328      2160.9954      4438.769      -137162.8     
    467800   2424.6912     -4288.8253      4428.1862     -137163.83    
    467900   2492.6038     -3931.5512      4396.8147     -137169.31    
    468000   2401.3649     -7501.2931      4348.7406     -137171.58    
    468100   2344.4464      1619.4893      4296.2388     -137168.45    
    468200   2464.6237      10304.417      4273.7761     -137163.14    
    468300   2619.5395      10598.041      4295.6254     -137164.63    
    468400   2505.3489     -4334.6756      4353.7592     -137165.07    
    468500   2479.7506     -12652.552      4397.9049     -137163.71    
    468600   2475.6155     -2377.0393      4390.0861     -137161.56    
    468700   2485.6446     -1379.7783      4354.5876     -137161.19    
    468800   2426.971       12237.761      4317.0717     -137159.49    
    468900   2452.0724      3699.1057      4319.3344     -137160.8     
    469000   2442.1686      5562.7393      4325.6155     -137162.51    
    469100   2474.3624      136.23873      4363.2325     -137166.42    
    469200   2158.7621     -6494.9564      4414.9166     -137161.37    
    469300   2573.6762     -2573.0249      4430.9571     -137164.03    
    469400   2653.3857     -4869.2456      4427.1124     -137160.34    
    469500   2335.404       10884.392      4386.9284     -137153.2     
    469600   2503.7024     -3585.6926      4356.9085     -137162.1     
    469700   2375.726       233.30147      4328.8041     -137164.29    
    469800   2195.3362      179.12466      4298.2882     -137165.36    
    469900   2604.1062     -1883.4474      4267.9233     -137171.49    
    470000   2801.6271      5326.4739      4264.6185     -137169.07    
    470100   2669.9755     -2120.0761      4322.7773     -137167.98    
    470200   2303.5742      3392.6836      4391.8056     -137163.41    
    470300   2392.5364     -10141.433      4448.2861     -137166.67    
    470400   2397.9438      5569.4588      4444.3919     -137155.4     
    470500   2767.8433      2748.2813      4440.6495     -137162.2     
    470600   2491.7355     -20492.808      4448.2317     -137162.43    
    470700   2397.4605      4361.7046      4385.0548     -137163.41    
    470800   2514.7063      5622.1819      4334.7823     -137166.46    
    470900   2550.1663      8760.5363      4334.8289     -137164.71    
    471000   2609.9982     -5950.9949      4396.1106     -137162.21    
    471100   2494.2224     -10321.48       4451.2854     -137162.66    
    471200   2248.5633      1084.5402      4457.3835     -137161.25    
    471300   2298.8301      1223.5518      4448.7982     -137160.11    
    471400   2662.3733     -667.0608       4438.273      -137160.19    
    471500   2566.9028      267.28097      4407.144      -137160.19    
    471600   2508.6896      5236.8845      4366.0898     -137163.45    
    471700   2420.9358      1275.0958      4342.2609     -137162.69    
    471800   2504.1961     -129.73173      4318.7335     -137160.72    
    471900   2716.8765      12819.775      4301.4959     -137158.5     
    472000   2643.5856     -3209.9496      4350.7389     -137163.1     
    472100   2505.4898     -11402.436      4402.9124     -137165.93    
    472200   2540.2013     -708.05806      4402.0104     -137167.19    
    472300   2594.4935     -1759.7103      4396.8526     -137165.94    
    472400   2683.9929     -5068.9988      4405.5784     -137162.3     
    472500   2559.5344      3220.1707      4401.1089     -137154.26    
    472600   2446.6088      1614.3946      4381.541      -137158.07    
    472700   2375.0943      5836.8551      4347.9188     -137162.99    
    472800   2530.1263      9666.7552      4338.3649     -137168.44    
    472900   2351.5438      2190.0375      4397.518      -137165.06    
    473000   2546.1984     -6444.9633      4487.7887     -137161.59    
    473100   2584.4404     -8480.4521      4549.9489     -137157.46    
    473200   2448.4102     -3245.6408      4547.517      -137155.14    
    473300   2612.6589     -6423.0421      4503.1909     -137163.21    
    473400   2297.3636     -10050.05       4464.2964     -137161.58    
    473500   2276.4027     -109.9041       4370.8495     -137163.11    
    473600   2692.6145      14734.091      4274.2774     -137163.44    
    473700   2659.6255      5578.2996      4305.1146     -137162.09    
    473800   2495.6154      11048.669      4389.8837     -137163.54    
    473900   2335.7947     -3855.8125      4486.8457     -137162.25    
    474000   2257.7048     -10953.949      4541.7766     -137157.17    
    474100   2718.2194     -4703.5046      4506.7068     -137159.49    
    474200   2554.6564      3955.332       4428.9612     -137155.87    
    474300   2566.5884      5420.2929      4365.6095     -137161.66    
    474400   2430.3381      2490.4423      4339.7914     -137164.06    
    474500   2525.5757     -8651.2172      4334.2534     -137165.46    
    474600   2586.1297      10695.718      4277.1479     -137163.83    
    474700   2587.1949      13413.618      4270.494      -137163.28    
    474800   2422.1928     -846.76288      4341.4269     -137168.45    
    474900   2438.238      -7594.1183      4398.3797     -137170.46    
    475000   2348.6032      2659.4313      4408.6641     -137160.83    
    475100   2735.8165     -12664.331      4391.3453     -137166.51    
    475200   2571.8443     -954.99118      4345.2358     -137164.03    
    475300   2301.9724      6493.2548      4333.8769     -137160.08    
    475400   2550.335      -736.97023      4348.5239     -137165.06    
    475500   2749.4226      2613.1433      4371.9921     -137165.16    
    475600   2411.741       2704.3785      4417.9459     -137156.7     
    475700   2415.4421     -8870.8173      4444.7896     -137160.63    
    475800   2468.4558     -8587.6263      4420.4555     -137162.92    
    475900   2545.9776      15040.308      4375.0713     -137158.17    
    476000   2706.0936      2162.6672      4398.0794     -137160.4     
    476100   2534.9805     -12217.435      4438.4607     -137165.6     
    476200   2377.7202      616.53226      4409.9424     -137165.21    
    476300   2535.1458      720.26246      4372.3608     -137168.42    
    476400   2546.4039      9168.3186      4352.9157     -137166.44    
    476500   2550.1514      2000.4325      4374.0017     -137158.58    
    476600   2627.8065      4438.7806      4408.2792     -137157.02    
    476700   2428.7447     -8967.4686      4439.7239     -137160.12    
    476800   2402.277      -9937.7366      4417.0882     -137164.92    
    476900   2457.4188      9965.385       4362.8533     -137163.74    
    477000   2511.9865      139.24122      4358.0851     -137162.69    
    477100   2675.5267     -4276.0428      4376.8125     -137167.13    
    477200   2409.2264     -7724.2588      4391.5627     -137167.51    
    477300   2223.6062     -2284.9734      4386.1071     -137164.96    
    477400   2510.1768     -1731.4887      4350.1057     -137164.7     
    477500   2467.3384      9452.3054      4295.7839     -137160.06    
    477600   2534.9723      6811.0344      4289.0217     -137163.63    
    477700   2460.2421     -9289.003       4331.8963     -137166.08    
    477800   2367.0811     -6456.8364      4342.7133     -137166.26    
    477900   2599.1988     -83.395675      4309.9802     -137169.69    
    478000   2682.5767      9244.0559      4295.6764     -137165.81    
    478100   2744.7705     -2268.9608      4336.4816     -137168.27    
    478200   2434.0126     -3888.9398      4402.1475     -137166.6     
    478300   2188.8703     -2625.8577      4450.9874     -137163.39    
    478400   2512.4701     -4348.6325      4444.2084     -137162.24    
    478500   2609.3431     -1248.8022      4404.8272     -137160.58    
    478600   2543.7697     -2378.4785      4381.9283     -137161.01    
    478700   2426.1141      7928.5649      4363.6217     -137163.86    
    478800   2399.0148      2824.1122      4357.4812     -137168.42    
    478900   2491.2458      4228.3135      4363.902      -137168.63    
    479000   2539.4714     -227.11153      4400.2748     -137162.81    
    479100   2688.6524     -967.59776      4424.8606     -137163.56    
    479200   2626.1536     -3672.7369      4419.9662     -137164.81    
    479300   2457.7041      4693.6038      4391.6917     -137165.49    
    479400   2360.6808      1899.52        4377.9993     -137164.56    
    479500   2477.0409      4793.6812      4353.4383     -137164.71    
    479600   2554.009       12566.719      4330.2847     -137159.32    
    479700   2663.4955     -4711.5701      4339.9558     -137163.44    
    479800   2435.6399     -6719.0625      4348.0938     -137167.55    
    479900   2420.6872     -2175.8648      4344.3795     -137167.13    
    480000   2620.3945     -1292.7865      4316.9352     -137168.42    
    480100   2544.706       12307.682      4318.7832     -137163.79    
    480200   2584.6257     -2658.5388      4392.6503     -137166.66    
    480300   2238.6274     -7744.823       4484.2458     -137163.67    
    480400   2306.3924     -7921.3661      4553.3184     -137162.91    
    480500   2564.1522     -7833.9589      4566.5672     -137161.11    
    480600   2440.1424     -8376.9066      4524.2033     -137155.73    
    480700   2497.8723      4568.5006      4437.7284     -137157.45    
    480800   2315.7186      3562.4538      4364.5903     -137159.74    
    480900   2443.0259      3124.2438      4279.763      -137169.72    
    481000   2483.1664      4535.6371      4219.5027     -137169.23    
    481100   2619.8078      3677.2585      4201.6991     -137170.62    
    481200   2557.0954      8324.078       4240.8884     -137169.59    
    481300   2400.8751     -7281.8184      4342.7108     -137165.75    
    481400   2620.1939      1547.4716      4422.2745     -137160.14    
    481500   2681.3473     -7415.9348      4491.244      -137158.57    
    481600   2459.098      -9910.5352      4522.1539     -137158.34    
    481700   2218.6914     -4370.4841      4486.3742     -137156.23    
    481800   2633.6957      793.12199      4398.9362     -137163.84    
    481900   2575.9021      14233.052      4332.6475     -137161.96    
    482000   2532.148      -34.741914      4351.1362     -137168.33    
    482100   2440.996      -2218.8601      4386.3509     -137166.1     
    482200   2488.8356     -10089.777      4413.8746     -137162.48    
    482300   2567.2104      1726.9373      4428.3075     -137158.49    
    482400   2674.9547     -9530.9175      4469.0504     -137161.07    
    482500   2375.1568     -4283.4098      4504.9183     -137160.08    
    482600   2444.805      -5345.6564      4506.2997     -137165.51    
    482700   2499.5268     -2072.5904      4469.7112     -137163.36    
    482800   2672.7529      8847.4657      4417.1157     -137155.67    
    482900   2772.0584      10815.085      4405.25       -137159.13    
    483000   2411.6415     -5260.9788      4465.1525     -137157.4     
    483100   2305.2335     -6309.0683      4499.2883     -137157.78    
    483200   2577.591      -4217.1961      4486.7769     -137162.83    
    483300   2617.1801      177.19638      4455.7591     -137159.86    
    483400   2545.4481      26.345532      4398.6424     -137161.79    
    483500   2274.0852     -3540.2776      4330.7154     -137162.85    
    483600   2341.7111      15324.548      4255.4312     -137162.37    
    483700   2590.1005      5689.8861      4240.9976     -137163.98    
    483800   2583.97        1864.9024      4296.0742     -137161.61    
    483900   2392.7294     -3028.9873      4374.0912     -137164.45    
    484000   2312.892      -9118.2538      4449.2931     -137166.88    
    484100   2388.9813     -8622.8988      4465.9914     -137162.83    
    484200   2589.4561      4866.6473      4416.2377     -137163.19    
    484300   2688.7966     -8897.8854      4388.4891     -137165.1     
    484400   2580.2685      119.98599      4357.3649     -137163.96    
    484500   2283.8807      4934.6863      4345.2982     -137162.57    
    484600   2244.0141      2092.1909      4345.6546     -137165.67    
    484700   2449.1316      1292.6023      4354.1367     -137164.2     
    484800   2485.3645      13567.102      4373.5162     -137161.47    
    484900   2550.1256     -3053.5993      4414.9275     -137166.16    
    485000   2506.7023     -8112.2564      4418.2728     -137168.09    
    485100   2654.5703     -5675.9501      4380.4582     -137166.46    
    485200   2813.6245      22984.393      4345.7044     -137161.56    
    485300   2684.4701     -13383.693      4434.9747     -137163.57    
    485400   2286.9372     -10749.209      4490.2435     -137156.47    
    485500   2523.1945     -4347.6033      4447.7863     -137162.42    
    485600   2590.3215      7589.322       4345.9895     -137164.06    
    485700   2500.298       4484.3572      4283.6378     -137164.69    
    485800   2348.345       3106.2107      4277.5706     -137166.13    
    485900   2412.067       6218.0706      4298.8608     -137166.31    
    486000   2468.1251     -4665.7899      4346.9085     -137159.16    
    486100   2685.1266      3059.898       4392.839      -137161.81    
    486200   2630.208      -4494.5343      4452.257      -137163.95    
    486300   2419.2841     -4280.8778      4502.5601     -137161.92    
    486400   2362.7539      3153.897       4529.6313     -137160.76    
    486500   2441.7179     -8817.752       4556.2574     -137158.15    
    486600   2629.6913     -8374.2076      4564.4185     -137155.76    
    486700   2610.7948     -4023.3945      4517.1532     -137157.92    
    486800   2648.4881     -1543.5921      4414.3063     -137165.52    
    486900   2594.1221      7314.2653      4318.1867     -137170.23    
    487000   2285.7805      9984.0206      4282.3927     -137164.92    
    487100   2427.1819      5471.8696      4306.4441     -137165.39    
    487200   2600.6349     -645.34848      4374.494      -137166.33    
    487300   2437.5215     -4167.079       4458.4927     -137161.88    
    487400   2356.6922     -5922.9951      4497.4468     -137157.68    
    487500   2428.4314      6201.0223      4486.2858     -137154.19    
    487600   2694.2332     -222.21127      4483.512      -137161.21    
    487700   2428.8535     -4127.3681      4476.6523     -137158.6     
    487800   2381.554      -410.49659      4428.9709     -137160.71    
    487900   2341.7625      7808.66        4354.2866     -137159.82    
    488000   2910.4714      20140.559      4305.0849     -137168.63    
    488100   2627.412       2866.1041      4367.3078     -137163.42    
    488200   2251.739      -14695.436      4434.7235     -137160.4     
    488300   2468.6286     -725.48373      4413.2034     -137164.67    
    488400   2569.2181      5625.5647      4398.6454     -137164.56    
    488500   2600.3496      1133.1916      4397.0989     -137164.59    
    488600   2349.0438      2795.0608      4397.2418     -137159.54    
    488700   2460.2411      916.74649      4386.795      -137160.2     
    488800   2661.2104      5458.1209      4378.5959     -137161.61    
    488900   2507.4626      1672.4098      4426.5963     -137160.25    
    489000   2331.5558     -14794.445      4489.7935     -137161.67    
    489100   2500.0974     -14972.225      4460.3657     -137165.85    
    489200   2859.1557      7789.032       4349.5914     -137165.92    
    489300   2595.2836      14062.864      4292.4679     -137160.98    
    489400   2423.2846      12239.526      4306.0413     -137162       
    489500   2427.6385      5364.441       4376.5716     -137163.07    
    489600   2552.5732     -14296.454      4457.4385     -137165.7     
    489700   2706.8413     -5247.7151      4474.4547     -137166.73    
    489800   2699.8337      999.13533      4459.6628     -137163.13    
    489900   2428.3907     -2114.2411      4447.3493     -137157.46    
    490000   2309.6799      2853.7597      4403.5437     -137159.26    
    490100   2348.5681      15396.885      4341.3953     -137161.5     
    490200   2589.0354      12135.497      4345.6528     -137165.24    
    490300   2680.2839      2603.6389      4430.2601     -137161.44    
    490400   2575.5156     -1038.475       4526.1717     -137156.97    
    490500   2476.2147     -20948.691      4588.6633     -137162.34    
    490600   2380.05       -13473.832      4525.9611     -137162.15    
    490700   2549.5569      8560.1436      4368.1001     -137163.16    
    490800   2670.8022      19744.586      4264.9834     -137166.47    
    490900   2414.3331      12290.038      4264.7494     -137164.98    
    491000   2501.9986     -14258.48       4327.8142     -137167.47    
    491100   2561.2085     -3246.667       4356.0411     -137164.67    
    491200   2661.8266      3278.2733      4383.5804     -137164.97    
    491300   2404.7591      2465.438       4447.0673     -137158.41    
    491400   2431.5772     -10889.683      4525.0946     -137156.8     
    491500   2347.7525     -655.207        4524.7048     -137153.31    
    491600   2576.1705     -1744.6346      4489.3628     -137157.54    
    491700   2580.0972     -8600.7285      4452.1746     -137158.07    
    491800   2412.0739     -4241.4719      4378.3542     -137162.18    
    491900   2437.1454      9684.5811      4280.8515     -137169.13    
    492000   2429.1297      6863.2618      4245.8343     -137167.74    
    492100   2310.1605      10956.648      4256.6061     -137160.64    
    492200   2646.2528      4233.5028      4322.4629     -137162.41    
    492300   2581.8992     -11719.929      4446.75       -137160.44    
    492400   2320.8294     -16481.408      4537.9665     -137164.39    
    492500   2375.8984     -10043.776      4524.5885     -137165.36    
    492600   2548.2772     -957.91346      4427.0191     -137163.8     
    492700   2685.6897      4606.4317      4327.1307     -137163.79    
    492800   2664.914       1183.3549      4288.7897     -137165.89    
    492900   2349.7208      7230.5971      4299.2504     -137166.6     
    493000   2254.0898     -9529.9651      4341.8392     -137162.13    
    493100   2568.7806     -2056.3433      4357.1676     -137164.14    
    493200   2469.875       3978.7294      4375.4879     -137158.55    
    493300   2537.7925      3843.6264      4420.8683     -137160.76    
    493400   2490.3582     -2783.5911      4480.6548     -137160.91    
    493500   2354.0341     -10868.173      4513.0753     -137159.26    
    493600   2599.1333     -16164.469      4480.5051     -137161.2     
    493700   2666.9294      9521.3104      4382.0859     -137160.1     
    493800   2502.4798      15444.28       4338.8854     -137164.46    
    493900   2390.5954     -7121.1319      4375.0123     -137163.76    
    494000   2485.2682      1627.0447      4398.5159     -137163.56    
    494100   2543.612       2296.6008      4406.6238     -137161.52    
    494200   2741.845       6116.2442      4420.3936     -137158.92    
    494300   2582.274       669.09376      4464.1003     -137159.84    
    494400   2393.7326     -13567.031      4501.5267     -137161.63    
    494500   2528.415      -7290.8583      4456.787      -137162.88    
    494600   2531.6989      8653.3924      4362.1721     -137159.27    
    494700   2720.7016      8015.7158      4321.364      -137162.11    
    494800   2431.0154      6703.2483      4354.8062     -137164.97    
    494900   2257.7409     -8120.374       4413.014      -137163.75    
    495000   2356.2578     -8331.3923      4423.2028     -137159.87    
    495100   2680.7804     -80.901098      4370.1489     -137163.65    
    495200   2696.3982      1157.2108      4314.8328     -137169.67    
    495300   2317.252       4418.2853      4299.7113     -137163.85    
    495400   2486.9552      5187.3323      4329.9528     -137166.54    
    495500   2490.4794     -9471.3993      4399.0703     -137162.83    
    495600   2643.1823     -1350.3918      4445.1834     -137162.99    
    495700   2660.309       369.0723       4465.3728     -137159.66    
    495800   2646.8166     -4194.6158      4476.8057     -137160.04    
    495900   2185.753       2299.1257      4468.7912     -137155.77    
    496000   2402.584       982.59433      4439.2661     -137161.06    
    496100   2476.1671      1358.4402      4414.9211     -137158.4     
    496200   2711.3754      972.36087      4400.9857     -137159.56    
    496300   2692.4153      3366.1671      4405.6333     -137161.1     
    496400   2476.5149     -7275.0624      4437.2466     -137165.05    
    496500   2411.9671     -3411.1857      4445.9276     -137163.92    
    496600   2825.7229      4086.8237      4439.1089     -137168.81    
    496700   2560.4688     -5758.9284      4457.0329     -137163.75    
    496800   2332.5875     -1536.464       4474.4784     -137160.67    
    496900   2390.5207     -11226.699      4455.5277     -137167.23    
    497000   2347.939      -3268.2228      4375.0329     -137168.84    
    497100   2364.5892      7026.4646      4290.7025     -137165.82    
    497200   2713.5446      11959.946      4246.543      -137168.71    
    497300   2499.9879      95.468401      4265.8398     -137164.33    
    497400   2492.7566      1512.8243      4301.212      -137164.71    
    497500   2463.2352      1065.2291      4348.2493     -137161.92    
    497600   2525.7298      4404.2817      4399.2724     -137159.61    
    497700   2702.904      -8621.9677      4456.8973     -137161.58    
    497800   2556.7805     -7405.7207      4479.2244     -137160.76    
    497900   2422.4951     -2611.2649      4432.5094     -137165.3     
    498000   2433.096       5566.5322      4371.3825     -137166.4     
    498100   2555.0985      222.77915      4337.2782     -137166.43    
    498200   2723.2772      10758.831      4310.9144     -137162.94    
    498300   2780.2038      12334.163      4330.9262     -137159.53    
    498400   2571.2958     -12383.953      4411.7818     -137163.64    
    498500   2421.9394     -13034.341      4484.6527     -137161.38    
    498600   2369.1044     -6571.2901      4494.8191     -137158.51    
    498700   2576.9094     -513.42232      4454.8459     -137158.41    
    498800   2608.1769      2248.3107      4396.126      -137162.33    
    498900   2497.2869      7407.4658      4377.2778     -137168.08    
    499000   2373.1636     -4026.0066      4407.9127     -137164.73    
    499100   2487.7535     -225.40169      4419.9345     -137162.43    
    499200   2661.2516      6859.018       4420.8164     -137162.24    
    499300   2447.8195     -10371.778      4436.4484     -137157.58    
    499400   2528.211      -7289.1128      4400.6221     -137163.2     
    499500   2644.6385     -1652.5891      4342.5149     -137168.08    
    499600   2730.1494      9829.7949      4298.1212     -137171.44    
    499700   2447.1503     -3036.2848      4313.9844     -137167.86    
    499800   2240.8296      11298.207      4352.5853     -137166.06    
    499900   2333.9067     -5870.9978      4442.0426     -137164.22    
    500000   2642.4781     -9534.7258      4507.1826     -137163.61    
    500100   2371.0185     -8029.3077      4532.1747     -137155.89    
    500200   2609.0598     -7981.6897      4488.4708     -137161.69    
    500300   2516.9979      3387.5081      4398.567      -137162.77    
    500400   2309.3143     -3506.7301      4318.7641     -137165.07    
    500500   2498.6574      14571.404      4231.1461     -137168.13    
    500600   2536.3759      8384.6394      4210.7679     -137165.28    
    500700   2297.6609      6694.5999      4264.1946     -137160.39    
    500800   2496.4665      3596.0881      4364.054      -137164.85    
    500900   2437.0374     -2699.5706      4463.2129     -137162.42    
    501000   2445.0402     -10593.53       4513.3855     -137159.43    
    501100   2627.4969      3294.7989      4492.4684     -137158.08    
    501200   2867.8759     -2221.8835      4488.663      -137159.32    
    501300   2570.6502     -8543.9404      4459.0282     -137162.19    
    501400   2640.2359     -1801.4224      4384.0362     -137167.66    
    501500   2381.5544      1551.0716      4322.7693     -137162.8     
    501600   2476.9855      9112.6409      4297.3693     -137163.49    
    501700   2562.5653      9980.4425      4326.4692     -137162.17    
    501800   2491.4186     -218.81571      4404.0232     -137163.46    
    501900   2200.5113     -11418.624      4475.1179     -137161.91    
    502000   2419.9349     -9049.2853      4479.8579     -137166.86    
    502100   2514.2322     -81.976278      4450.1857     -137159.55    
    502200   2569.1814      6846.4522      4412.5532     -137158.88    
    502300   2504.5444      6240.2854      4413.3327     -137160.18    
    502400   2331.0495     -7047.1912      4442.4182     -137159.15    
    502500   2560.4331     -8863.2632      4446.5404     -137160.83    
    502600   2966.454       2985.1872      4420.3984     -137162.47    
    502700   2784.0175      1788.7635      4413.2996     -137165.3     
    502800   2355.3786     -7610.722       4419.9257     -137161.64    
    502900   2545.6295     -386.84824      4383.5786     -137166.35    
    503000   2361.5144     -2105.7693      4352.4613     -137158.79    
    503100   2673.4262      7925.9071      4319.8002     -137162.82    
    503200   2384.779       11757.571      4322.5913     -137159.68    
    503300   2490.8928     -3859.1118      4373.3031     -137169.79    
    503400   2331.3951     -7376.6686      4402.2977     -137163.93    
    503500   2516.9365      16094.955      4392.983      -137163.76    
    503600   2479.698      -2397.1194      4436.2308     -137163.07    
    503700   2346.7259     -5404.0218      4452.7577     -137159.17    
    503800   2765.0213      4637.464       4421.7714     -137165.82    
    503900   2650.9887      8165.0749      4422.3963     -137157.88    
    504000   2718.6419     -2744.7551      4469.9125     -137163.43    
    504100   2395.4815     -5539.2195      4501.2053     -137162.86    
    504200   2468.5023     -8346.6436      4493.179      -137163.22    
    504300   2661.5584     -5368.1753      4413.8353     -137162.69    
    504400   2708.847       19493.869      4327.5347     -137164.11    
    504500   2370.695       5858.471       4332.9952     -137163.04    
    504600   2530.4644     -905.74423      4367.0589     -137167.19    
    504700   2578.583      -4012.6001      4405.2635     -137165.92    
    504800   2536.0984      7107.8234      4418.6172     -137162.65    
    504900   2465.1243      3023.1919      4464.8626     -137155.58    
    505000   2591.6233      1905.2821      4508.6544     -137153.42    
    505100   2590.5014      292.81143      4529.1232     -137156.9     
    505200   2413.4212     -1291.5806      4514.295      -137160.85    
    505300   2461.9794     -4318.0275      4481.9855     -137164.1     
    505400   2391.5688     -10903.152      4432.5746     -137161.82    
    505500   2860.6527      12157.104      4333.575      -137166       
    505600   2768.4167      582.18386      4306.8882     -137163.3     
    505700   2355.1858      658.67366      4309.3809     -137162.13    
    505800   2469.1574      5401.2091      4306.5519     -137165.58    
    505900   2490.143      -4821.263       4325.1557     -137165.47    
    506000   2376.5783      9137.2181      4333.0843     -137161.17    
    506100   2612.8507      6369.8638      4356.7584     -137163.08    
    506200   2530.4034      232.20575      4396.1061     -137158.45    
    506300   2582.8283      336.5449       4428.3667     -137161.52    
    506400   2461.8847     -7926.8664      4455.1596     -137165.61    
    506500   2333.97       -3462.4329      4433.8224     -137165.74    
    506600   2541.7315      179.40993      4386.905      -137165.9     
    506700   2551.4754      6590.5662      4366.0532     -137160.75    
    506800   2527.4582      1755.6898      4388.2765     -137160.22    
    506900   2514.488      -1677.6743      4429.8488     -137160.49    
    507000   2407.5259     -3923.6759      4467.47       -137161.05    
    507100   2501.0136     -6353.5909      4465.8856     -137166.89    
    507200   2387.3565      2867.5692      4434.9679     -137162.11    
    507300   2756.3003      1665.5398      4407.3804     -137162.99    
    507400   2509.9322      2790.1599      4376.9772     -137159.71    
    507500   2544.956       942.7357       4373.5849     -137166.07    
    507600   2356.6318      345.21794      4380.1814     -137163.54    
    507700   2321.882       6077.5176      4370.0724     -137160.5     
    507800   2523.6232      2847.17        4367.8088     -137163.79    
    507900   2367.112       3326.1874      4400.8655     -137159.4     
    508000   2370.4023     -4916.88        4444.3372     -137157.86    
    508100   2596.9023     -10520.834      4426.4385     -137160.4     
    508200   2756.2011      6188.1946      4343.0408     -137161.62    
    508300   2500.4134      11251.548      4306.9644     -137157.39    
    508400   2499.9972      4930.3006      4327.8964     -137166.71    
    508500   2430.9535     -9361.4363      4383.2592     -137166.35    
    508600   2475.0601     -5811.2794      4418.553      -137165.36    
    508700   2597.6593      100.20292      4437.515      -137160.16    
    508800   2714.5596      473.29471      4446.0339     -137159.92    
    508900   2466.6119     -1044.1328      4454.3884     -137157.32    
    509000   2361.5123      5314.5212      4464.461      -137157.43    
    509100   2539.4781     -10578.933      4471.4144     -137163.2     
    509200   2577.9483      224.39748      4440.0564     -137163.49    
    509300   2600.645      -4782.6391      4422.9363     -137161.12    
    509400   2782.6159      9477.3648      4374.7438     -137161.91    
    509500   2565.581       7844.726       4374.8837     -137163.02    
    509600   2414.0046     -689.33921      4406.7357     -137165.16    
    509700   2478.4174     -9267.864       4437.1507     -137163.27    
    509800   2530.3131     -2822.5013      4433.3861     -137158.75    
    509900   2725.7229      2314.1595      4429.8015     -137162.35    
    510000   2442.7728      6017.9598      4440.1507     -137160.27    
    510100   2510.0618      329.84052      4468.5804     -137163.3     
    510200   2276.8031     -5863.8594      4498.1201     -137154.76    
    510300   2444.1016     -1515.4407      4468.2644     -137153.85    
    510400   2677.3432      12225.173      4392.8027     -137160.43    
    510500   2478.2115     -71.459145      4338.6098     -137166.47    
    510600   2467.1245      3158.1268      4284.5953     -137168.15    
    510700   2430.3782     -2493.999       4261.4355     -137167.76    
    510800   2401.7003      15879.517      4255.0637     -137166.81    
    510900   2434.5035      8478.7978      4325.0851     -137166.4     
    511000   2530.2755     -5944.376       4450.3617     -137161.29    
    511100   2430.6172     -5096.6912      4534.4063     -137153.14    
    511200   2707.647      -5033.9266      4567.13       -137159.46    
    511300   2480.1677     -18802.952      4547.2682     -137160.48    
    511400   2320.3531      2458.3464      4419.8676     -137163.68    
    511500   2445.461       7844.7837      4293.5534     -137165.92    
    511600   2391.3882      7535.7699      4242.3924     -137163.49    
    511700   2518.4088      8197.4548      4267.8073     -137165.04    
    511800   2687.7945     -573.04115      4355.9227     -137167.3     
    511900   2697.7483     -14904.126      4444.3725     -137163.09    
    512000   2577.6732      1317.2865      4453.5385     -137159.05    
    512100   2509.3569     -6740.2733      4422.6968     -137161.68    
    512200   2499.7552      5180.8033      4352.8964     -137167.33    
    512300   2506.2288     -3921.4784      4312.3127     -137171.29    
    512400   2253.6823     -67.392922      4299.5947     -137167.74    
    512500   2360.7414      1061.11        4296.053      -137168.7     
    512600   2566.3711      8184.2768      4297.602      -137166.24    
    512700   2562.9585      7245.3155      4338.8466     -137165.37    
    512800   2448.1763     -6388.1643      4405.1678     -137165.31    
    512900   2369.8811     -9801.3228      4435.5004     -137165.57    
    513000   2482.5926      2442.3246      4410.3056     -137164.76    
    513100   2626.3313      9677.6223      4381.0106     -137161.88    
    513200   2462.5548     -3362.8651      4379.8099     -137157.2     
    513300   2358.4821     -108.24339      4357.5391     -137160.89    
    513400   2402.3228      10584.949      4330.8142     -137169.03    
    513500   2407.116       8690.1757      4361.9778     -137167.46    
    513600   2343.8879     -7592.8755      4440.6773     -137159.38    
    513700   2548.003      -6814.9976      4480.9316     -137163.3     
    513800   2454.4954     -2738.075       4490.8618     -137158.34    
    513900   2620.5336      2612.154       4488.6893     -137158.84    
    514000   2514.2263     -157.17117      4478.6746     -137158.64    
    514100   2260.0049     -5615.1355      4436.1218     -137161.17    
    514200   2460.4955      492.23041      4357.6649     -137165.51    
    514300   2606.8216      8883.0392      4303.3642     -137166.95    
    514400   2562.1398      109.8862       4290.5814     -137167.85    
    514500   2456.4823      4369.5121      4288.9655     -137168.28    
    514600   2254.0201      5822.3933      4325.5461     -137168.06    
    514700   2305.1636     -7023.0132      4384.9936     -137166.53    
    514800   2579.7533      858.13116      4421.2637     -137164.99    
    514900   2379.9374     -6963.1508      4456.731      -137156.37    
    515000   2596.2402      1362.7869      4435.8578     -137159.58    
    515100   2438.7833      3846.0849      4393.4918     -137159.86    
    515200   2449.5617      2578.2889      4356.0236     -137168.23    
    515300   2312.3871     -2389.186       4344.6237     -137164.54    
    515400   2479.1353     -482.1054       4306.8777     -137165.51    
    515500   2493.7267      4609.0241      4254.2883     -137163.74    
    515600   2526.6199      13699.088      4231.6512     -137165.06    
    515700   2414.5226      1959.3774      4306.0012     -137163.71    
    515800   2426.9884     -7175.9538      4428.5193     -137162.7     
    515900   2526.8385     -1061.6221      4519.4531     -137157.08    
    516000   2754.1307     -13840.403      4592.8458     -137156.78    
    516100   2642.4731     -3937.2748      4618.8485     -137155.83    
    516200   2432.9131     -3593.6758      4618.2108     -137155.37    
    516300   2368.8959     -5634.3275      4564.9249     -137155.39    
    516400   2765.1232      938.93019      4475.65       -137156.96    
    516500   2599.5754      5495.2172      4397.4891     -137153.72    
    516600   2557.9202      12508.389      4331.7213     -137162.29    
    516700   2544.7614      11556.626      4323.2093     -137166.83    
    516800   2282.1537     -818.53433      4386.7664     -137161.77    
    516900   2524.3629     -8966.4639      4465.0687     -137161.38    
    517000   2592.8575      4172.9224      4499.2754     -137157.83    
    517100   2580.8948     -10454.642      4513.9055     -137160.24    
    517200   2412.1238     -9484.7718      4472.7174     -137157.6     
    517300   2615.1326      413.0523       4368.1357     -137163.84    
    517400   2480.2527      896.24855      4269.0901     -137167.75    
    517500   2238.7967      11164.609      4210.4817     -137164.9     
    517600   2742.6662      9131.5262      4200.6473     -137173.67    
    517700   2464.8522      10534.05       4240.2656     -137165.58    
    517800   2221.3614     -1998.5235      4321.3641     -137160.91    
    517900   2372.9829      2580.8864      4373.8011     -137162.71    
    518000   2635.983       311.26479      4416.4624     -137162.66    
    518100   2588.5524     -1261.4754      4477.5836     -137160.89    
    518200   2415.8034     -9633.9128      4525.1756     -137161.33    
    518300   2314.0213     -5522.2171      4481.2814     -137165.4     
    518400   2223.7539      1808.4351      4371.7288     -137162.2     
    518500   2664.9565      5509.9964      4307.151      -137163.07    
    518600   2734.5726      7412.9445      4312.8258     -137167.54    
    518700   2408.9313     -1594.3562      4356.6753     -137166.69    
    518800   2507.9129     -8929.2605      4385.7806     -137169.64    
    518900   2647.1298     -4535.595       4387.3333     -137167.27    
    519000   2480.833       7467.3402      4375.7436     -137159.95    
    519100   2399.8446     -3133.5391      4367.2014     -137159.85    
    519200   2262.5882      1766.12        4358.0943     -137164.7     
    519300   2299.8684     -6078.2535      4371.9452     -137165.11    
    519400   2452.034       1465.9998      4342.0157     -137160.98    
    519500   2669.5913      11350.95       4320.2264     -137165.11    
    519600   2467.2982     -1347.6772      4372.1257     -137166.57    
    519700   2358.7711     -3815.0736      4423.6334     -137164.41    
    519800   2488.6975     -8389.6687      4430.1234     -137163.92    
    519900   2497.9909     -284.6186       4404.3091     -137162.13    
    520000   2604.5326     -1846.5951      4388.4198     -137163.44    
    520100   2543.494      -183.78676      4366.3778     -137163.09    
    520200   2305.5685     -2902.0202      4347.9114     -137164.73    
    520300   2151.8875      7433.342       4311.2273     -137165.13    
    520400   2479.5282     -9504.8385      4286.248      -137167.05    
    520500   2625.2942      13618.9        4271.3381     -137167.94    
    520600   2542.2431      113.34438      4346.6022     -137166.86    
    520700   2354.2414     -18623.142      4431.4475     -137162.92    
    520800   2750.6616     -5889.4669      4434.4809     -137167.55    
    520900   2526.1282      2966.129       4399.7168     -137157.12    
    521000   2502.9987     -882.55484      4386.7423     -137157.34    
    521100   2385.59        1147.6011      4404.2673     -137161.7     
    521200   2457.7384     -14861.548      4402.0529     -137169.99    
    521300   2503.4359      252.70186      4335.9348     -137169.91    
    521400   2720.8594      5073.4148      4305.5864     -137168.27    
    521500   2604.1172      1399.0376      4361.2052     -137161.79    
    521600   2415.5555     -1137.0024      4432.6298     -137158.03    
    521700   2563.8601     -8245.8318      4467.6473     -137162.54    
    521800   2503.918      -6280.1163      4461.4568     -137160.75    
    521900   2540.4491      999.6636       4419.6519     -137162.91    
    522000   2370.5113      5314.7668      4381.8664     -137160.1     
    522100   2454.0173      4315.3739      4381.6188     -137163.28    
    522200   2526.6346      6602.466       4420.5147     -137161.02    
    522300   2670.0246     -15151.307      4480.0719     -137159.4     
    522400   2639.4461      11288.749      4488.6132     -137156.17    
    522500   2427.5651      6371.9742      4542.1854     -137152.88    
    522600   2227.5079     -10943.046      4584.1474     -137155.69    
    522700   2492.5064     -4102.5302      4529.9677     -137162.92    
    522800   2638.5663      4687.8459      4448.9741     -137163.9     
    522900   2483.1512      1020.784       4411.9741     -137160.92    
    523000   2534.4073      11466.575      4402.944      -137166.78    
    523100   2332.5741      58.911468      4432.3767     -137161.68    
    523200   2521.4459      2725.1197      4449.1097     -137160.25    
    523300   2643.878      -2387.4935      4467.8541     -137159.17    
    523400   2571.2196     -2522.9801      4499.8457     -137160.74    
    523500   2158.4023     -14221.834      4520.397      -137160.02    
    523600   2433.7531     -6499.3303      4456.757      -137165.35    
    523700   2597.7208      10368.565      4351.8702     -137163.97    
    523800   2544.4033      8562.0698      4288.1282     -137162.23    
    523900   2437.7812      7210.7112      4281.2387     -137162.7     
    524000   2175.2678      53.497846      4301.6275     -137164.22    
    524100   2143.1879      2506.3594      4315.3253     -137167.59    
    524200   2289.1646      2157.7811      4321.8338     -137165.22    
    524300   2414.4651     -2116.3552      4332.6837     -137164.15    
    524400   2551.2464      1659.9457      4341.636      -137162.66    
    524500   2683.0738      4167.1393      4354.8675     -137164.58    
    524600   2397.6144      8616.7388      4394.2831     -137163.62    
    524700   2276.1818     -14891.368      4439.074      -137164.17    
    524800   2561.1045      497.73225      4402.385      -137165.82    
    524900   2750.5235      9842.9581      4354.0524     -137160.52    
    525000   2756.9882      9309.0778      4346.5498     -137163.34    
    525100   2599.7589      368.20414      4391.8516     -137165.61    
    525200   2481.6384     -14008.505      4459.3636     -137167.99    
    525300   2400.1767     -6500.5351      4457.6654     -137165.2     
    525400   2623.4545      4205.685       4405.7646     -137164.76    
    525500   2592.2199      1242.833       4387.4582     -137163.46    
    525600   2226.7064      6709.4656      4406.4813     -137162.6     
    525700   2352.4339     -6040.1105      4437.0831     -137166.64    
    525800   2637.8341     -4819.5023      4409.3451     -137168.27    
    525900   2475.5313     -5923.4083      4364.6806     -137162.7     
    526000   2566.6043      9119.4149      4308.6944     -137164.25    
    526100   2425.015       10934.584      4311.2843     -137163.24    
    526200   2217.2642     -938.23057      4377.1227     -137164       
    526300   2262.7436     -14116.339      4424.5004     -137164.33    
    526400   2520.7878     -3743.6033      4400.864      -137160.84    
    526500   2564.3073     -988.71468      4360.8556     -137161.01    
    526600   2501.9216      8246.061       4341.0158     -137164.29    
    526700   2266.4546     -168.22362      4363.9355     -137162.08    
    526800   2462.2241     -1405.8435      4365.3435     -137164.69    
    526900   2739.1774      3576.9664      4337.9706     -137162.13    
    527000   2683.6578      11571.681      4351.2109     -137161.48    
    527100   2357.7685     -11414.762      4449.5509     -137158.4     
    527200   2590.38       -11632.812      4489.4086     -137164.53    
    527300   2500.6221     -2254.392       4447.2052     -137163.19    
    527400   2736.0777     -294.53541      4392.5721     -137167.01    
    527500   2745.3624      7760.7092      4381.461      -137164.57    
    527600   2337.0986     -6098.4546      4428.1332     -137159.64    
    527700   2354.0481      4956.7108      4443.4803     -137161.76    
    527800   2585.3122     -9800.3198      4453.4675     -137161.76    
    527900   2528.6006      10224.494      4420.9302     -137154.57    
    528000   2623.4449      122.31793      4403.0654     -137158.9     
    528100   2506.1692      8224.4084      4401.5855     -137160.01    
    528200   2475.1543     -731.67875      4445.7916     -137161.51    
    528300   2429.2612     -4828.066       4473.6023     -137162.69    
    528400   2455.2134     -1718.5333      4469.7795     -137160.53    
    528500   2706.2637     -12453.854      4461.8112     -137160.35    
    528600   2417.197       8936.7072      4407.1107     -137155.81    
    528700   2375.4878     -4909.579       4350.0767     -137163.93    
    528800   2382.5426      8053.148       4281.747      -137164.31    
    528900   2372.3207      16784.393      4267.0554     -137161.65    
    529000   2481.0427      1332.0821      4336.7205     -137161.67    
    529100   2629.8709     -7292.2001      4434.504      -137162.64    
    529200   2501.5008     -10211.897      4494.0799     -137156.77    
    529300   2735.4479     -7333.7447      4463.4065     -137163.34    
    529400   2437.2108      2533.3954      4398.2572     -137160.95    
    529500   2359.974       4163.8194      4357.1918     -137163.69    
    529600   2287.1388      7104.0611      4330.9083     -137161.75    
    529700   2564.251       6610.2282      4317.2821     -137160.88    
    529800   2520.0186      2401.001       4329.5765     -137156.6     
    529900   2689.241       7415.943       4369.4618     -137166.25    
    530000   2451.6852     -6523.0861      4461.1849     -137163.72    
    530100   2323.7381     -14847.747      4517.9472     -137160.38    
    530200   2478.6971     -7309.6817      4484.1754     -137159.75    
    530300   2763.184       6773.5479      4404.3896     -137163.63    
    530400   2471.6561      14284.335      4357.0388     -137163.28    
    530500   2521.6739     -6850.1224      4364.1463     -137169.35    
    530600   2589.8775      842.04551      4368.6678     -137170.18    
    530700   2500.2958     -708.68755      4392.3514     -137165.67    
    530800   2676.8774     -7479.0398      4422.5008     -137163.94    
    530900   2435.1813      429.9203       4447.2996     -137154.31    
    531000   2826.3369     -12141.663      4486.5979     -137160.66    
    531100   2633.2115      567.70796      4490.3558     -137156.39    
    531200   2282.636      -5306.5104      4496.0897     -137155.44    
    531300   2384.8807      2438.9397      4450.0823     -137159.55    
    531400   2472.6236      2178.4209      4358.3766     -137158.37    
    531500   2606.1763      6725.9748      4261.7452     -137162.82    
    531600   2365.2547      14926.247      4189.4089     -137166.85    
    531700   2407.5014      11001.271      4203.6343     -137168.3     
    531800   2534.449       5295.0003      4314.4801     -137166.88    
    531900   2489.6938     -8762.025       4462.8886     -137159.72    
    532000   2643.8911     -7942.8152      4554.4352     -137159.59    
    532100   2598.247      -10832.935      4584.0227     -137159.58    
    532200   2584.0181     -11183.266      4567.2896     -137160.29    
    532300   2524.3435     -3522.0454      4487.1671     -137159.72    
    532400   2570.3381      4715.9594      4365.9273     -137164.74    
    532500   2409.4076     -540.09681      4293.0874     -137167.36    
    532600   2467.8297      5800.2042      4243.0116     -137169.83    
    532700   2635.9503      4040.9707      4229.2658     -137173.73    
    532800   2249.7917      1390.9518      4265.4924     -137169.93    
    532900   2021.9783     -1231.7631      4307.4381     -137166.34    
    533000   2404.6183     -6013.9075      4332.9443     -137167.08    
    533100   2499.0393      8515.374       4344.5202     -137164.82    
    533200   2467.2378     -5583.0802      4385.1449     -137160.95    
    533300   2554.3024     -7814.1043      4398.8137     -137162.12    
    533400   2623.44        2955.7805      4396.7577     -137157.29    
    533500   2757.55       -2754.1137      4409.1903     -137159.99    
    533600   2482.1962     -5581.6947      4430.1232     -137162.95    
    533700   2546.7963      5978.4343      4436.0673     -137166.64    
    533800   2426.8609     -5491.7662      4474.9202     -137161.29    
    533900   2725.3491     -861.3464       4463.2437     -137162.54    
    534000   2627.6887      6539.5699      4450.2254     -137157.88    
    534100   2577.4059     -2076.4838      4465.3964     -137159.95    
    534200   2514.5405     -4559.1615      4458.3183     -137160.79    
    534300   2525.1995     -7524.4523      4427.8745     -137164.03    
    534400   2359.5312      4063.8127      4356.7963     -137164.91    
    534500   2471.9826     -3833.9215      4297.9666     -137170.09    
    534600   2466.0093      7585.3645      4261.4589     -137164.7     
    534700   2807.2067      6823.5992      4285.9977     -137167.3     
    534800   2501.0465     -3715.2541      4382.4965     -137162       
    534900   2425.7852     -13734.772      4461.5435     -137163.57    
    535000   2432.7142     -7477.8392      4460.3533     -137162.16    
    535100   2639.305       3063.3684      4398.1237     -137159.39    
    535200   2685.8122      16266.25       4312.9499     -137162.03    
    535300   2468.6418      4616.0339      4292.3676     -137164.73    
    535400   2253.7457      1307.8877      4297.9065     -137159.12    
    535500   2653.4759     -3662.2144      4308.6623     -137166       
    535600   2624.1139      7360.069       4320.5586     -137167.48    
    535700   2364.1645     -4972.754       4362.184      -137169.07    
    535800   2276.3161     -7129.9484      4412.4668     -137165.75    
    535900   2434.2759     -17249.131      4439.8619     -137164.16    
    536000   2417.8585      17371.4        4390.9558     -137157.6     
    536100   2632.6615      7293.9764      4383.6514     -137162.63    
    536200   2464.9363     -16857.256      4422.3265     -137162.81    
    536300   2277.365       1176.1258      4394.7045     -137163.91    
    536400   2478.4218     -3699.7028      4346.2856     -137165.68    
    536500   2729.6947      6620.5221      4306.3681     -137162.64    
    536600   2659.477       3680.8123      4309.842      -137165.51    
    536700   2439.5431      980.011        4355.4295     -137164.76    
    536800   2258.8599     -3378.9382      4406.697      -137159.49    
    536900   2661.9001     -1580.704       4427.7223     -137162.21    
    537000   2649.1895      4948.4986      4446.2465     -137160.8     
    537100   2334.1134     -4489.2529      4469.0979     -137155.23    
    537200   2483.5618      1794.32        4444.7827     -137160.81    
    537300   2551.1017      3859.6928      4422.3598     -137167.84    
    537400   2237.2475     -4284.9546      4422.3663     -137166.12    
    537500   2326.9003     -5438.3546      4385.4255     -137165.51    
    537600   2460.1442      6178.9638      4315.3779     -137164.22    
    537700   2551.014       3644.4788      4273.1016     -137164.15    
    537800   2693.1453      11639.154      4263.5886     -137166.71    
    537900   2387.0718      5989.8736      4303.512      -137166.14    
    538000   2373.2497     -5897.3409      4377.3819     -137168.2     
    538100   2398.9498      2355.5514      4435.6932     -137164.94    
    538200   2420.1248     -10935.522      4497.455      -137161.03    
    538300   2563.5914      219.71122      4499.311      -137162.29    
    538400   2582.7729     -7543.2415      4483.6598     -137161.97    
    538500   2418.8869      4994.1063      4421.5565     -137163.7     
    538600   2275.3647     -1051.0429      4358.5546     -137166.09    
    538700   2475.3599      7008.6068      4275.6313     -137168.45    
    538800   2705.1464      15555.646      4228.2347     -137169.29    
    538900   2598.4943      9287.8326      4296.7901     -137162.01    
    539000   2480.18        5081.0789      4444.8288     -137157.81    
    539100   2363.1455     -4786.5486      4597.1175     -137157.99    
    539200   2404.7507     -23496.979      4660.1306     -137158.61    
    539300   2507.1218      988.88399      4562.2001     -137153.89    
    539400   2654.8973      14273.439      4448.9499     -137154.81    
    539500   2542.4745      12298.023      4413.2951     -137158.66    
    539600   2386.7998      11828.126      4453.4165     -137157.59    
    539700   2477.8307     -2036.8969      4523.305      -137159.82    
    539800   2593.9752     -18255.91       4554.591      -137161.45    
    539900   2463.0492     -1701.0395      4488.5232     -137156.77    
    540000   2585.4322      13274.643      4407.0725     -137162.09    
    540100   2397.5256      505.51347      4397.2462     -137164.71    
    540200   2440.4159     -4199.2639      4394.3201     -137166.63    
    540300   2659.0413      3613.5516      4377.7157     -137168.08    
    540400   2661.5552      5423.8919      4405.915      -137159.7     
    540500   2411.3156      2305.5961      4464.5214     -137149.11    
    540600   2497.0962     -5385.6867      4508.0229     -137155.93    
    540700   2438.8491     -11535.022      4479.3147     -137163.17    
    540800   2286.5795      4063.3154      4358.0568     -137161.19    
    540900   2498.8754      23676.812      4253.2176     -137163.51    
    541000   2600.1449      13598.606      4290.8807     -137160.36    
    541100   2641.5273     -2908.1421      4398.3791     -137161.16    
    541200   2237.6026     -10255.311      4494.8736     -137157.09    
    541300   2383.4388     -8324.6798      4527.5989     -137160.72    
    541400   2575.315      -14349.502      4480.4575     -137158.41    
    541500   2688.5622      2911.3187      4369.6488     -137158.75    
    541600   2651.0174      12581.245      4314.9879     -137161.96    
    541700   2445.2372     -1812.9942      4366.5965     -137160.06    
    541800   2526.1791     -2374.7948      4429.5581     -137161.64    
    541900   2673.9813     -3697.4965      4474.9609     -137162.53    
    542000   2507.9562     -5324.2979      4492.1139     -137158.17    
    542100   2373.602       1638.4558      4475.286      -137158.56    
    542200   2495.2385     -3129.6232      4449.7722     -137164.87    
    542300   2470.9173      4241.1849      4431.2744     -137162.31    
    542400   2606.8759     -4684.8536      4444.0254     -137159.28    
    542500   2656.7894      234.82137      4453.6161     -137157.53    
    542600   2403.726      -5297.5862      4472.463      -137159.48    
    542700   2427.1088     -5488.1218      4466.2517     -137165.34    
    542800   2356.34       -2155.4058      4426.4832     -137160.26    
    542900   2605.4847      2040.4873      4367.0335     -137161.88    
    543000   2609.6283      10142.096      4309.5105     -137163.62    
    543100   2539.1711      5372.378       4317.3875     -137165.95    
    543200   2275.6961     -3341.383       4378.3403     -137157.9     
    543300   2550.1906     -514.60303      4400.7509     -137161.22    
    543400   2545.5704     -1311.003       4411.68       -137161.52    
    543500   2451.2299     -11627.945      4417.1807     -137161.14    
    543600   2423.3962      7036.3402      4366.0459     -137160.61    
    543700   2444.7903     -339.77284      4319.3563     -137163.93    
    543800   2503.0738      9656.9337      4291.0002     -137165.96    
    543900   2389.6388     -2216.327       4317.3277     -137165.45    
    544000   2478.0399      1087.0457      4336.9321     -137166.88    
    544100   2628.2935      1944.2583      4340.7274     -137164.21    
    544200   2722.5456      14831.047      4338.9385     -137166.37    
    544300   2299.0256      1476.9196      4408.1564     -137165.01    
    544400   2396.2125     -12537.375      4470.9476     -137166.47    
    544500   2401.98        2185.0271      4453.4787     -137161.11    
    544600   2661.3837     -1282.3948      4424.8865     -137164.74    
    544700   2565.1677     -5291.4965      4406.7552     -137162.22    
    544800   2556.4611     -3205.8027      4370.0583     -137162.18    
    544900   2538.3781      197.69266      4324.2038     -137163.71    
    545000   2540.7079      1745.3         4297.4237     -137169.55    
    545100   2330.0356      3340.7063      4297.2538     -137167.39    
    545200   2531.749       1483.7263      4312.1203     -137168.73    
    545300   2649.36       -21.334858      4351.1698     -137164.52    
    545400   2704.6182     -1190.1744      4428.2248     -137166.26    
    545500   2470.9878     -16886.249      4506.0896     -137161.21    
    545600   2440.2293     -1177.166       4493.5586     -137159.91    
    545700   2528.3189      6042.8303      4450.4835     -137161.15    
    545800   2510.0897     -1146.5528      4406.2253     -137160.66    
    545900   2441.4586      7078.8492      4343.6679     -137161.54    
    546000   2239.9398      8918.4278      4294.1474     -137165.4     
    546100   2339.1162     -735.33359      4282.5325     -137168.1     
    546200   2434.5568      9384.788       4287.7237     -137163.57    
    546300   2415.7693      1014.6507      4352.8418     -137159.19    
    546400   2595.1412     -20244.243      4434.0294     -137161.3     
    546500   2503.1584      630.94846      4454.3412     -137160.1     
    546600   2148.3215      3070.0227      4484.2649     -137154.6     
    546700   2480.5206     -7950.567       4512.7359     -137162.32    
    546800   2722.264      -9655.575       4487.6159     -137161.81    
    546900   2648.5509      1086.1847      4422.2686     -137161.84    
    547000   2393.4266      4361.384       4377.3216     -137162.95    
    547100   2489.751       6364.6344      4353.3908     -137167.25    
    547200   2463.4223      5847.8956      4342.4685     -137166.09    
    547300   2652.0447      7098.6595      4368.8618     -137164.08    
    547400   2656.1699     -7400.7785      4463.6709     -137155.09    
    547500   2587.1503     -9320.6195      4532.3812     -137156.63    
    547600   2629.8521     -17518.512      4516.041      -137162.24    
    547700   2525.0924     -248.42305      4436.3993     -137161.31    
    547800   2556.9054      61.655445      4369.7548     -137163.74    
    547900   2343.7714      2445.4019      4323.9825     -137164.36    
    548000   2320.512       74.135348      4300.4938     -137168.45    
    548100   2438.116       4460.111       4284.9747     -137166.24    
    548200   2510.1826      8498.2881      4292.8861     -137162.36    
    548300   2564.6083      8691.1383      4355.6095     -137163.75    
    548400   2428.2171     -12352.673      4476.5123     -137163.05    
    548500   2336.7643     -19804.085      4504.3684     -137163.13    
    548600   2678.8701     -2687.834       4396.3367     -137163.76    
    548700   2769.4561      18237.769      4279.5276     -137164.12    
    548800   2480.6312      9890.9793      4272.9746     -137165.33    
    548900   2408.9797      6997.1325      4334.7818     -137165.94    
    549000   2234.4218     -10488.919      4421.9704     -137156.74    
    549100   2762.725      -4669.403       4451.3929     -137164.15    
    549200   2421.9831      2432.4535      4463.2254     -137156.72    
    549300   2425.6008     -3926.1868      4476.5271     -137158.44    
    549400   2448.9752     -2885.7264      4462.2776     -137163.46    
    549500   2296.9554     -8098.2964      4420.4868     -137166.86    
    549600   2306.5127      10940.066      4372.5546     -137164.79    
    549700   2636.9332      3796.7504      4384.2751     -137163.01    
    549800   2595.0704      5856.8692      4421.3756     -137161.78    
    549900   2470.5406     -8877.6435      4481.682      -137159.98    
    550000   2504.5625     -13359.847      4495.3089     -137160.36    
    550100   2674.5552     -2366.6168      4457.1951     -137162.32    
    550200   2620.9536      8136.9078      4430.6047     -137163.42    
    550300   2336.133      -6986.8743      4441.2496     -137162.46    
    550400   2388.7883     -8391.8936      4409.4247     -137163.94    
    550500   2576.7458     -2117.9394      4336.592      -137161.34    
    550600   2796.3717      21145.571      4282.0092     -137161.91    
    550700   2593.7014      3744.4805      4349.5216     -137162.49    
    550800   2496.7459     -4542.3774      4453.7963     -137161.94    
    550900   2416.3906     -4697.5438      4513.3745     -137161.49    
    551000   2452.5664     -11586.561      4526.5055     -137161.64    
    551100   2550.9219     -2880.7474      4476.6765     -137155.4     
    551200   2711.2396      14249.573      4417.0485     -137157.6     
    551300   2501.0089      1491.0556      4435.9182     -137158.72    
    551400   2486.906      -16856.685      4434.2233     -137162.33    
    551500   2400.3905      8846.2522      4351.2334     -137160.12    
    551600   2529.9797      10224.737      4320.0285     -137161.01    
    551700   2385.4068     -2814.6458      4334.5066     -137162.85    
    551800   2299.8393     -1077.8874      4325.454      -137167.95    
    551900   2215.5744      3111.1578      4299.8997     -137162.7     
    552000   2614.5083      8595.9509      4288.7117     -137165.63    
    552100   2516.7953      3507.188       4337.6324     -137162.46    
    552200   2560.2467      1414.8372      4425.4816     -137164.34    
    552300   2338.2148     -12132.048      4508.9149     -137160.74    
    552400   2310.9159     -6813.4631      4507.7512     -137164.12    
    552500   2290.7926      954.21739      4463.5537     -137162.72    
    552600   2583.9794      2802.0872      4445.7402     -137162.62    
    552700   2591.5774     -8431.2365      4453.8198     -137161.07    
    552800   2440.3121     -3492.9563      4441.3664     -137159.88    
    552900   2319.9862      4791.3219      4397.7225     -137163.1     
    553000   2277.5383      5930.2867      4326.8246     -137166.82    
    553100   2403.165       10875.296      4277.6162     -137165.21    
    553200   2702.2598      11425.488      4292.862      -137165.46    
    553300   2472.1924      3955.0402      4366.8521     -137162.37    
    553400   2372.7774     -8121.4338      4441.9357     -137161.48    
    553500   2604.384      -11065.755      4463.5595     -137162.01    
    553600   2569.4976     -864.65206      4442.8094     -137156.13    
    553700   2684.0405      454.75         4410.9549     -137162.57    
    553800   2419.3691     -510.68071      4410.9398     -137166.81    
    553900   2318.1087     -8988.6576      4419.0388     -137162.21    
    554000   2569.6798     -33.161177      4348.8754     -137162.34    
    554100   2803.6334      12916.204      4296.0319     -137166.73    
    554200   2346.9966      2992.5198      4345.0356     -137160.23    
    554300   2394.8513      42.042416      4408.7699     -137162.4     
    554400   2438.1837      3225.026       4447.908      -137155.4     
    554500   2725.7792      3343.6013      4493.3004     -137157.59    
    554600   2487.5245     -2890.06        4534.5598     -137157.5     
    554700   2508.5981     -12762.429      4514.7116     -137164.27    
    554800   2304.6849     -4735.9844      4422.7682     -137161.91    
    554900   2563.8375      9275.466       4324.384      -137164.99    
    555000   2857.6667      6262.3956      4308.3237     -137163.84    
    555100   2560.0602      10371.514      4370.3403     -137163.18    
    555200   2332.9835     -4690.0551      4443.2388     -137163.83    
    555300   2448.304      -6645.6471      4463.0048     -137162.94    
    555400   2664.5527     -2353.22        4449.5201     -137161.33    
    555500   2669.9491     -1841.3014      4413.5953     -137161       
    555600   2223.3015      8190.9038      4371.9923     -137156.22    
    555700   2380.5776      3626.8609      4358.877      -137162.75    
    555800   2456.4164     -9106.3766      4351.2047     -137162.88    
    555900   2465.7203      10344.73       4318.4572     -137161.47    
    556000   2641.1636     -2207.2027      4319.6434     -137166.34    
    556100   2334.1914     -4359.3001      4314.6325     -137168.03    
    556200   2303.6756      6257.8378      4300.9478     -137169.67    
    556300   2446.9857      3152.2001      4324.1917     -137169.65    
    556400   2359.6399     -7372.1634      4357.5768     -137164.15    
    556500   2458.2324      2324.6184      4346.378      -137160.58    
    556600   2662.4349      7481.1633      4337.6974     -137164.53    
    556700   2539.031       6771.8801      4374.6461     -137163.81    
    556800   2402.9474     -4582.179       4441.6017     -137160.96    
    556900   2468.8699     -15681.108      4476.1475     -137160.41    
    557000   2719.4671      6848.6632      4454.8394     -137157.21    
    557100   2616.3226     -8278.2726      4451.8438     -137154.02    
    557200   2746.3275     -1737.8331      4398.5917     -137163.87    
    557300   2572.3607      4256.3316      4353.204      -137164.97    
    557400   2454.3317      3115.4016      4336.8148     -137162.16    
    557500   2599.5658      1790.1174      4336.7373     -137162.96    
    557600   2714.3901     -5963.3101      4377.1976     -137163.97    
    557700   2630.1126      13850.294      4435.546      -137159.67    
    557800   2415.9476     -13703.913      4549.9192     -137157.63    
    557900   2277.912      -12018.097      4593.7515     -137157.57    
    558000   2482.1898     -8780.7009      4549.2282     -137158.42    
    558100   2742.8985      5265.1409      4456.8017     -137159.27    
    558200   2561.1898      3987.7904      4376.0878     -137160.34    
    558300   2459.2003      2899.517       4307.2943     -137161.84    
    558400   2553.6514      17262.974      4269.5126     -137165.94    
    558500   2491.962      -6316.0763      4330.3758     -137166.99    
    558600   2461.0523     -4595.0339      4414.5066     -137166.89    
    558700   2612.0216     -5765.1466      4508.8448     -137165.04    
    558800   2572.9414     -6371.8796      4582.7949     -137158.02    
    558900   2526.6087     -17264.207      4617.1684     -137155.1     
    559000   2594.5735     -7492.9491      4553.6758     -137156.99    
    559100   2474.2511      6306.7823      4403.1373     -137160.26    
    559200   2433.0966     -59.931363      4275.8978     -137165.39    
    559300   2386.8131      10442.654      4175.0177     -137168       
    559400   2338.4235      14931.317      4130.3071     -137167.76    
    559500   2660.8181      14990.484      4180.0598     -137167.8     
    559600   2698.9        -2300.9913      4310.2408     -137165.4     
    559700   2389.8944     -7370.0427      4440.4509     -137160.23    
    559800   2397.3213     -9654.6211      4509.2749     -137157.96    
    559900   2513.6463      1847.3695      4478.7546     -137154.72    
    560000   2977.4384      18999.012      4454.0909     -137156.85    
    560100   2590.7424     -3493.0575      4495.5162     -137155.63    
    560200   2570.4735      711.39719      4504.4019     -137162.23    
    560300   2354.9444     -6621.9676      4513.4123     -137161.94    
    560400   2417.7196     -7412.3796      4487.8852     -137163.76    
    560500   2485.1183     -2044.6809      4427.8201     -137162.6     
    560600   2707.5298      5507.5855      4366.6751     -137162.32    
    560700   2589.3341      9286.9372      4359.9405     -137160.53    
    560800   2327.6801     -1234.9142      4403.7917     -137162.43    
    560900   2510.5369     -3610.8612      4418.4395     -137164.59    
    561000   2621.1305     -5988.7469      4404.4471     -137165.4     
    561100   2456.151      -5078.4038      4385.6347     -137165.01    
    561200   2334.7106     -11927.439      4356.4404     -137165.79    
    561300   2609.7308      10906.671      4287.1099     -137167.4     
    561400   2891.0614      18900.188      4284.2357     -137170.55    
    561500   2283.3747     -9049.0175      4372.055      -137161.14    
    561600   2327.8128     -2677.9863      4397.5781     -137163.33    
    561700   2470.592       5519.2693      4384.5703     -137164.38    
    561800   2502.9713      2774.9046      4388.1414     -137163.41    
    561900   2360.5901     -929.32971      4412.356      -137158.94    
    562000   2575.7161     -548.26528      4423.0362     -137164.28    
    562100   2405.1922     -3699.929       4436.8956     -137161.47    
    562200   2379.7493      9441.1499      4451.3512     -137159.72    
    562300   2622.6872      5659.6036      4463.1354     -137157.38    
    562400   2603.4244     -2343.1389      4467.1433     -137155.22    
    562500   2486.2529     -4995.1069      4472.5416     -137157.82    
    562600   2454.6714     -2663.8138      4461.2853     -137159.08    
    562700   2554.095      -2663.0396      4419.1369     -137156.29    
    562800   2944.564       10748.378      4368.1202     -137158.6     
    562900   2611.8413      5822.3141      4395.734      -137160.34    
    563000   2512.6107     -8521.9467      4485.3988     -137163.51    
    563100   2332.3979     -7504.0342      4541.6329     -137159.77    
    563200   2562.7858     -10439.539      4531.3715     -137159.3     
    563300   2746.983      -2638.4385      4449.9577     -137160.83    
    563400   2630.1964      9879.1823      4373.4846     -137163.58    
    563500   2439.9094      7139.8056      4372.1812     -137163.17    
    563600   2470.8458     -8447.8346      4419.3566     -137164.51    
    563700   2661.8659     -9206.7528      4428.6738     -137165.91    
    563800   2679.4739      4651.491       4391.0859     -137163.22    
    563900   2643.2408     -1519.9804      4381.0378     -137163.18    
    564000   2450.2361     -3020.2361      4381.9121     -137166.55    
    564100   2487.3446     -7552.171       4384.7217     -137168.84    
    564200   2492.5497      674.8502       4358.1202     -137164.97    
    564300   2604.1161      17530.491      4333.152      -137159.09    
    564400   2808.4489      1355.3232      4378.6938     -137165.68    
    564500   2555.5042     -10481.653      4434.4206     -137162.67    
    564600   2535.1348     -18932.919      4435.2848     -137163.21    
    564700   2483.1424      1602.9194      4354.3666     -137161.34    
    564800   2614.0052      10167.481      4295.4192     -137160.22    
    564900   2602.8947      21226.733      4306.3724     -137157.07    
    565000   2447.6228     -5327.4343      4414.8649     -137162.27    
    565100   2300.952      -6780.4908      4524.8929     -137159.97    
    565200   2510.9598     -5595.5765      4581.2781     -137158.95    
    565300   2490.7351     -13140.019      4566.1131     -137157.5     
    565400   2599.6389     -721.31101      4473.6158     -137160.67    
    565500   2405.9841      10419.459      4363.2741     -137157.68    
    565600   2278.4193      6233.5868      4288.9696     -137162.5     
    565700   2511.3028      8115.213       4257.2761     -137172.47    
    565800   2394.1814      6849.7479      4275.5489     -137169.75    
    565900   2547.5485     -5130.9803      4327.0245     -137166.62    
    566000   2512.1936     -999.11489      4379.8534     -137158.2     
    566100   2610.5263      3904.1652      4420.8211     -137162.24    
    566200   2492.5717     -3818.5317      4454.9931     -137165.82    
    566300   2277.7837     -5554.8523      4447.3932     -137160.54    
    566400   2437.3708      1499.6961      4401.9742     -137161.38    
    566500   2712.7188     -1647.839       4387.647      -137165.8     
    566600   2589.5207     -5891.9093      4402.2167     -137163.97    
    566700   2507.3336      2595.2481      4402.5671     -137166.57    
    566800   2486.2548     -1675.3443      4393.6844     -137168.05    
    566900   2443.9914      4859.0512      4402.5461     -137164.95    
    567000   2654.531       1278.1891      4446.8491     -137155.62    
    567100   2546.5474     -5579.4142      4506.3981     -137153.28    
    567200   2455.2677     -10624.526      4541.1557     -137156.2     
    567300   2369.3416     -1247.1374      4490.697      -137158.8     
    567400   2410.0247      1886.0789      4410.9158     -137161.89    
    567500   2624.5044      4390.1532      4333.5765     -137165.06    
    567600   2645.082       14244.785      4293.0792     -137161.14    
    567700   2480.4991      6201.4211      4328.41       -137164.76    
    567800   2258.2957     -10505.019      4395.0113     -137162.66    
    567900   2452.6053     -4826.3889      4409.4122     -137162.36    
    568000   2608.8937      1922.7117      4389.4173     -137162.28    
    568100   2675.7205     -1339.6841      4377.1239     -137165.68    
    568200   2483.2396     -11841.349      4360.2306     -137166.1     
    568300   2359.2499      3564.7266      4324.3266     -137162.27    
    568400   2576.0583      5155.6514      4325.6174     -137165.23    
    568500   2435.3856      5950.0824      4373.085      -137161.46    
    568600   2461.9565     -5807.6154      4447.0198     -137161.72    
    568700   2398.33       -4111.2038      4495.5771     -137155.2     
    568800   2681.6193      3292.8361      4496.5177     -137155.86    
    568900   2415.5168      283.19966      4491.7443     -137156.13    
    569000   2581.0075     -4013.5466      4477.18       -137163.93    
    569100   2603.2129     -4692.5353      4435.7505     -137164.71    
    569200   2377.4673      16842.121      4387.8017     -137159.77    
    569300   2295.2774      120.31883      4400.7587     -137163.98    
    569400   2072.613       455.23467      4390.605      -137162.31    
    569500   2683.5929      10559.977      4347.8376     -137169.16    
    569600   2506.0852      2424.4428      4362.7253     -137161.83    
    569700   2432.9582     -3668.7337      4408.5966     -137159.99    
    569800   2422.5885      5034.4417      4443.6687     -137158.37    
    569900   2679.2086     -5228.4494      4485.1948     -137159.07    
    570000   2822.2752     -6803.3612      4523.2624     -137158.91    
    570100   2394.7107     -8908.5296      4524.3342     -137155.61    
    570200   2321.9072      9530.3581      4457.5169     -137157.38    
    570300   2472.11        5784.2314      4408.3784     -137162.2     
    570400   2534.1484     -4324.1424      4401.2882     -137163.51    
    570500   2543.1079      411.00521      4385.2988     -137159.97    
    570600   2581.2069      8244.9735      4371.0576     -137154.48    
    570700   2522.9955      5473.6349      4397.2147     -137157.48    
    570800   2428.4072     -5751.5214      4448.4755     -137162.18    
    570900   2461.8288     -1191.3775      4457.122      -137163.86    
    571000   2482.5809     -5520.1734      4439.8963     -137163.54    
    571100   2498.0666      6908.5054      4397.5816     -137159.32    
    571200   2959.0466      4372.4778      4376.5103     -137161.66    
    571300   2751.8378      3810.5604      4417.0188     -137163.7     
    571400   2518.6577     -15264.464      4496.673      -137161.68    
    571500   2557.3367     -6778.7106      4491.8371     -137162.8     
    571600   2475.6636     -494.86535      4447.4579     -137161.24    
    571700   2606.5162      4870.0017      4397.4307     -137162.11    
    571800   2503.647       7367.1464      4371.9421     -137162.42    
    571900   2277.4167     -2809.3453      4403.1224     -137161.43    
    572000   2430.6865     -9944.9888      4418.684      -137160.33    
    572100   2647.508       10441.103      4380.5712     -137158.76    
    572200   2521.6996      2946.787       4383.4661     -137156.78    
    572300   2615.2957     -15159.861      4400.7188     -137162.99    
    572400   2412.0452      2249.3977      4354.4802     -137162.55    
    572500   2310.4372      11506.694      4305.2441     -137162.97    
    572600   2290.7758      4030.5731      4301.2141     -137165.13    
    572700   2488.6549      1982.1476      4329.2573     -137166.15    
    572800   2718.6404     -7964.4216      4385.8438     -137165.09    
    572900   2621.7199     -4309.6161      4443.9842     -137160.51    
    573000   2255.1244     -6473.8829      4493.0379     -137154.37    
    573100   2431.4685     -16785.468      4481.1606     -137163.17    
    573200   2572.5574     -2047.9109      4399.0764     -137161.51    
    573300   2767.3558      9260.2669      4306.3944     -137162.34    
    573400   2464.7724      11146.032      4275.378      -137162.96    
    573500   2563.354      -3884.4175      4311.1703     -137168.19    
    573600   2447.7559      3789.0263      4355.3034     -137164.48    
    573700   2415.3293      706.18047      4415.9708     -137159.83    
    573800   2706.7239     -5234.9793      4463.8559     -137159.34    
    573900   2718.8901     -13493.655      4475.3913     -137160.27    
    574000   2416.3772      2952.1841      4419.5833     -137161.86    
    574100   2465.5545      1147.4623      4367.4077     -137162.36    
    574200   2651.4707      8986.5949      4339.9712     -137164.94    
    574300   2308.3214      4596.2388      4364.858      -137160.25    
    574400   2414.7267     -14080.656      4395.863      -137163.4     
    574500   2678.9588      5864.8736      4350.0778     -137161.05    
    574600   2618.6746      13605.439      4306.6941     -137160.63    
    574700   2445.333       8020.7881      4335.0949     -137161.81    
    574800   2460.1664     -11015.97       4406.4007     -137164.62    
    574900   2460.2653     -9301.7978      4436.3178     -137165.41    
    575000   2711.3031     -792.59258      4446.0965     -137165.33    
    575100   2662.5685     -474.12048      4490.6402     -137157.87    
    575200   2518.8655     -15509.165      4528.1957     -137157.31    
    575300   2525.4844     -4874.3698      4464.2634     -137161.68    
    575400   2466.7707      13237.837      4360.0385     -137160.91    
    575500   2529.9662      11330.5        4315.8452     -137162.71    
    575600   2661.2424     -2786.0507      4333.3353     -137168.87    
    575700   2402.3076     -4269.6897      4365.5285     -137168.64    
    575800   2270.2216      1279.0915      4371.5548     -137167.88    
    575900   2530.155       377.33473      4383.8922     -137164.99    
    576000   2568.9178      5985.769       4411.2205     -137160.9     
    576100   2496.8301     -10698.957      4462.2986     -137160.13    
    576200   2365.6401     -10526.937      4464.1233     -137160.65    
    576300   2567.3404     -2025.227       4401.5831     -137166.28    
    576400   2574.3065      3980.4138      4328.7029     -137162.17    
    576500   2891.5914      6115.3981      4285.5304     -137166.01    
    576600   2486.953       8387.6342      4296.8575     -137164.31    
    576700   2265.7085      352.30578      4361.3157     -137162.74    
    576800   2404.8366     -13921.385      4423.1438     -137160.52    
    576900   2628.2762     -3788.9732      4408.5637     -137160.77    
    577000   2729.9102     -199.21656      4383.5462     -137164.33    
    577100   2509.3054     -3610.908       4382.6261     -137165.14    
    577200   2452.2795     -6474.7625      4374.3542     -137166.1     
    577300   2448.443       3571.515       4359.8574     -137164.45    
    577400   2536.3875      7882.2514      4377.5254     -137166.68    
    577500   2462.9962     -1153.9858      4433.1613     -137165.17    
    577600   2543.5361     -4157.2014      4484.8934     -137162.48    
    577700   2721.4882      7418.9391      4532.3825     -137157.74    
    577800   2684.558      -17536.802      4627.1614     -137157.75    
    577900   2499.2342     -10052.219      4616.9671     -137156.69    
    578000   2572.6744     -1193.7369      4509.3984     -137161.14    
    578100   2570.4301      6868.9436      4396.4923     -137163.1     
    578200   2561.9951      1774.1681      4319.0118     -137165.52    
    578300   2570.2872      6578.9111      4250.0313     -137169.81    
    578400   2475.064      -3272.065       4224.4455     -137175.37    
    578500   2388.8498      3986.3435      4236.9799     -137170.9     
    578600   2613.1297     -1845.2499      4271.014      -137168.78    
    578700   2530.5628      5652.9679      4319.9921     -137164.88    
    578800   2433.6143     -7480.2923      4426.3236     -137165.15    
    578900   2359.7994     -10971.447      4516.0864     -137159.97    
    579000   2753.4389     -10147.998      4545.0906     -137159.8     
    579100   2684.1194     -3845.7399      4521.0755     -137161.04    
    579200   2501.4845      1167.4934      4458.424      -137163       
    579300   2427.0966      6917.1326      4389.1042     -137162.16    
    579400   2465.6511      6283.194       4361.8973     -137164.1     
    579500   2466.6767     -5591.3856      4384.5127     -137171.22    
    579600   2110.8635     -9607.1675      4397.9418     -137164.75    
    579700   2397.0086      4617.5203      4365.623      -137164.08    
    579800   2565.8152     -4267.6978      4342.9901     -137165.58    
    579900   2426.3673      7602.1838      4307.5128     -137161.89    
    580000   2472.0398      8246.4606      4289.408      -137165.37    
    580100   2299.0357     -2974.2204      4307.2363     -137168.1     
    580200   2147.2676      2621.2734      4319.2884     -137165.97    
    580300   2283.536       4213.2848      4316.6764     -137159.98    
    580400   2579.8616      4636.0778      4300.2841     -137165.37    
    580500   2520.5236      8300.9116      4310.2928     -137167.33    
    580600   2229.5456     -3132.8464      4366.3273     -137161.87    
    580700   2452.799       410.90825      4423.4243     -137161.56    
    580800   2540.3857     -5324.4096      4500.1937     -137156.99    
    580900   2611.323      -9469.9093      4562.8509     -137157.97    
    581000   2454.5191     -3953.6886      4584.3883     -137154       
    581100   2651.5044     -6108.4971      4558.7079     -137157.21    
    581200   2579.0078     -2052.4622      4497.8738     -137154.78    
    581300   2454.9398     -526.19996      4404.0117     -137159.47    
    581400   2459.178       15607.416      4321.6413     -137163.86    
    581500   2323.2635      4980.0858      4348.5844     -137161.23    
    581600   2388.3682      4257.8468      4397.0753     -137157.22    
    581700   2642.3947      1902.3036      4429.677      -137155.95    
    581800   2721.1516     -1902.957       4479.4046     -137161.33    
    581900   2341.2842     -3168.8755      4532.5655     -137157.23    
    582000   2374.2752     -9108.1413      4532.1582     -137158.97    
    582100   2625.593      -6909.6233      4467.5097     -137163.53    
    582200   2541.1824     -189.38153      4390.7658     -137156.55    
    582300   2983.6456      9173.4745      4304.1581     -137160.77    
    582400   2518.5952      16243.771      4293.8649     -137158.97    
    582500   2515.4055      618.15262      4375.7696     -137165.55    
    582600   2462.918      -11545.14       4464.3026     -137167.12    
    582700   2408.9027     -14255.777      4478.4005     -137163.99    
    582800   2632.0473     -8492.6544      4392.7903     -137163.51    
    582900   2753.9118      14290.986      4280.892      -137167.3     
    583000   2407.7409      4285.7948      4263.7583     -137165.8     
    583100   2500.6917     -1560.0168      4288.6661     -137168.01    
    583200   2583.963       2668.3338      4323.9594     -137167.87    
    583300   2467.5735     -6561.5708      4381.4847     -137163.01    
    583400   2559.7791     -5819.6043      4422.2178     -137158.75    
    583500   2752.0618      1915.9442      4423.4968     -137159.22    
    583600   2531.1834     -3173.6121      4419.2167     -137161.34    
    583700   2448.534       5837.1777      4415.2703     -137162.32    
    583800   2551.1735     -2573.1049      4445.5814     -137166.11    
    583900   2503.5396      63.199264      4468.7119     -137162.61    
    584000   2632.6123      4904.604       4472.1885     -137158.56    
    584100   2629.6805     -10496.732      4501.6494     -137154.53    
    584200   2489.5357      6607.7196      4504.5061     -137155.13    
    584300   2388.378      -1334.9876      4503.0603     -137156.84    
    584400   2442.6466     -8334.5581      4458.3629     -137158.87    
    584500   2633.0113      13071.54       4362.5182     -137165.34    
    584600   2494.0625      16866.935      4339.8602     -137167       
    584700   2236.3704     -8097.6513      4412.248      -137164.69    
    584800   2327.1433     -7701.7434      4444.0596     -137160.6     
    584900   2497.7858     -2014.0833      4428.244      -137160.79    
    585000   2556.7282     -850.71737      4396.9938     -137161.38    
    585100   2602.8013      4010.9201      4345.5287     -137163.35    
    585200   2401.5477      3885.7355      4332.0748     -137165.74    
    585300   2246.0251      5206.1745      4336.9485     -137164.15    
    585400   2427.2977      5561.2533      4360.2107     -137164.44    
    585500   2328.2186      338.79727      4422.6405     -137158.88    
    585600   2746.4643     -9023.3978      4462.4048     -137168.21    
    585700   2515.3518     -6286.2713      4464.4374     -137162.62    
    585800   2351.1353      8375.2499      4405.4178     -137164.11    
    585900   2282.1682     -12080.71       4360.9174     -137168.05    
    586000   2504.4582      293.76605      4279.0037     -137169.5     
    586100   2579.0334      32699.765      4198.7955     -137164.75    
    586200   2429.4364      8417.8122      4279.5235     -137163.76    
    586300   2491.6681     -20163.294      4429.0832     -137165.12    
    586400   2711.4404     -6298.5569      4503.004      -137163.09    
    586500   2787.2444     -9693.7458      4544.4657     -137161.7     
    586600   2387.4166     -5960.8842      4543.9101     -137155.69    
    586700   2420.0015     -7177.8264      4501.6802     -137163.14    
    586800   2175.85       -15914.201      4403.7367     -137165.5     
    586900   2471.7824      15599.443      4239.7597     -137167.52    
    587000   2563.5606      20662.492      4173.2891     -137165.3     
    587100   2511.2626      15437.439      4238.3649     -137166.88    
    587200   2326.0062     -7895.9119      4378.0067     -137166.26    
    587300   2492.5678     -11211.7        4455.6901     -137163.49    
    587400   2600.5512     -1334.7221      4427.1049     -137157.85    
    587500   2661.5282     -817.7244       4382.6888     -137161.69    
    587600   2344.8819      10380.384      4373.0901     -137160.59    
    587700   2441.4502     -12608.449      4410.5816     -137163.09    
    587800   2759.3723     -6785.1003      4403.4429     -137166.15    
    587900   2732.9675     -426.35451      4384.165      -137166.23    
    588000   2360.7319     -8595.6833      4365.7975     -137166.65    
    588100   2392.007       608.26421      4326.3474     -137168.09    
    588200   2483.8969      2586.0859      4307.8935     -137164.11    
    588300   2672.6807      5383.3507      4321.7663     -137163.61    
    588400   2568.5577     -918.77731      4394.745      -137162.63    
    588500   2430.4215     -11966.515      4494.1615     -137166.39    
    588600   2280.7272     -9920.6014      4539.6377     -137162.68    
    588700   2477.6014     -11856.656      4486.5678     -137162.83    
    588800   2457.1978      6080.323       4361.7657     -137161.11    
    588900   2547.8829      5208.8142      4272.4456     -137163.65    
    589000   2573.6677      9996.6633      4239.617      -137170.51    
    589100   2366.1588     -1891.1402      4288.8447     -137169.93    
    589200   2424.729      -2969.9378      4352.2384     -137167.93    
    589300   2434.5443     -3866.2504      4400.8553     -137162.89    
    589400   2424.2644     -2340.4661      4427.9533     -137161.69    
    589500   2560.8176      5842.3103      4447.7552     -137162.47    
    589600   2675.7996     -8567.7104      4489.7129     -137160.67    
    589700   2567.1689     -5250.6314      4491.9746     -137160.72    
    589800   2348.6891      2650.1033      4469.7651     -137163.46    
    589900   2316.5815      3919.7176      4470.7075     -137162.44    
    590000   2383.7519     -11562.668      4469.7084     -137161.37    
    590100   2607.9792      3889.8974      4408.7224     -137162.47    
    590200   2530.4856      16257.669      4365.483      -137160.7     
    590300   2449.4682     -3996.3803      4386.9315     -137161.56    
    590400   2494.2028      5062.1962      4389.0182     -137163.66    
    590500   2399.7526     -3476.5406      4395.1926     -137159.65    
    590600   2815.9146      4796.2297      4387.5922     -137161.06    
    590700   2696.2409      1798.167       4393.9944     -137158.17    
    590800   2639.4365     -5518.0051      4434.5189     -137161.62    
    590900   2437.3749     -7711.8511      4463.3677     -137159.38    
    591000   2413.5539      5387.4262      4432.5936     -137160.7     
    591100   2384.3192     -1267.8728      4403.1008     -137161.31    
    591200   2484.1672      3359.7845      4376.6652     -137161.52    
    591300   2682.308      -7917.7393      4350.9725     -137160.6     
    591400   2709.0223      5837.6448      4318.1255     -137162.95    
    591500   2373.8592      13916.183      4331.4407     -137162.07    
    591600   2458.5372     -665.58827      4390.0437     -137165.49    
    591700   2494.7479     -14196.11       4447.0857     -137162.54    
    591800   2667.9558     -7225.9138      4445.122      -137161.37    
    591900   2628.26       -2382.2818      4409.3488     -137160.76    
    592000   2428.692       2136.8029      4353.9434     -137167.7     
    592100   2408.8398      11208.212      4316.3283     -137168.36    
    592200   2459.9462     -2049.385       4318.1733     -137165.93    
    592300   2543.434       13716.505      4351.6512     -137161.18    
    592400   2532.9597     -16090.412      4483.0785     -137160.35    
    592500   2469.1886     -8568.0211      4571.3974     -137157.63    
    592600   2691.8872     -10242.302      4599.867      -137153.71    
    592700   2691.2176      4580.8944      4545.0123     -137150.83    
    592800   2646.1808      8475.7204      4471.6396     -137158.86    
    592900   2662.1827     -5363.5543      4415.1759     -137164.35    
    593000   2411.4078      13423.175      4355.1852     -137163.34    
    593100   2454.5849      7604.301       4360.135      -137166.33    
    593200   2327.6293     -1126.0284      4395.4106     -137161.56    
    593300   2562.051       3829.3539      4437.0798     -137158.68    
    593400   2623.886      -2568.6268      4493.7079     -137156.9     
    593500   2542.3414      4245.7497      4511.6681     -137159.01    
    593600   2537.6062     -10274.417      4516.0553     -137163.97    
    593700   2537.6611     -4312.3464      4474.7952     -137164.08    
    593800   2409.8794      3951.2622      4437.5831     -137159.32    
    593900   2569.5687     -2556.8865      4380.536      -137162.75    
    594000   2469.1091      11784.875      4297.5978     -137162.8     
    594100   2320.7636     -1339.8021      4287.7015     -137165.27    
    594200   2408.6665     -1930.8038      4302.1932     -137167.6     
    594300   2628.1117      5216.5056      4327.4212     -137166.08    
    594400   2507.3328     -11963.768      4412.7364     -137158.92    
    594500   2631.1288     -19257.73       4494.9584     -137161.38    
    594600   2632.8737      400.01634      4496.5479     -137162.29    
    594700   2430.7522     -8238.0871      4465.3509     -137158.37    
    594800   2429.3368      6435.7304      4387.6317     -137160.73    
    594900   2259.9677      5153.8116      4348.8581     -137161.83    
    595000   2278.2032     -5840.4948      4339.8894     -137166.39    
    595100   2456.6699      2474.5307      4310.9793     -137166.67    
    595200   2663.5582      4872.9646      4307.9708     -137163.83    
    595300   2453.924       5887.3316      4353.3622     -137158.8     
    595400   2395.8121     -9552.8986      4410.2047     -137162.7     
    595500   2283.0827     -8507.6355      4390.0244     -137163.3     
    595600   2585.1124      12175.65       4306.6098     -137163.58    
    595700   2776.9326      18686.309      4276.3245     -137163.29    
    595800   2481.2836      3518.1924      4350.1469     -137162.56    
    595900   2461.7092     -4268.9647      4478.4512     -137164.59    
    596000   2381.1465     -15517.479      4588.3547     -137157.08    
    596100   2650.1901     -13173.287      4583.8455     -137157.12    
    596200   2623.2175     -1818.6942      4491.358      -137159.06    
    596300   2595.9228     -493.67435      4390.9974     -137164.18    
    596400   2237.693       9253.9449      4311.5712     -137159.85    
    596500   2518.2508      379.10542      4294.5102     -137167.24    
    596600   2404.8247      7338.5621      4311.8957     -137163.41    
    596700   2499.2918     -5849.8985      4364.3396     -137160.08    
    596800   2747.0562      9618.7419      4405.2785     -137160.12    
    596900   2538.1607     -3486.6724      4488.3632     -137161.17    
    597000   2316.3846      10.759241      4567.4849     -137161.11    
    597100   2406.2601     -9562.7011      4622.243      -137159.89    
    597200   2519.0628     -10074.753      4608.6179     -137156.75    
    597300   2679.5408     -4328.9639      4536.312      -137161.25    
    597400   2558.1751     -6999.1344      4459.9606     -137160.99    
    597500   2461.1751     -751.66245      4393.5878     -137163.76    
    597600   2222.6425     -1651.9077      4354.8653     -137164.65    
    597700   2585.184       296.81304      4325.7358     -137170.7     
    597800   2800.9037      5076.8126      4333.9333     -137167.14    
    597900   2465.9659      4374.8519      4364.2826     -137164.53    
    598000   2229.1595     -1428.7921      4396.607      -137161       
    598100   2491.3157     -5688.3387      4430.1122     -137160.84    
    598200   2704.7145     -4032.935       4435.2352     -137164.44    
    598300   2532.3656     -1079.444       4439.9195     -137162.41    
    598400   2396.2065     -13912.681      4450.292      -137162.17    
    598500   2478.4108      6649.7307      4398.0621     -137162.55    
    598600   2601.0742      10912.02       4364.8361     -137160.82    
    598700   2439.0546     -2273.2688      4393.3436     -137161.44    
    598800   2427.2464     -8818.7116      4412.5886     -137166.43    
    598900   2422.921       4400.279       4388.7806     -137165.17    
    599000   2736.7376      2422.4366      4371.1506     -137165.32    
    599100   2726.3125      5264.4772      4374.6006     -137161.19    
    599200   2339.9759     -10848.314      4404.1785     -137159.55    
    599300   2379.9452     -4301.018       4377.0838     -137164.57    
    599400   2614.2281      4316.2673      4326.14       -137169.55    
    599500   2534.0328      3349.6619      4330.9262     -137166.21    
    599600   2684.4742     -5800.6035      4396.5773     -137167.54    
    599700   2706.6267     -2616.6755      4466.1318     -137162.21    
    599800   2593.1691      12478.634      4529.1014     -137154.18    
    599900   2462.5024     -13604.497      4602.1212     -137156.58    
    600000   2452.0807     -14242.794      4589.0793     -137162.05    
    600100   2430.2155      1148.4327      4478.9294     -137162.41    
    600200   2666.6003      9523.5293      4371.6431     -137159.8     
    600300   2829.394       1977.9475      4325.8723     -137159.31    
    600400   2682.1304      2870.9797      4336.2618     -137163.75    
    600500   2307.4285      8213.285       4392.892      -137158.26    
    600600   2562.5031     -4575.518       4480.2639     -137165.65    
    600700   2284.3355     -1223.5383      4526.5968     -137160.45    
    600800   2480.7226     -5220.9876      4525.4647     -137163.94    
    600900   2590.1436      11381.782      4489.1569     -137159.01    
    601000   2655.7428      1168.3177      4501.2506     -137158.67    
    601100   2417.7839     -7289.1226      4520.2487     -137157.13    
    601200   2418.8068     -2828.3478      4500.1427     -137163.75    
    601300   2166.3658     -2646.4671      4469.0284     -137163.56    
    601400   2417.3519     -4767.018       4421.5581     -137165.43    
    601500   2648.1421      6897.0326      4356.6145     -137163.21    
    601600   2645.4662     -8848.1098      4334.7225     -137164.37    
    601700   2557.0827     -1761.5535      4327.2702     -137167.04    
    601800   2415.06        3669.1396      4348.1962     -137167.47    
    601900   2264.2372     -1662.8394      4373.1654     -137163.18    
    602000   2618.5447      5901.1724      4373.2962     -137162.09    
    602100   2532.292       4790.0296      4370.2457     -137160.89    
    602200   2405.1875     -1350.8582      4357.3284     -137162.85    
    602300   2357.2784     -308.96032      4320.4059     -137163.64    
    602400   2652.3544      11188.047      4291.0483     -137165.08    
    602500   2765.3133      15955.442      4337.3526     -137159.11    
    602600   2481.7518     -5186.7833      4479.3957     -137157.4     
    602700   2360.3791     -6010.536       4594.5107     -137155.1     
    602800   2438.5225     -16993.34       4620.0659     -137153.87    
    602900   2748.8068      6630.3378      4531.4331     -137156.33    
    603000   2562.8098      7466.8421      4456.3094     -137152.22    
    603100   2699.3542     -5954.0335      4405.9688     -137160.46    
    603200   2462.1972      10006.76       4383.6894     -137158.18    
    603300   2565.8647     -7965.9699      4420.8416     -137166.03    
    603400   2348.1977     -2204.8583      4421.2888     -137162.59    
    603500   2630.6648      1746.9779      4392.98       -137162.84    
    603600   2777.3128      4718.9906      4378.7812     -137159.02    
    603700   2489.5012      11969.346      4400.0714     -137156.18    
    603800   2556.2761     -6898.3659      4478.3482     -137163.38    
    603900   2303.0513     -4186.4431      4530.4812     -137157       
    604000   2526.2543     -6912.6199      4526.2484     -137159.19    
    604100   2710.3931      7199.0508      4493.6571     -137156.25    
    604200   3082.0647      6094.1959      4492.8463     -137158.12    
    604300   2562.3201     -8601.0874      4527.539      -137156.28    
    604400   2562.5101     -21551.862      4520.7996     -137161.1     
    604500   2370.807       6612.491       4433.5681     -137157.07    
    604600   2559.9566      688.29358      4354.2057     -137163.82    
    604700   2455.5642      6575.8649      4281.1767     -137163.99    
    604800   2249.9322      14264.922      4258.2485     -137162.99    
    604900   2410.3574     -1130.2839      4309.4719     -137169.71    
    605000   2527.6789      10469.253      4367.9756     -137165.41    
    605100   2561.266      -3162.3689      4447.0668     -137159.96    
    605200   2478.7714     -2695.1186      4502.7002     -137158.42    
    605300   2435.7687     -12691.378      4526.5641     -137159.02    
    605400   2450.1054     -6204.9691      4461.9867     -137162.11    
    605500   2547.6173     -708.33144      4346.4155     -137167.87    
    605600   2294.6124      9785.5567      4248.8715     -137164.41    
    605700   2485.3771      16495.572      4211.9691     -137167.28    
    605800   2704.7227      603.88825      4268.8513     -137168.34    
    605900   2536.6727     -538.50303      4342.1538     -137162.66    
    606000   2512.4         8013.2059      4396.7999     -137165.36    
    606100   2239.4576     -17122.993      4452.5436     -137163.66    
    606200   2520.033      -6701.3181      4427.1508     -137168.74    
    606300   2609.7552      3099.1203      4399.112      -137163.24    
    606400   2680.3102     -6431.9156      4385.9036     -137165.87    
    606500   2448.5909      3428.2044      4342.4466     -137163.17    
    606600   2555.1949      3788.6932      4324.1819     -137165.77    
    606700   2563.2434     -3948.6922      4342.3539     -137168.53    
    606800   2196.7017     -1649.6356      4370.7702     -137163.83    
    606900   2598.1928      1979.6905      4379.4255     -137168.48    
    607000   2685.8519     -8925.1827      4384.7064     -137164.93    
    607100   2595.8112     -5622.1174      4371.7771     -137163.93    
    607200   2448.3957      6170.1249      4363.2098     -137164.15    
    607300   2279.8558     -6798.5573      4387.2477     -137167.95    
    607400   2052.1497     -2282.344       4377.8231     -137165.55    
    607500   2284.8107      515.12849      4346.7689     -137162.38    
    607600   2514.6649      10371.666      4310.5444     -137163.62    
    607700   2530.7106      13689.775      4330.2043     -137160.27    
    607800   2619.6555     -9887.5302      4422.5209     -137164.96    
    607900   2349.2654     -3299.8849      4480.0458     -137162.12    
    608000   2380.3751     -2461.0112      4484.9948     -137162.21    
    608100   2635.8521      100.66847      4454.7855     -137159.69    
    608200   2732.203       6798.6599      4422.0003     -137161.97    
    608300   2557.3583      1591.19        4411.9449     -137164.58    
    608400   2381.0885      1.9538557      4408.5726     -137162.24    
    608500   2620.4264     -1977.5779      4396.8809     -137167.75    
    608600   2533.8482      11.702381      4371.7923     -137162.55    
    608700   2823.06        5790.6515      4349.9575     -137162.68    
    608800   2555.4289      13667.958      4370.8652     -137159.02    
    608900   2411.4846     -4296.9927      4442.3416     -137164.18    
    609000   2274.0992     -8602.0689      4508.7818     -137158.59    
    609100   2690.0094     -7768.7746      4510.2365     -137163.5     
    609200   2612.3459      1072.8451      4463.788      -137163.77    
    609300   2385.2702     -13999.483      4419.8056     -137162.39    
    609400   2588.1564      4041.7328      4323.2678     -137165.75    
    609500   2519.5488      12333.465      4265.5385     -137163.89    
    609600   2390.5632      9803.9521      4287.0232     -137161.75    
    609700   2522.6219     -9233.1372      4371.2376     -137163.68    
    609800   2692.3221      8501.3519      4440.6413     -137159.85    
    609900   2646.4327     -5168.7463      4536.5196     -137153.79    
    610000   2540.9842     -13463.039      4590.6303     -137159.17    
    610100   2370.4396     -7036.4301      4545.78       -137160.51    
    610200   2315.3312      5787.8826      4414.8867     -137157.98    
    610300   2628.1032      12956.424      4290.5512     -137161.52    
    610400   2610.8608      10896.391      4248.0559     -137160.91    
    610500   2432.8618     -1281.3581      4299.9949     -137168.26    
    610600   2366.229      -2869.535       4385.6449     -137165.86    
    610700   2351.1054     -4324.296       4446.2335     -137157.75    
    610800   2610.5894      2061.8389      4467.4134     -137159.49    
    610900   2481.9825     -4099.1407      4482.2354     -137157.53    
    611000   2510.9622      994.76512      4466.7535     -137161.65    
    611100   2393.1049     -7744.6594      4433.3944     -137164.84    
    611200   2308.0348      1478.7494      4376.109      -137167.26    
    611300   2458.8178      5977.3607      4338.9359     -137164.97    
    611400   2711.4221      8371.2458      4357.7932     -137166.38    
    611500   2440.2289     -5026.0106      4427.2808     -137161.51    
    611600   2516.8452     -5967.7143      4442.8158     -137162.26    
    611700   2513.6622      1113.8848      4410.8743     -137159.22    
    611800   2490.6614      10470.595      4388.5163     -137160.8     
    611900   2449.3022      2172.1335      4396.0504     -137164.94    
    612000   2371.1469      7529.1122      4411.2766     -137164.59    
    612100   2550.696      -15956.312      4441.187      -137162.75    
    612200   2735.7599      394.18117      4396.3752     -137163.56    
    612300   2622.4725     -778.61678      4361.4097     -137163.62    
    612400   2477.8969     -1582.9075      4342.9572     -137164.07    
    612500   2430.4062     -1358.3704      4336.2997     -137163.18    
    612600   2603.7184     -2207.4924      4336.7326     -137165.55    
    612700   2550.2893      15886.059      4364.6166     -137162.13    
    612800   2472.7621      284.97667      4466.436      -137157.43    
    612900   2516.7986     -8261.3846      4546.5237     -137150.63    
    613000   2731.1683     -11069.248      4566.1526     -137153.13    
    613100   2407.2133     -9954.9321      4513.6104     -137153.22    
    613200   2527.8187     -2625.6032      4396.3087     -137163.59    
    613300   2478.5259      4561.5633      4297.214      -137162.8     
    613400   2671.8452      12151.888      4270.1139     -137165.25    
    613500   2544.2509      12899.995      4329.0392     -137160.77    
    613600   2521.1846     -8160.4691      4435.2611     -137163.29    
    613700   2313.2643     -4015.2562      4494.4888     -137161.33    
    613800   2542.3979     -31.933178      4504.889      -137161.79    
    613900   2439.4808      935.56367      4509.3874     -137152.44    
    614000   2667.7398     -6658.2165      4505.3444     -137160.05    
    614100   2380.1855     -8510.041       4459.4752     -137156.39    
    614200   2639.1658      10014.55       4362.0352     -137163.75    
    614300   2536.2604      16553.063      4322.8509     -137162.62    
    614400   2535.9509      3983.1399      4367.4907     -137164.36    
    614500   2577.6997     -1861.465       4431.9974     -137166.51    
    614600   2217.4698      2692.528       4466.4552     -137158.68    
    614700   2461.2885     -8658.9387      4472.4206     -137156.17    
    614800   2809.9452     -1391.2392      4436.4479     -137159.77    
    614900   2614.3623     -2541.6971      4394.3533     -137161.67    
    615000   2401.2276     -10376.387      4335.943      -137162.48    
    615100   2569.1903      16148.494      4245.7188     -137166.89    
    615200   2435.3849      18814.342      4232.3641     -137163.27    
    615300   2450.1639     -1769.9602      4309.9775     -137162.84    
    615400   2550.2705     -3335.4695      4389.9782     -137163.25    
    615500   2635.878      -11385.42       4453.2935     -137162.52    
    615600   2451.9477     -9654.4178      4480.4253     -137158       
    615700   2492.6414     -7106.4235      4437.6439     -137161.87    
    615800   2544.9775      1292.4088      4346.1102     -137169.93    
    615900   2390.7394      195.50914      4276.6054     -137169.6     
    616000   2473.1638      2168.5531      4228.8606     -137168.78    
    616100   2802.0412      15457.039      4225.9755     -137167.67    
    616200   2582.6154      13385.499      4319.7469     -137164.91    
    616300   2333.7998     -4851.1705      4458.093      -137159.71    
    616400   2450.4032     -11082.333      4524.9076     -137158.91    
    616500   2629.4181      1999.9709      4529.4627     -137161.16    
    616600   2539.3225     -14404.66       4535.798      -137160.79    
    616700   2483.2929     -4480.2079      4460.9605     -137162.93    
    616800   2231.257       6578.4161      4351.0634     -137164.94    
    616900   2235.3876      5519.3703      4271.3214     -137165.19    
    617000   2575.6267      7190.9177      4239.5681     -137165.38    
    617100   2466.9551      5444.6513      4283.8339     -137161.67    
    617200   2328.1479      1525.5569      4381.8311     -137161.45    
    617300   2257.3474     -6553.8896      4463.6364     -137161.1     
    617400   2664.4696     -1095.9055      4480.1937     -137163.96    
    617500   2633.8702      2962.521       4461.6599     -137158.81    
    617600   2486.4876     -5274.5632      4452.1576     -137158.93    
    617700   2501.4144      3880.3839      4418.852      -137161.51    
    617800   2373.9094     -4635.9052      4375.2982     -137159.58    
    617900   2494.4204     -456.68414      4308.4536     -137164.27    
    618000   2500.0744      9898.9501      4244.2565     -137166.73    
    618100   2614.8786      15867.248      4247.7306     -137170.09    
    618200   2659.7302     -1768.8374      4359.1581     -137168.65    
    618300   2757.7525     -14828.908      4484.9578     -137162.6     
    618400   2511.8745     -9582.6603      4530.2538     -137155.89    
    618500   2427.3212     -10153.57       4476.6901     -137161.05    
    618600   2451.7793     -5591.6041      4348.1707     -137167.12    
    618700   2427.6813      19609.862      4237.1205     -137165.42    
    618800   2521.084       6726.4139      4224.5127     -137165.82    
    618900   2596.7078      3373.1394      4257.5128     -137167.05    
    619000   2484.9922      5174.701       4306.7223     -137166.02    
    619100   2422.8487      3926.4506      4396.4967     -137168.12    
    619200   2186.2001     -5210.8111      4493.1932     -137166.43    
    619300   2373.2394     -17327.063      4516.8494     -137165.23    
    619400   2476.089      -3549.7743      4438.9143     -137160.63    
    619500   2662.7744      1443.14        4336.4108     -137163.01    
    619600   2598.1948     -3629.7481      4270.7246     -137164.91    
    619700   2495.6293      21883.82       4239.6        -137168.6     
    619800   2351.0953     -5047.4388      4313.6792     -137168.3     
    619900   2582.9478     -4823.1348      4372.022      -137165.93    
    620000   2632.1719     -2969.9887      4401.3312     -137161.91    
    620100   2511.4189     -1122.6233      4401.9977     -137163.35    
    620200   2406.5166     -4111.8176      4374.0591     -137165.15    
    620300   2388.1157      3861.1847      4330.7458     -137164.29    
    620400   2673.898      -5149.3932      4312.795      -137163.13    
    620500   2868.8639      2751.7813      4316.7483     -137167.08    
    620600   2485.1218     -7196.4281      4351.5438     -137162.39    
    620700   2427.5273      4945.2792      4361.1689     -137161.79    
    620800   2534.3584     -10062.029      4365.0171     -137163.98    
    620900   2703.9112     -837.42869      4329.2059     -137161.89    
    621000   2752.143       6259.0455      4313.5696     -137159.8     
    621100   2447.6839      2932.6365      4335.365      -137162.87    
    621200   2380.1277     -1644.728       4361.0593     -137163.96    
    621300   2436.843       2230.8877      4369.5111     -137164.26    
    621400   2558.9087     -4397.3068      4366.3305     -137166.45    
    621500   2602.712      -1778.192       4368.8521     -137162.75    
    621600   2855.7496     -934.59097      4380.0244     -137165.24    
    621700   2392.7028     -5376.73        4404.2006     -137160.56    
    621800   2273.4739      5065.0878      4397.0663     -137161.14    
    621900   2545.0617      8418.2174      4391.6878     -137166.34    
    622000   2397.3535     -1727.113       4427.107      -137161.02    
    622100   2602.0928     -4246.0937      4448.4406     -137159.7     
    622200   2719.8946      3267.3976      4450.198      -137154.93    
    622300   2520.1627      8003.754       4446.9697     -137156.13    
    622400   2502.314       6430.4475      4470.7361     -137158.29    
    622500   2356.7987     -4229.1313      4505.1049     -137157.45    
    622600   2387.8704     -7140.9623      4494.1929     -137161.1     
    622700   2424.6741     -2771.7413      4433.457      -137166.11    
    622800   2401.3701      15116.302      4341.2763     -137167.22    
    622900   2433.0734     -1166.1974      4308.8483     -137167.25    
    623000   2553.9688      3523.9239      4301.6905     -137163.75    
    623100   2640.5566      11251.127      4322.5741     -137163.22    
    623200   2470.7482     -5534.9009      4400.0145     -137163.15    
    623300   2327.9936     -14672.377      4455.4995     -137165.74    
    623400   2203.6275      5868.614       4437.847      -137158.28    
    623500   2764.9749     -7425.3555      4416.2453     -137166.53    
    623600   2710.2916      7053.4755      4380.0789     -137167.51    
    623700   2280.5121     -1835.7922      4383.4161     -137162.44    
    623800   2353.2779     -37.729902      4396.6612     -137164.06    
    623900   2541.1529     -6896.6812      4399.2566     -137161.33    
    624000   2492.4174      2565.7393      4360.5518     -137157.35    
    624100   2684.0692      6562.469       4327.9149     -137164.81    
    624200   2460.7677      10286.621      4349.2193     -137164.37    
    624300   2337.1176     -8493.9702      4446.7859     -137160.78    
    624400   2595.7903     -9985.4478      4494.1649     -137161.77    
    624500   2520.1899     -11226.289      4484.6874     -137158.48    
    624600   2530.6024     -4105.0787      4449.3756     -137160.57    
    624700   2463.9036      4883.6191      4398.1694     -137162.23    
    624800   2554.2526     -6281.426       4378.1347     -137165.53    
    624900   2482.9484      5409.3136      4358.0601     -137164.34    
    625000   2561.479      -5212.591       4360.4753     -137165.34    
    625100   2458.6848      8697.041       4344.941      -137161.93    
    625200   2405.3328      4655.0762      4364.566      -137160.46    
    625300   2584.2244     -6236.5843      4409.5297     -137163.04    
    625400   2542.5254     -4258.31        4423.9739     -137155.79    
    625500   2728.3129     -66.521265      4388.6421     -137161.76    
    625600   2419.7871     -4139.8937      4358.9425     -137160.83    
    625700   2489.9838      9401.5116      4311.3606     -137165.2     
    625800   2640.9613      1092.318       4314.7716     -137169.52    
    625900   2464.4583     -1305.3367      4364.6639     -137161.96    
    626000   2600.5511     -1919.1535      4428.9649     -137157.64    
    626100   2640.9019      650.53778      4492.6397     -137158.46    
    626200   2437.4197     -6060.6527      4555.2566     -137160.03    
    626300   2471.2629     -17601.977      4577.6815     -137161.79    
    626400   2428.0724     -81.733725      4508.8817     -137158.02    
    626500   2407.0125      6745.3628      4404.3126     -137157.09    
    626600   2606.0457      4086.3052      4316.2625     -137162.54    
    626700   2641.585       11226.723      4274.4809     -137165.03    
    626800   2392.8544     -609.25216      4309.1648     -137162.36    
    626900   2413.623       7062.7691      4356.336      -137166.05    
    627000   2372.7341     -8708.8962      4442.7387     -137163.14    
    627100   2764.6968     -15.325419      4507.3386     -137164.22    
    627200   2543.4416     -17751.409      4542.779      -137159.36    
    627300   2357.5678     -899.53079      4468.4041     -137160.53    
    627400   2537.0087      14684.311      4364.1016     -137169.29    
    627500   2326.1832      769.12551      4361.2367     -137164.9     
    627600   2524.2085     -5708.5612      4389.0723     -137160.45    
    627700   2674.2205      303.45937      4398.8749     -137158.47    
    627800   2822.5778     -4293.9249      4434.319      -137165.26    
    627900   2192.2295      4494.9773      4445.4486     -137155.26    
    628000   2574.1496     -1489.3444      4417.0657     -137168.65    
    628100   2274.264       4345.8772      4381.1299     -137164.29    
    628200   2371.8429      5478.3896      4348.7934     -137160.2     
    628300   2771.6113      6249.332       4303.4734     -137163.56    
    628400   2461.8296      14871.55       4292.5123     -137161.25    
    628500   2431.5114     -2327.8432      4364.4779     -137163.11    
    628600   2477.4846     -7674.0439      4441.2445     -137164.07    
    628700   2514.6563     -8530.3729      4478.4324     -137162.98    
    628800   2614.1754      895.84339      4452.696      -137158.88    
    628900   2737.8898      17441.051      4418.6716     -137162.58    
    629000   2407.8418     -5047.6029      4467.9788     -137162.96    
    629100   2591.2952     -13512.093      4495.7616     -137168.1     
    629200   2507.0996     -11768.937      4441.3862     -137163.96    
    629300   2714.9001     -1045.5643      4322.7399     -137167.36    
    629400   2578.3521      6897.1652      4227.2203     -137166.58    
    629500   2345.2134      17177.848      4192.245      -137167.61    
    629600   2365.1606      2348.6316      4247.5326     -137169.54    
    629700   2487.3027      4942.7152      4347.2538     -137165.03    
    629800   2486.295      -10820.775      4460.4495     -137160.01    
    629900   2619.6179     -316.64192      4508.0474     -137162.7     
    630000   2415.2007     -11403.27       4529.2894     -137158.07    
    630100   2585.4955      4094.7992      4476.8545     -137158.72    
    630200   2667.6359      9662.5991      4426.3945     -137155.45    
    630300   2684.525      -6467.5916      4420.9307     -137165.17    
    630400   2384.9336     -7073.1987      4406.4746     -137163.64    
    630500   2551.9233     -12529.319      4353.8411     -137169.42    
    630600   2542.6321      8233.0355      4270.8393     -137166.72    
    630700   2409.3798      4405.0391      4231.8065     -137162.15    
    630800   2298.806       19557.28       4235.2007     -137163.05    
    630900   2242.3667     -1540.9826      4316.4328     -137164.74    
    631000   2433.2163      637.01885      4379.417      -137163.1     
    631100   2542.0565     -5530.1789      4419.8501     -137159.47    
    631200   2679.3006      5875.3965      4435.0419     -137163.72    
    631300   2333.6927     -9738.5002      4482.2343     -137160.96    
    631400   2302.6926     -18047.171      4483.6911     -137161.27    
    631500   2530.6279     -7682.8477      4383.9613     -137165.6     
    631600   2620.6346      23451.389      4274.0812     -137166.74    
    631700   2323.4474      11721.809      4279.3421     -137161.6     
    631800   2476.0775     -6447.7534      4340.4327     -137166.51    
    631900   2499.1018     -2059.8424      4401.3917     -137160.9     
    632000   2795.4362     -12539.407      4456.1443     -137161.28    
    632100   2643.4827      424.35472      4456.4292     -137163.09    
    632200   2444.1845      2111.8972      4439.9739     -137164.39    
    632300   2425.2839     -7163.0976      4427.3405     -137165.84    
    632400   2458.6908      2820.4238      4402.7314     -137163.46    
    632500   2701.5488      3472.5105      4402.6695     -137160.9     
    632600   2600.0099      901.3037       4438.1787     -137159.39    
    632700   2654.9643      3178.911       4492.3533     -137164.81    
    632800   2323.818      -9098.5784      4531.5807     -137157.96    
    632900   2581.044      -3321.9385      4479.0332     -137163.74    
    633000   2534.443       2551.3666      4413.6226     -137162.68    
    633100   2473.8863     -2508.7015      4372.0272     -137168.41    
    633200   2351.9437      10640.503      4346.6816     -137169.66    
    633300   2370.9705     -3740.6612      4374.1294     -137165.86    
    633400   2325.64        4115.3671      4384.2457     -137157.56    
    633500   2680.6849     -2709.6562      4390.9193     -137165.69    
    633600   2426.7245      4656.1344      4396.9747     -137160.74    
    633700   2504.2057     -1913.1044      4407.747      -137163.71    
    633800   2473.1131      6045.7979      4408.378      -137163.06    
    633900   2376.828      -1663.6398      4442.5029     -137156.54    
    634000   2527.3623     -2190.9584      4485.824      -137155.52    
    634100   2617.2636      936.07777      4503.6098     -137157.77    
    634200   2420.2631     -1701.705       4494.8402     -137161.06    
    634300   2374.5703     -5155.4056      4466.5063     -137162.8     
    634400   2395.7052     -598.08203      4393.6938     -137161.81    
    634500   2751.7455      1295.7374      4320.0979     -137166.28    
    634600   2476.6949      18667.773      4292.86       -137159.56    
    634700   2413.8705      3086.2635      4347.3612     -137160.71    
    634800   2434.7718     -9224.1944      4433.2511     -137162.44    
    634900   2481.1691     -5722.3108      4450.9463     -137164.26    
    635000   2436.0121      6770.882       4405.7446     -137161.41    
    635100   2725.8448      5882.8349      4376.9778     -137164.04    
    635200   2520.8412      3936.282       4385.5058     -137158.75    
    635300   2584.7817     -4306.0036      4404.6919     -137167.49    
    635400   2336.1772      2085.6278      4405.0003     -137166.05    
    635500   2425.4567     -7304.0166      4411.7944     -137165.66    
    635600   2389.472       2068.7197      4378.986      -137159.4     
    635700   2643.6577      3430.4408      4312.4092     -137163.89    
    635800   2537.4657      12287.986      4288.2952     -137165.18    
    635900   2261.4259      573.699        4334.7119     -137161.1     
    636000   2469.3745     -2765.1825      4382.8603     -137165.77    
    636100   2614.3208     -7613.2397      4434.4768     -137161.33    
    636200   2644.4765      4947.954       4475.3854     -137156.22    
    636300   2579.2248     -7024.7891      4531.3628     -137159.29    
    636400   2563.3834     -10800.127      4529.5564     -137161.15    
    636500   2476.7734     -1725.288       4443.7891     -137161.04    
    636600   2515.7567     -5497.9297      4343.7394     -137166.65    
    636700   2321.1478      4828.1934      4250.3135     -137168.65    
    636800   2512.827       4476.8806      4182.584      -137172.07    
    636900   2536.6181      7033.4383      4174.6594     -137168.67    
    637000   2460.6322      4732.5146      4239.16       -137166.42    
    637100   2380.898       1902.5473      4344.9198     -137165.23    
    637200   2561.135      -10162.288      4435.1396     -137167.86    
    637300   2690.4796     -6113.4678      4458.5685     -137163.84    
    637400   2630.1999     -339.02643      4434.564      -137160.53    
    637500   2482.1986      1584.6343      4418.2923     -137164.15    
    637600   2431.2218     -6073.4013      4403.2333     -137168.17    
    637700   2437.1061     -3944.9316      4344.8054     -137166.84    
    637800   2499.7754      791.89026      4292.6217     -137164       
    637900   2613.5429      20456.175      4288.28       -137162.47    
    638000   2386.482       228.74537      4355.1154     -137162.56    
    638100   2295.4715     -3895.3429      4418.6844     -137164.87    
    638200   2445.4791     -2251.1692      4454.7152     -137164.57    
    638300   2686.8221     -6275.5533      4454.6129     -137165.81    
    638400   2512.2926      1430.9032      4451.2519     -137159.73    
    638500   2371.7183     -3778.161       4449.6719     -137154.06    
    638600   2770.7056      3773.4987      4405.0328     -137157.34    
    638700   2665.305       6891.1266      4374.8016     -137160.73    
    638800   2469.9026     -2180.6026      4375.7963     -137163.65    
    638900   2451.4834      4282.4712      4368.9108     -137163.35    
    639000   2593.8521     -410.10058      4385.6033     -137165.16    
    639100   2472.6694     -2903.6196      4407.5032     -137163.81    
    639200   2363.8904      1204.8312      4395.392      -137165.04    
    639300   2300.8149      6904.6373      4383.7601     -137165.23    
    639400   2557.895      -7888.4904      4416.8632     -137163.11    
    639500   2510.8615      403.08498      4449.758      -137157.83    
    639600   2450.4621     -4412.271       4478.2338     -137157.83    
    639700   2368.1782     -5562.2965      4464.3959     -137158.93    
    639800   2386.7131     -3597.2262      4406.65       -137160.23    
    639900   2709.7923      4469.1293      4330.4618     -137163.06    
    640000   2777.2558      5643.0746      4319.6457     -137162.95    
    640100   2588.0182      1330.6156      4354.211      -137168.14    
    640200   2334.6026     -575.99816      4386.8615     -137164.7     
    640300   2442.9849     -8872.9994      4398.8709     -137164.79    
    640400   2614.8281     -4069.145       4355.5761     -137162.04    
    640500   2535.7004      13056.673      4290.2301     -137159.09    
    640600   2548.7191      8255.1574      4305.9595     -137163.84    
    640700   2472.8226     -6432.6766      4383.6998     -137164.15    
    640800   2420.8595     -2161.682       4440.4762     -137159.59    
    640900   2652.3529     -7661.0566      4455.3526     -137163.72    
    641000   2441.1342     -7018.7152      4420.6215     -137160.43    
    641100   2437.276       5605.0517      4346.1112     -137168.5     
    641200   2161.9043     -5576.9653      4279.7751     -137168.54    
    641300   2451.1863      13730.306      4196.9792     -137168.75    
    641400   2441.8734      14581.683      4192.515      -137162.75    
    641500   2610.6202     -2861.7102      4286.2801     -137165.81    
    641600   2468.3493     -3712.5717      4419.4834     -137167.56    
    641700   1976.9519     -9475.3465      4529.0986     -137157.39    
    641800   2414.4189     -11226.116      4535.1003     -137159.01    
    641900   2571.6027     -1933.0394      4459.3042     -137159.01    
    642000   2623.5035     -1797.9957      4375.9648     -137160.53    
    642100   2565.5686      10732.119      4332.5405     -137166.2     
    642200   2384.3565     -3503.3161      4353.4211     -137165.66    
    642300   2446.231       2047.0574      4366.0692     -137166.87    
    642400   2807.471      -9077.8649      4393.0297     -137167.84    
    642500   2676.6765      10762.945      4416.0196     -137160.63    
    642600   2569.118       145.12043      4476.0967     -137160       
    642700   2562.0561     -10929.275      4520.2063     -137162.22    
    642800   2495.4418     -10601.797      4500.6198     -137162.55    
    642900   2539.9621      7950.0158      4420.8535     -137163.91    
    643000   2467.7679      4497.7272      4358.0068     -137163.39    
    643100   2504.6078      4909.1491      4324.5362     -137164.87    
    643200   2471.2008      5182.2445      4326.5253     -137162.54    
    643300   2520.5978     -572.75247      4357.2289     -137162.07    
    643400   2516.4933     -5947.4144      4385.9279     -137162.85    
    643500   2365.3213     -2309.8247      4370.5628     -137164.71    
    643600   2428.7418      2287.6202      4326.4938     -137170.65    
    643700   2267.8291      7133.1147      4285.9178     -137162.31    
    643800   2599.8238      6083.8468      4267.6508     -137161.81    
    643900   2820.119       4.371353       4300.3484     -137169.68    
    644000   2366.1984      5741.7645      4380.8028     -137163.56    
    644100   2423.2531     -16295.18       4499.466      -137163.02    
    644200   2459.9795     -14402.534      4561.8022     -137156.13    
    644300   2581.3325     -3205.9102      4534.9556     -137155.83    
    644400   2661.8104     -10421.616      4463.1822     -137160.47    
    644500   2429.0755      1194.5431      4347.3308     -137161.43    
    644600   2389.8017      14161.964      4252.1461     -137162.71    
    644700   2277.5729      11518.125      4219.3298     -137162.42    
    644800   2425.429      -1824.966       4250.3918     -137166.78    
    644900   2511.5529      7360.764       4306.8856     -137166.37    
    645000   2451.9959     -5006.6103      4419.9847     -137158.99    
    645100   2620.5074     -8995.7726      4521.5176     -137158.05    
    645200   2533.7454     -9762.2343      4579.1789     -137154.39    
    645300   2363.4489     -9790.3516      4588.4645     -137156.22    
    645400   2360.2621     -5209.7558      4527.6399     -137162.09    
    645500   2394.1302      6087.1495      4429.5765     -137162.51    
    645600   2732.5992      5290.8587      4377.7039     -137160.85    
    645700   2525.3207      83.456062      4359.1371     -137154.51    
    645800   2513.4812     -210.605        4342.6458     -137160.92    
    645900   2467.3977      1081.2626      4327.5255     -137164.82    
    646000   2337.1395     -448.71117      4319.1334     -137162.15    
    646100   2539.7107      6047.4023      4313.7983     -137166       
    646200   2654.8504      4593.1518      4362.1198     -137167.58    
    646300   2405.9104     -6635.2888      4460.1705     -137155.68    
    646400   2771.4295     -4902.1512      4502.3856     -137159.37    
    646500   2507.0636     -9214.5544      4493.738      -137159.54    
    646600   2420.9706      318.63063      4427.8499     -137162.53    
    646700   2457.6794      3681.103       4361.4597     -137163.25    
    646800   2646.9207      8588.4454      4344.3601     -137171.82    
    646900   2166.9015     -6781.0867      4370.9095     -137167.55    
    647000   2350.9567     -5610.8838      4362.4348     -137168.87    
    647100   2461.1833     -691.12749      4339.5622     -137167.3     
    647200   2352.4389      120.726        4321.5008     -137162.37    
    647300   2565.9318      4723.4091      4307.3799     -137163.53    
    647400   2662.1725     -1819.9069      4319.1467     -137162.3     
    647500   2851.5993      3519.4299      4345.1334     -137159.16    
    647600   2717.5671      5162.9036      4399.0993     -137157.57    
    647700   2604.9659     -15732.396      4469.7357     -137164.25    
    647800   2584.0652     -5006.6892      4465.3849     -137166.01    
    647900   2284.6196      7527.8021      4428.5989     -137158.53    
    648000   2435.2262      7880.1335      4407.8434     -137157.95    
    648100   2735.988       6372.846       4418.5392     -137157.68    
    648200   2734.7573     -10478.271      4451.9944     -137160.79    
    648300   2555.9496     -1452.9895      4455.5467     -137162.72    
    648400   2420.2376     -1289.8695      4462.3453     -137162.14    
    648500   2457.5977     -3585.8462      4453.0242     -137161.94    
    648600   2576.2279      1022.8591      4409.1016     -137160.49    
    648700   2807.9145      3101.7715      4386.433      -137161.3     
    648800   2567.5073     -558.30791      4395.6463     -137159.61    
    648900   2469.8746     -926.13951      4387.9585     -137163.94    
    649000   2575.73        86.022177      4372.8535     -137166.57    
    649100   2376.4197      1738.638       4364.3653     -137162.6     
    649200   2408.1737     -1785.768       4373.1974     -137164.92    
    649300   2570.2833     -2974.6528      4380.884      -137165.88    
    649400   2642.7903      11686.984      4394.8034     -137161.24    
    649500   2484.388      -8622.9677      4427.8506     -137159.75    
    649600   2290.7453     -6116.1877      4423.5939     -137161.08    
    649700   2396.0115      12284.381      4396.1846     -137164.52    
    649800   2591.0541      1241.9293      4399.2821     -137157.5     
    649900   2637.5805     -10164.602      4400.834      -137160.26    
    650000   2434.5051     -5029.5388      4344.1979     -137162.5     
    650100   2517.605      -2657.4618      4255.3038     -137168.14    
    650200   2574.2769      19124.016      4185.15       -137171.84    
    650300   2287.5405      7062.8895      4220.7873     -137170.73    
    650400   2102.9469     -5300.9481      4318.9981     -137165.86    
    650500   2517.7714     -5440.3154      4412.1098     -137166.54    
    650600   2538.3695     -4808.0695      4485.3016     -137161.09    
    650700   2453.7696     -10006.981      4515.9234     -137155.49    
    650800   2613.6671     -1231.6598      4475.744      -137158.48    
    650900   2428.8592      7503.6691      4382.0978     -137158.07    
    651000   2472.3539      2205.8051      4304.4273     -137167.79    
    651100   2510.0891      1782.7145      4260.3638     -137170.9     
    651200   2539.7807      1672.9701      4260.3133     -137170.36    
    651300   2644.3996      7046.6252      4337.1507     -137166.77    
    651400   2672.6964     -8245.5421      4472.5551     -137159.79    
    651500   2440.469      -9831.7334      4540.6469     -137157.21    
    651600   2209.4611     -6516.0714      4530.5334     -137160.12    
    651700   2422.7139     -6149.8566      4451.2678     -137162.97    
    651800   2580.9826      9252.2677      4326.6593     -137162.85    
    651900   2591.0212      15395.695      4275.8525     -137163.78    
    652000   2229.1106      1305.3066      4321.2839     -137163.12    
    652100   2413.9165     -10338.583      4400.9851     -137168.91    
    652200   2431.2671     -6221.3587      4437.1756     -137163.59    
    652300   2461.8222      47.019846      4434.0091     -137161.49    
    652400   2534.2255     -729.37279      4415.8724     -137161.69    
    652500   2423.7715      1143.9908      4393.555      -137155.79    
    652600   2685.4484      3246.2139      4370.6441     -137155.37    
    652700   2681.7885      9662.754       4354.6837     -137161.47    
    652800   2505.3339     -7907.0862      4400.5061     -137165.25    
    652900   2349.1772     -54.783856      4438.3219     -137161.49    
    653000   2714.4226     -2074.3068      4459.8134     -137165.05    
    653100   2563.7035     -13241.872      4468.3751     -137157.74    
    653200   2590.6611     -1554.9009      4401.8486     -137160.2     
    653300   2509.3156     -1439.0859      4327.6209     -137167.54    
    653400   2320.9131     -460.40393      4270.0507     -137166.87    
    653500   2457.0853      11681.574      4236.0503     -137165.96    
    653600   2460.7464      9152.2881      4270.0892     -137160.84    
    653700   2587.0796     -7896.985       4346.1037     -137162.5     
    653800   2584.9303      836.37779      4399.1925     -137164.4     
    653900   2453.6122     -5486.8991      4453.0278     -137162.85    
    654000   2293.4545     -14032.005      4472.3137     -137156.33    
    654100   2687.8362     -661.48936      4395.1048     -137164.67    
    654200   2552.9025      9661.0924      4314.7571     -137164.61    
    654300   2343.4505      18985.7        4295.1824     -137165.43    
    654400   2243.989      -1921.2178      4349.6565     -137163.31    
    654500   2559.9332     -3440.1675      4396.2937     -137168.27    
    654600   2521.1274     -2736.7592      4434.8392     -137164.85    
    654700   2505.9435     -5833.7853      4456.0531     -137162.96    
    654800   2469.2123      2591.5354      4452.7011     -137160.1     
    654900   2730.4152     -1681.474       4465.4986     -137164.03    
    655000   2416.4629     -6139.5241      4481.9789     -137161.66    
    655100   2424.9691     -18570.509      4454.9035     -137165.42    
    655200   2491.3309      10042.09       4327.451      -137161.76    
    655300   2728.7138      16158.453      4247.2146     -137164.63    
    655400   2618.5256     -2497.6018      4278.5497     -137169.61    
    655500   2443.8895     -5059.5691      4351.0457     -137166.72    
    655600   2203.0763     -3550.3622      4403.5942     -137157.89    
    655700   2494.1378     -5047.8727      4417.4967     -137158.44    
    655800   2616.0935      244.61137      4395.0217     -137160.4     
    655900   2544.7668     -1833.0281      4376.2333     -137162.32    
    656000   2493.7233      2856.884       4373.9356     -137162.42    
    656100   2475.0748     -6199.5223      4369.6347     -137161.85    
    656200   2498.2581     -5283.9385      4314.0874     -137164.52    
    656300   2397.6734      3325.8712      4232.9034     -137169.13    
    656400   2168.8596      7942.6863      4183.0748     -137166.62    
    656500   2600.8274      4566.0117      4161.7556     -137172.46    
    656600   2595.6303      14953.21       4218.4408     -137169.09    
    656700   2398.3189     -12733.22       4379.3671     -137165.85    
    656800   2324.638      -23468.918      4498.8159     -137160.96    
    656900   2668.0792     -8069.8398      4473.6368     -137159.85    
    657000   2764.131       2234.0869      4372.4608     -137160.88    
    657100   2592.1111      6996.2333      4308.2553     -137164.36    
    657200   2393.5068      268.76348      4306.3044     -137163.74    
    657300   2533.0507     -4958.2951      4331.0849     -137165.74    
    657400   2625.0209     -1446.3792      4362.8418     -137165.63    
    657500   2695.8964     -8942.6624      4397.5888     -137161.79    
    657600   2657.1429      2322.3134      4405.3403     -137161.38    
    657700   2328.8662     -2552.3833      4436.3751     -137159.44    
    657800   2382.4462      1573.0056      4427.7559     -137160.19    
    657900   2785.7185      9269.0332      4406.6925     -137163.25    
    658000   2550.5914     -1350.9819      4429.9684     -137159.16    
    658100   2303.098       5792.7528      4421.3644     -137161.79    
    658200   2361.1635     -43.116179      4403.2455     -137163.74    
    658300   2517.8099      8499.2552      4387.0233     -137164.74    
    658400   2659.5232     -11734.95       4399.9356     -137163.54    
    658500   2902.6919      827.45437      4368.9623     -137166.13    
    658600   2347.7691     -1239.2942      4343.4774     -137161.91    
    658700   2448.6918      1828.885       4309.446      -137167.53    
    658800   2426.5428      6139.4044      4295.9552     -137163.95    
    658900   2471.2139      2830.0184      4314.9544     -137160.67    
    659000   2544.9048      2937.0764      4348.4632     -137160.7     
    659100   2500.4729      979.35536      4396.9142     -137164.81    
    659200   2313.5844     -9125.5065      4442.4608     -137165.51    
    659300   2482.3046     -7261.4998      4448.1514     -137166.2     
    659400   2650.3714      7744.2307      4422.3586     -137163.82    
    659500   2463.7695      5129.1775      4403.7916     -137159.09    
    659600   2528.3657      7158.3826      4383.7894     -137163.18    
    659700   2239.1297     -6771.6539      4379.8414     -137160.39    
    659800   2496.8567     -5692.4127      4350.4861     -137163.31    
    659900   2697.0796     -84.574993      4308.4598     -137159.5     
    660000   2588.5469      10074.638      4262.4746     -137161.75    
    660100   2458.8945      11194.337      4288.1436     -137165.68    
    660200   2391.4131     -7549.4178      4390.3195     -137164.5     
    660300   2512.6044      287.47381      4462.2066     -137161.75    
    660400   2536.2922     -8589.0762      4516.9575     -137158.51    
    660500   2567.6201     -3787.3072      4511.9509     -137159.14    
    660600   2575.3581      1728.2402      4451.9611     -137160.99    
    660700   2558.8883     -2461.8021      4383.9457     -137163.09    
    660800   2501.9621      16153.363      4315.1869     -137166.31    
    660900   2148.883       4596.7865      4309.7751     -137164.57    
    661000   2405.8146     -4790.4696      4328.1438     -137167.03    
    661100   2463.6185     -6143.4551      4345.3606     -137163.2     
    661200   2538.288       4191.8001      4339.026      -137163.95    
    661300   2659.5679      4342.0308      4359.2123     -137167.24    
    661400   2339.4032      1422.0922      4437.5815     -137163.21    
    661500   2194.394      -9065.1341      4508.652      -137163.79    
    661600   2327.3519     -6806.6506      4494.957      -137159.11    
    661700   2599.2837      1934.4488      4388.1245     -137162       
    661800   2640.8276      14334.07       4283.997      -137165.24    
    661900   2288.8379      15380.242      4273.3493     -137162.85    
    662000   2360.7305     -2211.4938      4352.0241     -137165.1     
    662100   2355.561      -3007.6599      4418.1899     -137159.54    
    662200   2561.3804     -966.6979       4438.1447     -137159.77    
    662300   2473.9952      2310.0457      4447.8737     -137159.86    
    662400   2423.3623     -10009.437      4439.5697     -137162.04    
    662500   2404.3303     -376.46425      4348.7065     -137165.28    
    662600   2523.6531      9552.8494      4260.2008     -137170.1     
    662700   2483.6531      10469.679      4250.5985     -137168.23    
    662800   2550.1967      7119.1393      4315.9699     -137168.62    
    662900   2469.3137     -11985.991      4419.9911     -137164.83    
    663000   2733.5493     -4684.6279      4457.6155     -137165.23    
    663100   2614.3059     -5379.4994      4441.0358     -137159.38    
    663200   2560.3306     -813.30891      4396.5109     -137162.37    
    663300   2287.464       9536.0012      4359.5475     -137163.51    
    663400   2410.8345      52.731931      4352.7427     -137165.84    
    663500   2596.2295     -2765.935       4354.002      -137164.8     
    663600   2437.6683      7810.5241      4371.2819     -137157.25    
    663700   2694.7902     -4711.9718      4421.7147     -137166.24    
    663800   2605.2078     -515.54467      4465.3578     -137166.29    
    663900   2410.2225     -7825.1522      4497.2318     -137163.6     
    664000   2439.009      -10149.865      4489.0397     -137161.25    
    664100   2676.7348      1245.1842      4429.2925     -137159.52    
    664200   2627.9271      11130.391      4368.034      -137157.88    
    664300   2627.4564      512.70889      4324.9919     -137162.64    
    664400   2515.0065      3850.7035      4275.6322     -137164.78    
    664500   2457.3409     -3385.7793      4261.6115     -137167.15    
    664600   2458.596       7653.972       4268.9255     -137167.7     
    664700   2634.2692     -3966.3216      4337.8856     -137169.52    
    664800   2656.4523     -5050.111       4417.0255     -137164.32    
    664900   2753.4773     -1116.8787      4491.8698     -137163.62    
    665000   2492.076      -4587.9105      4574.8008     -137159.74    
    665100   2216.3255     -14660.785      4596.5557     -137156.69    
    665200   2627.7695     -5995.3397      4504.7392     -137161.23    
    665300   2556.8936      15469.513      4397.0301     -137154.21    
    665400   2752.4351     -8336.7566      4332.3939     -137164.52    
    665500   2444.414       6757.6794      4260.2002     -137161.63    
    665600   2510.498       8696.7175      4227.5981     -137168.14    
    665700   2370.5524      12289.159      4253.6899     -137166.63    
    665800   2485.8277     -7471.2219      4338.6325     -137166.43    
    665900   2502.0667     -1304.2447      4403.0655     -137157.14    
    666000   2735.771       10406.526      4448.6448     -137160.73    
    666100   2444.689      -19937.008      4504.7252     -137155.15    
    666200   2624.0596      1991.4138      4447.1897     -137160.35    
    666300   2364.4581      4534.8793      4381.6936     -137160.33    
    666400   2470.817       5170.7172      4326.7426     -137168.78    
    666500   2464.5814      5823.7996      4311.1404     -137167.41    
    666600   2341.9913      4106.0142      4339.6872     -137159.12    
    666700   2619.8285      1967.137       4387.1711     -137161.21    
    666800   2651.6391     -9277.0555      4445.1494     -137162.37    
    666900   2469.3689      1247.6268      4458.0924     -137158.56    
    667000   2526.9635     -11068.09       4435.3584     -137161.07    
    667100   2552.954       8791.5556      4364.7547     -137162.77    
    667200   2152.3808      2288.2341      4330.1836     -137158.48    
    667300   2444.0676     -8309.0444      4293.0089     -137168.34    
    667400   2647.6188      12622.966      4250.2447     -137169.96    
    667500   2637.3075      8547.8825      4289.6745     -137161.94    
    667600   2853.9306     -3685.8878      4388.324      -137164.19    
    667700   2358.3325     -19911.508      4466.1538     -137158.7     
    667800   2435.9344     -9178.9469      4429.0132     -137163.64    
    667900   2524.9742      12177.52       4332.6188     -137165.52    
    668000   2664.0767      6455.0407      4287.9405     -137171.77    
    668100   2232.8659     -6043.0884      4303.4333     -137166.19    
    668200   2355.2163      951.35908      4307.34       -137167.81    
    668300   2552.7106      8782.0067      4331.1836     -137162.03    
    668400   2588.953       2516.2234      4396.7334     -137163.29    
    668500   2391.6449     -16221.18       4467.2677     -137162.03    
    668600   2464.1331      3358.6692      4478.1044     -137161.43    
    668700   2569.8103      1939.1799      4485.5888     -137156.93    
    668800   2619.2296      1265.3646      4500.7407     -137157.06    
    668900   2425.7436     -4923.5878      4509.5864     -137160.01    
    669000   2259.5582     -2073.2457      4474.877      -137163.04    
    669100   2419.494      -4169.1839      4414.2974     -137163.07    
    669200   2667.9478      5600.4213      4327.5384     -137164.21    
    669300   2598.1594      318.82929      4288.1328     -137164.94    
    669400   2320.7762      6174.2152      4283.2636     -137161.77    
    669500   2643.4547     -2630.3933      4290.9357     -137170.19    
    669600   2488.5318      6183.7326      4301.9003     -137165.95    
    669700   2625.3714      6613.6529      4334.8311     -137167.31    
    669800   2584.8052      1618.5397      4409.9663     -137162.92    
    669900   2559.5923     -10755.415      4489.7376     -137160.79    
    670000   2528.5588     -12808.959      4507.0241     -137162.02    
    670100   2386.6372     -7915.4114      4451.6299     -137160.49    
    670200   2407.6107      16194.111      4340.0761     -137160.45    
    670300   2513.83        13179.722      4273.3368     -137165.06    
    670400   2345.3921      2534.3969      4280.2872     -137167.01    
    670500   2392.5271     -1069.1282      4317.5033     -137169.69    
    670600   2553.81       -3443.8204      4367.0904     -137164.54    
    670700   2471.1466     -4515.6834      4430.9096     -137157.14    
    670800   2493.5215     -8071.5401      4461.5169     -137158.24    
    670900   2550.7266      6887.9125      4431.0738     -137164.23    
    671000   2411.4502     -2554.6027      4417.6875     -137167.62    
    671100   2244.2248      3014.6872      4376.7953     -137165.75    
    671200   2479.3631      1718.4953      4326.9017     -137161.07    
    671300   2670.2051      4512.6529      4310.7483     -137163.36    
    671400   2455.9616     -9884.9541      4343.8698     -137163.01    
    671500   2438.1441     -3054.2187      4351.4368     -137166.96    
    671600   2496.4835      4700.8027      4347.0098     -137169.02    
    671700   2402.6249     -1934.8323      4385.2913     -137162.26    
    671800   2713.8843      2517.5901      4435.6529     -137161.88    
    671900   2535.5863     -5757.2892      4503.7263     -137158.03    
    672000   2294.9452     -1919.7785      4554.4216     -137154.27    
    672100   2431.926      -8565.9899      4543.0181     -137157.03    
    672200   2827.5246      3321.1224      4436.7987     -137159.76    
    672300   2722.033       9809.0192      4350.2011     -137163.93    
    672400   2405.4485      1159.7842      4345.6205     -137160.64    
    672500   2527.126      -1830.7535      4348.5871     -137163.54    
    672600   2663.0792      12717.549      4372.4994     -137164.64    
    672700   2505.0161     -11337.838      4444.3824     -137164.32    
    672800   2359.7127     -2022.0632      4447.342      -137166.45    
    672900   2477.0202     -547.20991      4407.3596     -137168.1     
    673000   2684.8612      5927.4795      4379.8237     -137163.48    
    673100   2664.3489      5442.1731      4379.2241     -137163.64    
    673200   2434.7144     -9634.0681      4407.9558     -137162.11    
    673300   2386.0767     -7234.6159      4401.572      -137161.28    
    673400   2642.0986      3071.699       4354.6689     -137160.51    
    673500   2873.2443      10501.259      4340.3335     -137160.99    
    673600   2631.2727     -7415.8277      4399.0323     -137162.33    
    673700   2564.8261     -9584.2566      4446.8568     -137163.9     
    673800   2440.0414     -2963.3517      4460.8554     -137163.52    
    673900   2391.321      -10819.719      4462.1041     -137161.04    
    674000   2483.0967      16629.027      4417.8199     -137155.31    
    674100   2626.6001      15223.695      4404.8675     -137158.21    
    674200   2515.7491     -8968.7346      4426.3969     -137160.35    
    674300   2528.351      -14960.573      4398.0103     -137161.45    
    674400   2427.018       15092.488      4307.2914     -137158.85    
    674500   2503.2568      4971.948       4280.6412     -137168.44    
    674600   2314.9009     -946.61068      4296.5359     -137168.24    
    674700   2500.874      -8275.5769      4304.8965     -137168.3     
    674800   2687.5082      5022.1023      4298.6233     -137170.52    
    674900   2453.8967     -574.87362      4309.9311     -137167.29    
    675000   2359.589       4847.9854      4317.4873     -137166.76    
    675100   2275.5835      2326.1135      4351.3451     -137166.75    
    675200   2397.0976     -5451.4369      4403.4238     -137161.8     
    675300   2479.3189      7367.2465      4410.8509     -137157.74    
    675400   2599.1228      1964.1515      4421.5542     -137160.13    
    675500   2558.2919     -6941.7428      4444.2996     -137165.25    
    675600   2310.1071     -10868.756      4443.2298     -137163.72    
    675700   2467.7686      1968.4783      4409.0852     -137164.97    
    675800   2487.046      -2615.0205      4398.971      -137162.29    
    675900   2499.6455      5839.6027      4398.5191     -137160.71    
    676000   2711.9705      2127.9439      4448.2747     -137166.27    
    676100   2312.6892     -14396.809      4529.4664     -137162.05    
    676200   2273.9144     -13756.095      4522.1383     -137165.58    
    676300   2561.5213      4241.5279      4421.5385     -137165.63    
    676400   2536.454       12763.934      4345.5663     -137159.83    
    676500   2506.8095      4499.0375      4333.7309     -137163.07    
    676600   2356.7113      4874.0322      4357.8557     -137165.52    
    676700   2301.4778     -2906.6715      4418.0083     -137163.48    
    676800   2567.1202     -2594.5091      4470.9748     -137163.16    
    676900   2672.9905     -2266.4177      4494.8527     -137163.98    
    677000   2417.9012     -1030.7042      4503.2609     -137157.99    
    677100   2495.3498      376.10873      4501.5249     -137160.77    
    677200   2360.1402     -2750.4256      4498.2762     -137161.88    
    677300   2353.056      -4950.3327      4482.8961     -137164.63    
    677400   2386.9267      3321.7983      4431.5028     -137160.08    
    677500   2722.5201      9674.0974      4383.7354     -137163.22    
    677600   2669.5597      1442.8489      4402.0064     -137166.19    
    677700   2381.8228     -3707.4232      4435.7931     -137162.11    
    677800   2465.4504      746.9801       4437.9067     -137162.24    
    677900   2596.2319     -1878.2264      4431.856      -137163.53    
    678000   2612.3569      4411.4294      4436.1292     -137165.33    
    678100   2463.6407     -4988.0888      4476.3893     -137163.33    
    678200   2474.6596     -2008.7009      4476.4448     -137161.91    
    678300   2645.2818     -10538.602      4452.6673     -137165.42    
    678400   2488.4869      3277.3104      4429.6893     -137162.09    
    678500   2399.2563     -4234.8955      4425.2343     -137161.85    
    678600   2544.3125     -3663.395       4377.9618     -137167.05    
    678700   2424.2746      6943.1572      4319.3723     -137163.29    
    678800   2679.5846      878.32989      4297.042      -137170.89    
    678900   2331.447       5921.9163      4322.2094     -137163.02    
    679000   2660.7393     -3544.9467      4388.4933     -137162.98    
    679100   2853.3081     -12937.473      4447.4598     -137163.39    
    679200   2521.2258      3442.7516      4454.7433     -137160.09    
    679300   2414.8563     -8658.894       4466.5418     -137161.22    
    679400   2368.0338      1995.9025      4438.1998     -137160.22    
    679500   2603.2834      818.46188      4385.335      -137164.18    
    679600   2492.2528      19235.964      4324.1156     -137157.54    
    679700   2653.4127     -9190.989       4309.9838     -137167.19    
    679800   2536.221       2673.7098      4298.2774     -137171.58    
    679900   2441.7797     -2696.8206      4313.3056     -137169.5     
    680000   2388.9117      6076.2218      4322.3383     -137162.88    
    680100   2599.2062      1224.8027      4348.6181     -137161.21    
    680200   2564.2265     -6072.1565      4383.7101     -137162.75    
    680300   2552.7841     -3820.253       4423.34       -137164.89    
    680400   2553.9304     -5835.1504      4439.3564     -137164.92    
    680500   2554.1271     -4089.3215      4422.7217     -137162.99    
    680600   2729.4987      512.08561      4379.9387     -137164.97    
    680700   2625.3941      475.12426      4351.3702     -137168.3     
    680800   2278.2302     -6123.2725      4344.7414     -137166       
    680900   2443.7593      7258.7935      4318.2127     -137166.97    
    681000   2405.6867      7740.4664      4317.7171     -137160.4     
    681100   2562.0431      4443.4665      4342.2132     -137161.69    
    681200   2486.0683     -740.06904      4405.0287     -137161.75    
    681300   2209.3991     -5893.3588      4477.5583     -137165.82    
    681400   2307.7038     -19585.477      4507.8511     -137166.56    
    681500   2544.1017      3208.4606      4414.4113     -137166.57    
    681600   2560.0805      4481.0719      4318.0707     -137163.68    
    681700   2613.0274      5924.2759      4264.9505     -137166.15    
    681800   2345.7544      8918.564       4257.009      -137167.23    
    681900   2203.4452      2997.1832      4312.239      -137165.75    
    682000   2399.6828      6122.5034      4392.3512     -137166.78    
    682100   2364.6974     -9245.7025      4471.3915     -137162.56    
    682200   2596.6618     -437.50314      4481.3923     -137165.08    
    682300   2580.227      -11716.403      4481.5125     -137162.37    
    682400   2657.4495      747.0887       4422.2727     -137163       
    682500   2540.6643      7259.7419      4347.7373     -137163.18    
    682600   2470.094       6844.1332      4321.2654     -137169.03    
    682700   2386.3367     -2772.1825      4341.4613     -137167.82    
    682800   2569.1487      4612.5336      4357.018      -137165.75    
    682900   2611.4491      624.90842      4399.9627     -137163.77    
    683000   2507.8854     -10454.397      4459.4303     -137162.96    
    683100   2510.2226     -12422.241      4463.0074     -137164.89    
    683200   2473.6214      5480.1128      4392.4245     -137164.57    
    683300   2429.4148     -2122.2378      4334.7135     -137160.17    
    683400   2679.4364      5054.6725      4304.526      -137163.41    
    683500   2442.6557      13708.03       4326.6928     -137161.46    
    683600   2376.5171     -5718.1724      4410.9432     -137165.53    
    683700   2154.4542     -2400.2522      4462.5546     -137159.73    
    683800   2591.9728     -4873.5591      4467.2559     -137162.15    
    683900   2641.4853     -8584.4526      4436.4109     -137161.91    
    684000   2602.6596      1421.7708      4384.5981     -137163.41    
    684100   2524.3867      837.65676      4362.6988     -137165.13    
    684200   2374.593      -4082.6387      4371.1106     -137164.63    
    684300   2398.4014      5359.3244      4371.7009     -137165.97    
    684400   2546.5969     -958.17326      4412.2193     -137163.47    
    684500   2585.5488     -14305.733      4455.5452     -137157.04    
    684600   2522.4243      3954.0578      4425.323      -137154.95    
    684700   2318.7298      8465.2511      4402.7401     -137158.31    
    684800   2417.1792      3642.1443      4421.4568     -137161.66    
    684900   2590.1428      2348.8145      4444.4695     -137164.76    
    685000   2484.869      -9848.8747      4480.0195     -137160.13    
    685100   2552.6603     -10685.914      4464.2028     -137155.74    
    685200   2822.0025      6400.9916      4381.9017     -137160.15    
    685300   2454.2021      10878.203      4344.0982     -137160.08    
    685400   2507.9821      6921.9258      4366.2052     -137166.97    
    685500   2317.9497     -7676.5431      4430.5549     -137162.66    
    685600   2612.9495     -13296.844      4450.1705     -137165.06    
    685700   2746.1496      3358.719       4413.4672     -137163.67    
    685800   2561.3694     -3813.7623      4408.2199     -137160.02    
    685900   2196.1841      2304.0346      4408.5708     -137160.93    
    686000   2447.1298      355.69499      4380.4105     -137167.76    
    686100   2672.6052      9336.6419      4339.2053     -137169.07    
    686200   2574.2224      10149.993      4347.6606     -137163.96    
    686300   2533.5651     -2309.0765      4429.9997     -137162.45    
    686400   2444.3218     -7523.2408      4512.3643     -137157.9     
    686500   2577.868      -4107.8549      4541.72       -137158.99    
    686600   2569.0089     -6367.5693      4528.9144     -137162.71    
    686700   2287.5661     -7411.2162      4462.1244     -137160.98    
    686800   2448.9012      3432.6597      4332.5509     -137163.25    
    686900   2861.8229      18091.332      4243.4457     -137164.42    
    687000   2373.7546      18935.314      4276.9077     -137157.05    
    687100   2423.9595     -2123.4237      4379.9025     -137161.84    
    687200   2562.1825     -12709.104      4462.5188     -137164.37    
    687300   2623.2795     -9723.0132      4468.7069     -137163.44    
    687400   2676.6592      10033.017      4417.4744     -137163.86    
    687500   2445.2855     -5975.4591      4400.5368     -137167.28    
    687600   2306.1025      9163.3594      4367.471      -137164.85    
    687700   2421.4429      3575.9196      4378.8617     -137163.34    
    687800   2436.6986      4752.1063      4412.8125     -137160.54    
    687900   2494.4309     -2415.1635      4432.7055     -137159.52    
    688000   2848.3397      4254.9226      4434.8183     -137157.77    
    688100   2636.1013      759.87929      4474.2393     -137153.57    
    688200   2528.3791     -8224.1293      4513.9895     -137157.89    
    688300   2653.9448     -6815.2709      4511.7893     -137164.24    
    688400   2652.8259     -8023.2292      4488.991      -137166.85    
    688500   2334.4967      3149.9455      4432.3497     -137161.99    
    688600   2186.4586      4218.7244      4374.9647     -137161.61    
    688700   2491.2251     -223.11945      4321.4506     -137168.48    
    688800   2588.7863      12349.321      4275.2319     -137165.66    
    688900   2575.6863      9377.6786      4286.9794     -137166.26    
    689000   2361.0118     -7063.9064      4371.2529     -137168.21    
    689100   2423.7602     -6123.4664      4440.581      -137168.31    
    689200   2710.2637     -3368.9835      4473.3156     -137166.97    
    689300   2435.2103     -2004.1621      4509.2263     -137158.03    
    689400   2503.2006     -10039.888      4508.956      -137159.79    
    689500   2498.7845     -1574.2646      4432.9542     -137161.22    
    689600   2409.9178      6809.3088      4343.5213     -137163.82    
    689700   2410.6543      1102.646       4272.5704     -137169.13    
    689800   2417.905       15713.866      4228.5001     -137165.2     
    689900   2622.9873      14583.423      4266.1295     -137163.02    
    690000   2554.0956     -3362.6783      4402.3555     -137162.65    
    690100   2368.6206     -8941.8794      4540.0015     -137159.42    
    690200   2445.644      -9142.1828      4610.9476     -137159.04    
    690300   2537.8099     -6832.3531      4590.8465     -137157.9     
    690400   2582.3559     -7079.9407      4519.9865     -137155.34    
    690500   2735.85        8966.5372      4434.2599     -137154.38    
    690600   2722.7716      617.7153       4419.2745     -137158.06    
    690700   2392.4793      4934.1193      4439.2651     -137159.35    
    690800   2431.8614     -3288.8056      4468.9772     -137161.01    
    690900   2626.9291     -3354.5637      4489.691      -137163.11    
    691000   2679.608      -2177.1186      4513.8156     -137160.05    
    691100   2626.5496     -244.82652      4524.757      -137157.98    
    691200   2276.5091     -14528.487      4526.7911     -137156.64    
    691300   2464.7369     -6447.6975      4422.6267     -137163.43    
    691400   2546.7236      16126.203      4289.8348     -137159.9     
    691500   2701.4096      4209.3443      4243.4867     -137166.16    
    691600   2300.8708      2859.2993      4257.4608     -137165.88    
    691700   2397.6736     -629.66215      4295.4358     -137165.41    
    691800   2479.5144      631.33903      4334.3345     -137160.74    
    691900   2672.869       2758.0688      4372.5399     -137163.31    
    692000   2537.9288      1609.6703      4434.8764     -137163.4     
    692100   2322.6497     -6322.1017      4495.6901     -137166.47    
    692200   2345.3233     -15424.498      4512.7248     -137166.92    
    692300   2396.7143     -3499.965       4436.3769     -137165.55    
    692400   2600.1593      4667.0298      4311.3817     -137168.74    
    692500   2643.501       15681.836      4236.754      -137170.96    
    692600   2190.8929      6716.8513      4267.144      -137166.3     
    692700   2309.5164     -4498.4807      4320.1676     -137166.76    
    692800   2835.4401      4188.8441      4360.2834     -137173.15    
    692900   2425.8695     -4463.7052      4427.1285     -137163.29    
    693000   2460.0253     -8187.0135      4472.2624     -137161.53    
    693100   2702.0482     -324.20838      4472.1463     -137162.06    
    693200   2504.0826      2749.0072      4470.8213     -137156.95    
    693300   2482.2029     -9976.3346      4460.3838     -137167.62    
    693400   2397.7392      2623.3075      4378.3091     -137167.93    
    693500   2485.6358      9971.0029      4314.432      -137163.92    
    693600   2664.9082      16836.244      4316.1846     -137165.12    
    693700   2557.2523     -3090.7472      4402.0026     -137164.57    
    693800   2300.4618     -13543.43       4496.0036     -137164.45    
    693900   2216.0187     -10549.409      4516.2634     -137169.85    
    694000   2384.7571     -9101.5219      4464.8375     -137168.28    
    694100   2373.6848      12879.958      4391.448      -137161.42    
    694200   2603.7018     -1215.1389      4370.1617     -137164.62    
    694300   2472.8877      13260.935      4354.2716     -137159.15    
    694400   2391.3393      4770.2295      4376.2387     -137159.59    
    694500   2378.0525     -194.1234       4405.5893     -137163.3     
    694600   2570.3277      365.93336      4425.5246     -137167.57    
    694700   2604.899      -4198.2439      4440.4051     -137160.76    
    694800   2631.543      -3553.7296      4413.7288     -137159.37    
    694900   2436.2987      12098.405      4367.8659     -137161.33    
    695000   2316.1722     -1716.7599      4363.0484     -137161.79    
    695100   2506.8061      5389.6153      4372.9383     -137165.83    
    695200   2542.7168     -189.24028      4425.5614     -137164.18    
    695300   2522.3112     -8140.3678      4478.0859     -137162.65    
    695400   2403.6465     -5567.9054      4491.0554     -137162.12    
    695500   2353.8033     -4555.8402      4452.451      -137160.93    
    695600   2556.8864      11965.739      4368.3598     -137162.02    
    695700   2443.1707      2571.3494      4325.8868     -137161.23    
    695800   2572.4492      91.395483      4313.1185     -137169.54    
    695900   2287.4131      385.44143      4322.1665     -137167.33    
    696000   2349.5337      12763.017      4339.4176     -137162.4     
    696100   2516.7486     -3866.6011      4399.8986     -137159.51    
    696200   2482.491      -2268.5152      4457.9945     -137156.49    
    696300   2562.4644     -7693.4468      4490.5878     -137159.3     
    696400   2521.275      -1849.0995      4486.6499     -137163.24    
    696500   2372.4006     -9692.2573      4462.2466     -137165.76    
    696600   2321.2845     -730.26648      4376.2298     -137163.5     
    696700   2758.0256      2813.7093      4277.1967     -137168.25    
    696800   2634.6329      15098.286      4229.328      -137164.68    
    696900   2577.8489      4477.2829      4285.1044     -137167.93    
    697000   2345.5255     -328.81051      4393.7963     -137164.69    
    697100   2358.2424     -10865.985      4497.3188     -137159.32    
    697200   2766.5039     -12978.786      4535.6268     -137162.2     
    697300   2554.4506      1325.7981      4507.9366     -137160.05    
    697400   2337.9343     -1583.0346      4449.5389     -137159.42    
    697500   2551.2895      3543.1044      4351.8709     -137165.66    
    697600   2562.2874      12226.497      4283.4591     -137161.89    
    697700   2669.7304      15279.582      4302.5693     -137162.28    
    697800   2466.8623     -11692.244      4405.1934     -137163.17    
    697900   2228.8611     -3016.4322      4476.3144     -137160.26    
    698000   2505.6793     -10316.265      4499.4348     -137163.89    
    698100   2608.0896      768.46991      4456.9341     -137157.61    
    698200   2651.9573      2895.5202      4404.5428     -137159.34    
    698300   2605.9725      2786.0699      4373.578      -137163.01    
    698400   2490.3944      6096.4666      4383.0269     -137162.93    
    698500   2414.729      -10153.543      4406.2299     -137161.18    
    698600   2734.7197      1202.2615      4381.6656     -137162.1     
    698700   3015.4218      3905.1212      4365.5405     -137165.34    
    698800   2455.8533      2602.3564      4404.2532     -137164.37    
    698900   2241.4864     -3411.2947      4479.6744     -137160.08    
    699000   2464.722      -11333.307      4535.0896     -137161.08    
    699100   2589.4271     -3449.9475      4541.6599     -137156.39    
    699200   2732.5105     -11012.109      4514.4074     -137158.09    
    699300   2703.4784     -3448.5387      4439.968      -137164.96    
    699400   2414.8306      10829.599      4373.6889     -137162.33    
    699500   2495.5713      2056.8942      4385.2009     -137166.26    
    699600   2325.8422     -8521.2899      4419.1259     -137160.17    
    699700   2620.8301      2863.852       4392.1679     -137158.85    
    699800   2524.1248      11443.754      4388.7311     -137156.61    
    699900   2501.2596     -4934.7717      4451.2812     -137161.17    
    700000   2456.7347     -11312.974      4478.3958     -137160.95    
    700100   2794.6205      476.9834       4417.3118     -137167.97    
    700200   2627.0634      11756.427      4375.1143     -137160.04    
    700300   2638.56       -6346.0888      4408.2664     -137165.88    
    700400   2295.5869      1940.2653      4432.2084     -137161.27    
    700500   2517.4723     -10230.431      4470.3813     -137162.89    
    700600   2678.6436     -146.84027      4473.586      -137160.71    
    700700   2576.2941     -338.44826      4467.917      -137158.2     
    700800   2766.439      -6815.0878      4465.0241     -137164.93    
    700900   2517.2833     -3752.484       4431.4163     -137162.44    
    701000   2485.6286      3297.3656      4377.7809     -137163.27    
    701100   2465.2985      4196.6399      4327.8213     -137162.88    
    701200   2394.2848      5627.979       4293.9318     -137163.48    
    701300   2132.835       6036.4768      4276.5364     -137162.38    
    701400   2463.972       4907.8805      4255.3639     -137168.59    
    701500   2656.0105      15538.432      4270.8806     -137167.71    
    701600   2427.3434     -1467.9155      4371.648      -137161.22    
    701700   2550.3967     -6903.1141      4455.0166     -137160.68    
    701800   2707.5148     -5638.4647      4484.742      -137156.62    
    701900   2535.5813     -5043.9718      4472.1222     -137155.43    
    702000   2634.4995     -5381.344       4421.6591     -137165.57    
    702100   2573.3555     -4243.2063      4354.7835     -137166.96    
    702200   2482.1121      6094.4735      4270.3479     -137165.96    
    702300   2449.121       16301.41       4214.443      -137165.53    
    702400   2408.0891      1360.8556      4249.2313     -137163.72    
    702500   2667.6315      8048.3075      4314.6059     -137160.27    
    702600   2696.3439     -865.72467      4413.486      -137161.41    
    702700   2430.6455     -7926.2725      4531.957      -137160.13    
    702800   2435.6344     -9533.193       4602.3456     -137161.2     
    702900   2550.2974     -6081.4417      4605.4585     -137161.28    
    703000   2713.415      -7128.9733      4556.7701     -137153.99    
    703100   2878.5001      1359.9148      4468.4139     -137159.79    
    703200   2687.3512     -83.707538      4393.1454     -137164.16    
    703300   2425.3825      531.21195      4336.5952     -137162.67    
    703400   2510.5864      12230.681      4306.1792     -137167.34    
    703500   2410.6739     -4047.0772      4349.7266     -137165.48    
    703600   2583.2384      7585.4806      4394.7961     -137162.12    
    703700   2705.8294     -2727.074       4452.9906     -137162.19    
    703800   2564.3231     -8193.0705      4503.8546     -137162.87    
    703900   2231.2302     -4836.4759      4504.6401     -137158.18    
    704000   2483.836      -3649.6662      4447.4646     -137162.55    
    704100   2550.8669      4638.3042      4359.9619     -137163.37    
    704200   2474.0427      12218.629      4311.1615     -137162.77    
    704300   2503.518      -3980.8076      4329.9525     -137167.57    
    704400   2286.3268     -2216.1242      4363.4539     -137168.74    
    704500   2338.4345      1120.7711      4374.7492     -137169.83    
    704600   2662.5213     -1985.5045      4380.1538     -137167.85    
    704700   2492.7405     -5099.1917      4394.1949     -137162.22    
    704800   2430.4693      9681.5815      4396.1453     -137161.33    
    704900   2503.7861     -1435.2397      4437.7137     -137161.66    
    705000   2688.9086      2881.3117      4507.5983     -137160.67    
    705100   2591.7604     -11133.231      4584.1685     -137156.52    
    705200   2352.4876     -12763.63       4569.2136     -137157.44    
    705300   2463.7371      3222.5908      4472.5527     -137165.32    
    705400   2153.3237      3994.483       4418.7325     -137153.18    
    705500   2688.6054      4691.548       4383.5094     -137161.17    
    705600   2623.2938      6109.6103      4372.3645     -137161.03    
    705700   2627.1686     -13506.55       4380.4082     -137164.23    
    705800   2373.6896     -2.6737189      4364.1031     -137160.73    
    705900   2422.359       3488.5545      4363.3084     -137162.56    
    706000   2635.1144      8161.0724      4392.66       -137160.45    
    706100   2656.6532     -3067.6564      4470.7321     -137157.49    
    706200   2486.3373     -9861.9951      4537.3739     -137157.77    
    706300   2284.6273      6779.319       4543.0992     -137156.83    
    706400   2442.6262     -16120.38       4534.1861     -137160.36    
    706500   2693.1948      7030.8325      4461.8721     -137159.41    
    706600   2801.1401      1327.5615      4419.8847     -137158.55    
    706700   2547.436      -4064.6056      4404.9758     -137160.82    
    706800   2545.8556      3450.5954      4375.9148     -137164.39    
    706900   2461.2925      6255.8147      4371.3709     -137164.01    
    707000   2466.3963     -4463.4888      4416.6764     -137167.87    
    707100   2282.7002     -10695.852      4454.0907     -137165.63    
    707200   2394.0855     -1171.2145      4414.6356     -137163.96    
    707300   2682.5936      14451.523      4358.258      -137164.34    
    707400   2679.9016      6800.7716      4396.3        -137166.68    
    707500   2346.5395     -16016.922      4495.2982     -137162.74    
    707600   2347.2356     -12449.022      4504.05       -137159.66    
    707700   2608.282       10698.11       4442.4266     -137156.6     
    707800   2691.8052     -1004.816       4425.7233     -137161.04    
    707900   2390.6424      8.6774146      4418.6784     -137157.47    
    708000   2478.0838     -5883.6316      4414.7611     -137160.56    
    708100   2297.9933      2908.8628      4396.2835     -137156.98    
    708200   2537.0355      1537.8854      4378.3984     -137164.86    
    708300   2549.0514      2919.7146      4390.2617     -137164.11    
    708400   2420.4347      5578.1537      4454.4646     -137158.48    
    708500   2592.328       1295.4226      4546.7823     -137159.8     
    708600   2629.2399     -12019.166      4627.609      -137155.92    
    708700   2537.736      -10516.271      4642.2262     -137154.34    
    708800   2545.9472     -13492.403      4574.0804     -137162.51    
    708900   2286.3399      9793.2838      4412.4554     -137161.08    
    709000   2579.0774      15374.832      4286.6539     -137167.03    
    709100   2668.9785      10808.445      4275.7612     -137162.86    
    709200   2572.7532      11870.181      4357.0195     -137156.13    
    709300   2415.9833      1478.1941      4498.4078     -137160.47    
    709400   2257.475      -10625.708      4620.2184     -137158.76    
    709500   2418.5945     -1886.7098      4635.8058     -137158.52    
    709600   2509.7833     -6095.55        4597.4168     -137158.91    
    709700   2428.6656     -3574.593       4515.7561     -137157.22    
    709800   2708.7073      15155.176      4418.648      -137161.41    
    709900   2627.6471     -5278.2955      4392.8171     -137162.66    
    710000   2462.1054     -1501.7003      4382.9477     -137166.44    
    710100   2349.9057      9247.2817      4392.4129     -137165.66    
    710200   2577.0025     -6756.2947      4432.008      -137167.09    
    710300   2770.0329     -1032.3926      4445.5686     -137167.12    
    710400   2562.5053     -6949.3968      4483.5725     -137163.04    
    710500   2304.474      -16432.409      4491.3362     -137164.51    
    710600   2236.0083     -1883.5952      4415.8785     -137162.7     
    710700   2631.4163      12264.793      4325.1622     -137165.89    
    710800   2703.6935     -11248.279      4299.5115     -137169.54    
    710900   2660.6471     -6161.405       4274.4788     -137172.37    
    711000   2516.2085      1427.8991      4242.5595     -137169.39    
    711100   2662.3338      7195.5251      4237.5782     -137170.84    
    711200   2618.3835      6984.6796      4309.6738     -137170.39    
    711300   2454.1595     -9601.7715      4426.8184     -137166.81    
    711400   2365.2911     -10171.695      4484.5084     -137161.45    
    711500   2477.7266     -5245.8345      4447.7206     -137161.5     
    711600   2436.8415      17861.422      4360.0906     -137160.59    
    711700   2442.7437     -2154.8922      4343.5532     -137162.62    
    711800   2447.7468      817.15306      4352.0395     -137162.34    
    711900   2706.5773      4646.8132      4368.7625     -137161.38    
    712000   2963.8936     -152.54896      4411.6025     -137163.75    
    712100   2626.5617     -4828.1077      4488.7116     -137162.78    
    712200   2512.2637     -3583.0988      4533.6943     -137162.83    
    712300   2407.874      -7987.2869      4515.8164     -137161.91    
    712400   2589.3627     -9586.7328      4459.0653     -137165.11    
    712500   2529.7087      12681.913      4385.5773     -137158.41    
    712600   2656.9956      7848.3113      4369.6613     -137157.16    
    712700   2635.2838     -3127.4126      4404.7155     -137161.58    
    712800   2321.033      -1772.8237      4424.487      -137161.86    
    712900   2522.0187     -3301.3004      4430.3134     -137166.44    
    713000   2446.1692      3252.4922      4419.0965     -137160.53    
    713100   2607.7316      2517.966       4404.8777     -137162.95    
    713200   2311.8385      2130.8254      4392.1473     -137163.62    
    713300   2218.7639     -2007.4432      4348.1836     -137163.45    
    713400   2502.5298      6390.1744      4287.7245     -137163.72    
    713500   2459.5348      14945.48       4265.3705     -137161.77    
    713600   2539.8655      5657.1402      4307.555      -137165.9     
    713700   2473.4158      5378.155       4368.1644     -137167.67    
    713800   2223.1322     -13693.246      4438.4805     -137163.85    
    713900   2463.2588      2259.4851      4449.1825     -137162.47    
    714000   2498.914      -10620.578      4448.483      -137157.41    
    714100   2760.6769      452.00102      4402.5068     -137164.38    
    714200   2370.2597      875.85786      4381.3086     -137160.63    
    714300   2333.2241     -454.55382      4359.7629     -137161.36    
    714400   2622.6882      10277.35       4341.4794     -137166.37    
    714500   2233.931      -1141.0993      4365.7297     -137162.78    
    714600   2222.9689     -3844.8176      4368.9005     -137166.6     
    714700   2509.8782      2605.9598      4356.0419     -137165.94    
    714800   2563.0883      4228.76        4360.9246     -137163.69    
    714900   2465.9221      7270.6915      4382.9739     -137161.31    
    715000   2532.0853     -14433.277      4420.6103     -137166.26    
    715100   2475.0206     -5175.6261      4405.3888     -137166.35    
    715200   2721.354      -2513.0351      4373.1309     -137167.03    
    715300   2598.0706      4850.4807      4355.1321     -137159.13    
    715400   2645.564      -1613.6327      4354.0432     -137164.38    
    715500   2456.4566      8008.9756      4365.2315     -137167.79    
    715600   2328.7701     -6951.7092      4401.8267     -137163.69    
    715700   2510.7975      6364.2903      4394.0687     -137163.37    
    715800   2707.2396     -11407.844      4391.4864     -137165.59    
    715900   2560.953       3400.9146      4377.9102     -137164.44    
    716000   2346.5826     -2650.878       4384.278      -137165.56    
    716100   2060.1025     -5706.4886      4371.6141     -137167.3     
    716200   2253.8954      6970.3703      4322.3854     -137172.63    
    716300   2512.4938      2848.4351      4296.512      -137168.08    
    716400   2502.4831     -1114.2968      4331.1015     -137162.38    
    716500   2797.5744     -7146.0353      4398.0694     -137166.12    
    716600   2537.3194     -3297.6836      4465.5632     -137163.1     
    716700   2437.0708     -3639.7103      4516.7875     -137164.45    
    716800   2486.3129     -4314.7944      4528.4853     -137163.76    
    716900   2696.4515     -866.80163      4505.1833     -137158.81    
    717000   2662.4389     -1138.3792      4468.6014     -137160.54    
    717100   2572.5393     -7819.8865      4435.4233     -137163.59    
    717200   2365.0085      2758.2265      4385.3683     -137160.55    
    717300   2423.2677      5568.4526      4351.2583     -137163.01    
    717400   2383.435       4971.9213      4346.9137     -137163.52    
    717500   2459.1809      5614.4869      4355.1487     -137166.28    
    717600   2488.4697     -2448.4515      4376.7899     -137163.78    
    717700   2579.4022      8145.2427      4372.7238     -137162.33    
    717800   2510.0749      1788.722       4378.6569     -137162.47    
    717900   2509.5172     -1353.2535      4385.5732     -137171.21    
    718000   2269.7441      292.99404      4397.4776     -137165.01    
    718100   2434.0993      5731.5403      4393.6952     -137164.22    
    718200   2384.7498      5624.1321      4385.8169     -137162.68    
    718300   2552.4872      6425.3748      4418.1969     -137166.56    
    718400   2597.9891     -7349.7851      4508.5226     -137163.02    
    718500   2536.6367     -2143.4987      4564.1922     -137151.02    
    718600   2678.0998     -4103.7876      4579.3074     -137156.09    
    718700   2512.2722     -11587.984      4539.4404     -137156.88    
    718800   2619.3987     -25.493234      4408.053      -137163.32    
    718900   2576.3841      13479.859      4270.8744     -137165.74    
    719000   2567.4548      12323.65       4223.9259     -137167.58    
    719100   2448.5101      6416.3799      4272.7553     -137165.78    
    719200   2481.6288     -4188.8831      4382.8066     -137168.25    
    719300   2465.4909     -9767.1382      4490.8104     -137160.71    
    719400   2610.2386     -5849.4825      4528.9043     -137156.37    
    719500   2571.8055     -12398.318      4519.5105     -137157.32    
    719600   2405.918      -6177.3344      4442.2228     -137159.84    
    719700   2579.1003      11267.953      4321.9196     -137169.51    
    719800   2502.5857      7046.7189      4274.3413     -137168.2     
    719900   2580.4671      19373.136      4314.6263     -137167.14    
    720000   2779.8191     -6407.19        4458.0397     -137161.02    
    720100   2411.2107     -3316.4044      4556.4739     -137151.77    
    720200   2486.0765     -19267.579      4570.0472     -137158.32    
    720300   2534.173      -9000.6645      4489.0175     -137164.33    
    720400   2318.2499      8859.8961      4373.8122     -137167.71    
    720500   2189.1428      7671.0805      4311.4782     -137165.53    
    720600   2391.482       8484.6843      4310.0748     -137164.9     
    720700   2543.6995     -12583.353      4337.3408     -137166.03    
    720800   2696.9227      7574.8238      4318.7783     -137167.43    
    720900   2441.3093     -43.837837      4330.1657     -137164.1     
    721000   2227.1036     -445.61058      4346.3795     -137163.34    
    721100   2441.9078     -2634.8715      4354.0632     -137164.83    
    721200   2609.5351     -1351.1436      4341.6049     -137160.68    
    721300   2554.8082      2782.7078      4323.1607     -137161.22    
    721400   2412.8796      3262.6061      4335.4362     -137163.74    
    721500   2507.7524     -3755.0985      4397.5081     -137165.53    
    721600   2391.8459      2721.739       4472.8237     -137159.14    
    721700   2465.5757     -8562.8507      4557.7459     -137157.53    
    721800   2612.5607     -270.94378      4585.6439     -137159.88    
    721900   2455.5111     -10281.654      4592.6514     -137157.51    
    722000   2575.0066     -9012.9109      4547.105      -137163.3     
    722100   2204.6634     -6904.3557      4456.6723     -137161.98    
    722200   2340.2675      5666.6758      4332.6079     -137166.93    
    722300   2513.2202      19186.331      4265.1579     -137164.91    
    722400   2656.0425      8358.1343      4314.1614     -137163.59    
    722500   2448.9414     -2111.4423      4425.8518     -137162.04    
    722600   2127.119      -6204.9142      4511.9021     -137162.08    
    722700   2328.5662     -14163.978      4493.2127     -137162.32    
    722800   2627.7383      5493.7803      4390.4186     -137164.94    
    722900   2599.4428      8253.8783      4323.0288     -137164.2     
    723000   2473.8498      4039.1543      4324.2678     -137162.95    
    723100   2407.7141     -6924.2011      4369.5344     -137163.09    
    723200   2483.9626     -7971.0011      4387.1962     -137167.06    
    723300   2341.753      -1671.3914      4366.3257     -137162.57    
    723400   2430.283       11258.739      4333.2572     -137160.93    
    723500   2573.8185      3140.9644      4336.5692     -137162.85    
    723600   2483.7386     -8898.2307      4385.7766     -137161.02    
    723700   2457.9451     -1446.7295      4410.7869     -137161.25    
    723800   2436.7075      2457.993       4426.3902     -137161.49    
    723900   2578.357      -4161.3875      4431.7891     -137163.66    
    724000   2659.5929      420.45473      4428.7384     -137162.92    
    724100   2559.9626      3765.8441      4450.9851     -137160.02    
    724200   2567.4254     -1761.2993      4488.3493     -137163.69    
    724300   2209.8978     -4807.0584      4507.4329     -137160.21    
    724400   2387.7844     -2177.84        4480.7796     -137164.56    
    724500   2777.4486     -5820.3447      4408.6497     -137166.29    
    724600   2678.3905     -292.41891      4308.4761     -137163.9     
    724700   2582.775       16882.68       4238.9003     -137164.92    
    724800   2434.7144      4878.0704      4249.1119     -137163.77    
    724900   2415.2165      6126.4486      4296.4451     -137165.96    
    725000   2372.0734     -7173.3881      4349.2719     -137164.15    
    725100   2645.2702     -2498.002       4362.0228     -137160.65    
    725200   2802.3872      395.48526      4373.6656     -137164.62    
    725300   2517.2066     -11775.076      4408.157      -137164.02    
    725400   2543.2778     -6494.162       4412.3416     -137166.51    
    725500   2450.9521     -1897.0967      4383.2892     -137162.45    
    725600   2752.1356      7322.5718      4340.4761     -137164.71    
    725700   2903.496       8632.1824      4368.1524     -137161.56    
    725800   2518.8779      378.40728      4449.6904     -137160.34    
    725900   2504.234      -15857.025      4534.0881     -137162.15    
    726000   2437.0535     -3833.9105      4525.7413     -137158.1     
    726100   2712.3636     -4390.9455      4468.1975     -137159.52    
    726200   2804.4703     -447.60025      4404.332      -137161.96    
    726300   2466.3577     -175.11068      4363.2687     -137165.39    
    726400   2284.2125      9628.1226      4334.2568     -137163.75    
    726500   2410.7066      325.67985      4336.6072     -137164.23    
    726600   2503.916       2271.0068      4348.9938     -137159.73    
    726700   2359.739       8014.053       4380.713      -137156.31    
    726800   2543.3859     -5149.2019      4452.071      -137163.61    
    726900   2230.3084     -11950.996      4475.9825     -137163.25    
    727000   2470.5373     -1459.9742      4405.7585     -137170.75    
    727100   2537.29        14822.175      4317.3595     -137165.71    
    727200   2605.477       17375.459      4316.1695     -137164.9     
    727300   2536.4887     -8103.6132      4397.701      -137165.72    
    727400   2547.3742     -9080.6817      4432.2148     -137166.53    
    727500   2538.5369     -796.15037      4431.5258     -137165.17    
    727600   2691.0379     -2612.1446      4439.404      -137166.62    
    727700   2589.0357     -2971.6589      4442.8157     -137160.74    
    727800   2551.802      -1800.1006      4437.8496     -137158.08    
    727900   2321.176      -3558.7481      4431.3688     -137156.87    
    728000   2317.0962     -6685.56        4392.5608     -137160.98    
    728100   2544.7564      6579.4744      4331.176      -137162.13    
    728200   2744.1201      9288.2137      4324.4619     -137161.04    
    728300   2507.8541     -951.2015       4377.7925     -137159.3     
    728400   2406.7289      4329.1908      4418.5282     -137159.56    
    728500   2640.6698     -464.95465      4453.4536     -137164.97    
    728600   2344.3227     -4203.952       4481.1357     -137155.52    
    728700   2633.9221      5530.0105      4476.597      -137159.86    
    728800   2654.441       64.006193      4468.4127     -137163.96    
    728900   2425.043      -10040.175      4433.7987     -137165.8     
    729000   2518.0801     -311.20868      4349.6556     -137167.79    
    729100   2563.5198     -349.7847       4283.4397     -137164.99    
    729200   2841.962       12189.992      4265.4161     -137165.82    
    729300   2562.878       3030.8802      4337.5384     -137163.34    
    729400   2355.6579     -8194.4614      4442.6898     -137164.98    
    729500   2340.4365     -9042.6656      4476.016      -137161.38    
    729600   2628.492       614.97962      4432.4481     -137163.51    
    729700   2661.8913     -3888.8303      4395.3347     -137164.33    
    729800   2466.6007     -1499.3161      4356.6916     -137162.5     
    729900   2608.326      -1514.597       4328.1283     -137167.83    
    730000   2500.2018      3658.116       4329.0011     -137165.98    
    730100   2424.3626     -8813.4562      4361.7867     -137160.75    
    730200   2898.0073      4011.1137      4338.2156     -137164.64    
    730300   2812.5786     -5787.5083      4349.4813     -137166       
    730400   2285.8034      2283.7491      4368.9438     -137161.15    
    730500   2510.7306      3220.0635      4370.2646     -137165.34    
    730600   2576.7945      38.129845      4368.4639     -137162.53    
    730700   2526.8259     -412.82943      4358.7077     -137160.19    
    730800   2381.3303      7468.4202      4340.6147     -137163.31    
    730900   2226.5935     -1335.8269      4337.1231     -137163.73    
    731000   2496.019       8124.0727      4323.954      -137167.2     
    731100   2548.1345     -5772.0847      4350.7355     -137165.39    
    731200   2419.9021     -621.34224      4379.9058     -137161.97    
    731300   2441.6214      6288.8806      4407.1319     -137160.48    
    731400   2711.3109     -8776.4108      4424.9969     -137162.6     
    731500   2981.7415     -1471.876       4409.9786     -137162.34    
    731600   2771.3057     -5772.8557      4397.1108     -137165.87    
    731700   2541.1567      1241.2619      4372.5225     -137164.53    
    731800   2577.3575      2528.7319      4366.4011     -137168.26    
    731900   2393.3894     -9216.1016      4380.346      -137166.36    
    732000   2478.5737     -766.17516      4358.0374     -137166.42    
    732100   2737.4503      5458.8001      4326.9132     -137164.63    
    732200   2623.9079     -37.192462      4353.5674     -137160.42    
    732300   2439.5055     -13102.689      4401.8579     -137160.49    
    732400   2304.0659     -8052.499       4392.7217     -137165.23    
    732500   2189.6062     -2308.8929      4338.0111     -137167.96    
    732600   2393.9849      5768.1245      4298.6812     -137162.77    
    732700   2581.2724      6634.0839      4299.0279     -137162.97    
    732800   2555.5311      2725.5835      4333.6972     -137161.46    
    732900   2497.3702     -1206.1587      4358.3718     -137164.42    
    733000   2400.8572     -10351.979      4353.0204     -137164.72    
    733100   2505.1465      11232.182      4320.4035     -137160.9     
    733200   2679.9464      16031.727      4344.6716     -137161.74    
    733300   2524.9962      10094.418      4442.6799     -137162.12    
    733400   2342.5708     -9453.4953      4551.5593     -137159.37    
    733500   2428.093      -5490.2685      4555.8881     -137159.7     
    733600   2616.4827     -2723.5381      4499.9441     -137159.55    
    733700   2727.7463     -7116.9332      4437.1726     -137163.73    
    733800   2415.7748     -3419.6141      4366.7069     -137167.54    
    733900   2300.8811      7880.3664      4289.3448     -137165.25    
    734000   2425.0567      16791.671      4256.5801     -137163.89    
    734100   2434.3473      6998.9602      4313.1912     -137160.1     
    734200   2530.6968      9741.6678      4390.4526     -137158.12    
    734300   2804.4714     -5211.3112      4480.7512     -137157.19    
    734400   2604.61       -13991.28       4548.1196     -137156.9     
    734500   2447.9022     -16236.438      4543.6486     -137159.43    
    734600   2521.7118     -847.06316      4451.5002     -137161.56    
    734700   2675.4697     -987.87866      4368.0984     -137167.44    
    734800   2400.4033      1480.1033      4300.0186     -137167.43    
    734900   2373.8607      1437.8139      4245.722      -137169.89    
    735000   2535.8845      4475.6261      4222.3622     -137168.05    
    735100   2673.5474      12607.716      4252.634      -137163.72    
    735200   2566.7501      6183.351       4348.528      -137164.47    
    735300   2375.4668     -17429.888      4440.839      -137165.08    
    735400   2490.7578     -5232.6441      4433.9992     -137166.39    
    735500   2545.7663     -5349.3539      4393.5084     -137161.33    
    735600   2592.4442      5097.8351      4341.8319     -137161.43    
    735700   2550.3088      15456.674      4314.0443     -137164.66    
    735800   2401.9956     -6788.1092      4347.9856     -137166.07    
    735900   2367.2461      5756.4173      4376.0675     -137163.08    
    736000   2506.646      -5081.3381      4436.6455     -137161.01    
    736100   2586.3811     -8886.3434      4461.9733     -137162.23    
    736200   2576.2312     -3969.0521      4437.7355     -137164.77    
    736300   2504.0295     -1489.9895      4396.101      -137168.45    
    736400   2344.4817     -2861.1615      4345.1751     -137166.46    
    736500   2592.0347      13341.271      4291.3901     -137162.91    
    736600   2818.0545      2745.7209      4313.4104     -137166.37    
    736700   2360.714       8331.2924      4372.6196     -137161.32    
    736800   2326.6014     -6573.3538      4421.7806     -137161.97    
    736900   2465.2159      1221.7475      4422.018      -137166.24    
    737000   2621.7359     -3589.9628      4454.0049     -137165.23    
    737100   2594.7816     -4208.9215      4467.6148     -137156.94    
    737200   2736.7372     -1437.94        4456.159      -137164.52    
    737300   2327.5521      2946.5916      4443.0152     -137160.74    
    737400   2559.7215     -1898.1344      4425.993      -137168.82    
    737500   2268.9674      3583.0223      4415.2674     -137162.83    
    737600   2551.3601     -2041.3964      4419.2938     -137163.65    
    737700   2488.4887      193.62172      4402.0104     -137155.44    
    737800   2562.6724     -1185.8565      4364.1257     -137160.79    
    737900   2517.4001      1854.9309      4332.0014     -137163.41    
    738000   2533.8838      12758.546      4316.1305     -137165.57    
    738100   2240.7046     -3612.623       4362.1339     -137163.12    
    738200   2346.4136     -6437.1244      4391.8285     -137169.5     
    738300   2492.0118      3528.4868      4372.0172     -137167.69    
    738400   2502.9964      7003.2942      4359.811      -137161.6     
    738500   2615.8847     -2453.8631      4403.2741     -137161.16    
    738600   2567.5979      3216.214       4475.0014     -137162       
    738700   2280.2532     -4004.9928      4549.5553     -137154.99    
    738800   2629.0903     -6645.2552      4574.5366     -137159.76    
    738900   2601.5939     -6988.7551      4562.2126     -137156.08    
    739000   2674.141       2756.1199      4537.0111     -137160.39    
    739100   2128.4051     -7641.9073      4517.4796     -137156.13    
    739200   2395.2517      9653.5147      4434.4812     -137161.3     
    739300   2436.5109      4305.2671      4346.9294     -137158.23    
    739400   2634.9139      17246.862      4298.078      -137159.72    
    739500   2512.6732      448.15909      4352.1222     -137160       
    739600   2376.8046     -1850.7967      4430.1159     -137163.94    
    739700   2373.0767     -17620.285      4478.9046     -137161.48    
    739800   2584.9373     -2546.9195      4444.2272     -137161.12    
    739900   2622.0662      1834.8292      4389.8841     -137163.42    
    740000   2561.7719      6535.1533      4346.8909     -137164.37    
    740100   2538.5648     -338.71386      4336.9474     -137166.45    
    740200   2472.0189      6680.8012      4322.3954     -137166.87    
    740300   2623.4471      4294.7798      4335.4078     -137171.38    
    740400   2540.8609     -5420.4823      4412.3359     -137168.94    
    740500   2433.4282     -11457.233      4487.1734     -137161.14    
    740600   2633.0599     -295.66851      4484.2014     -137162.15    
    740700   2571.9127     -2908.6919      4439.4411     -137162.09    
    740800   2461.3467      1334.9295      4366.9283     -137164.87    
    740900   2412.4127      1776.9484      4304.2918     -137166.94    
    741000   2425.902       15262.903      4264.2205     -137162.77    
    741100   2618.3721     -2654.4401      4296.4829     -137158.54    
    741200   2630.8947      2938.388       4345.1037     -137161.98    
    741300   2492.0534     -6612.7835      4397.8789     -137164.31    
    741400   2318.2858     -2906.9403      4429.1783     -137161.26    
    741500   2492.0062     -12056.845      4439.6759     -137162.32    
    741600   2801.8412     -3315.7507      4387.6773     -137161.79    
    741700   2839.5608      2366.8551      4356.3455     -137156.25    
    741800   2522.5997      2465.076       4372.7357     -137159.72    
    741900   2433.0075     -5485.2958      4405.925      -137159.14    
    742000   2469.3257      2872.4246      4401.8466     -137159.69    
    742100   2495.4636     -1971.4284      4392.002      -137159.11    
    742200   2547.8114      11107.795      4380.9956     -137161.12    
    742300   2471.7262     -3088.8892      4407.3129     -137166.6     
    742400   2398.6176      520.59375      4436.3855     -137167.44    
    742500   2515.9297     -9848.1804      4462.6148     -137164.66    
    742600   2578.115       4503.2472      4454.3563     -137160.86    
    742700   2342.2777      7.8567972      4486.4077     -137153.64    
    742800   2487.6261     -6185.7405      4523.0491     -137155.32    
    742900   2664.7297     -6501.0051      4527.352      -137160.66    
    743000   2377.5229     -11065.684      4502.997      -137161.32    
    743100   2342.9786      615.30934      4405.8183     -137162.6     
    743200   2502.3351      5828.5236      4269.4658     -137161.91    
    743300   2848.3441      21066.663      4180.5611     -137163.3     
    743400   2656.7018      8542.0243      4236.7021     -137167.17    
    743500   2238.0342     -7752.029       4373.2954     -137161.82    
    743600   2282.7193     -7163.5647      4452.9069     -137158.91    
    743700   2507.774      -2727.4225      4457.3488     -137158.1     
    743800   2654.1857      4009.4363      4419.9944     -137162.17    
    743900   2492.621      -7190.267       4382.7723     -137164.56    
    744000   2342.583       795.02853      4332.3135     -137165.22    
    744100   2513.5302      4723.3458      4304.379      -137168.72    
    744200   2672.7068      4065.3082      4320.3763     -137160.14    
    744300   2504.3332     -3801.8605      4385.1279     -137156.58    
    744400   2421.4646     -6322.3948      4445.3204     -137158.91    
    744500   2508.9738      3487.7702      4450.1273     -137161.88    
    744600   2587.7022     -6879.0956      4424.8202     -137163.68    
    744700   2562.1525      1264.2867      4359.3087     -137167.21    
    744800   2442.3406      2536.3696      4298.7426     -137168.98    
    744900   2373.0213      15348.787      4268.3296     -137170.67    
    745000   2481.7001      1038.7714      4327.3433     -137169.05    
    745100   2697.491      -727.58682      4420.5973     -137165.58    
    745200   2507.8048     -9533.5026      4515.434      -137158.69    
    745300   2489.9441     -6663.8528      4548.1651     -137154.3     
    745400   2734.3273     -3043.1535      4535.3451     -137157.16    
    745500   2541.1883     -6347.21        4502.873      -137161.54    
    745600   2519.0312      1330.5604      4442.2537     -137166.77    
    745700   2289.7845      1085.332       4396.6186     -137163.44    
    745800   2412.9618     -1527.5829      4355.393      -137166.41    
    745900   2691.8421      3177.6132      4313.5137     -137165.99    
    746000   2637.3466      1456.6535      4318.9948     -137162.11    
    746100   2485.0196     -9028.4883      4367.5784     -137162.46    
    746200   2399.0091      1222.9887      4381.9139     -137170.48    
    746300   2163.5548     -6822.0884      4394.2186     -137165.71    
    746400   2506.6025     -6683.3618      4359.3651     -137168.91    
    746500   2512.0716      3708.6847      4308.9232     -137163.8     
    746600   2642.1192      7455.6704      4300.9549     -137169.17    
    746700   2264.7632      184.48958      4339.2482     -137165.45    
    746800   2403.1343     -9322.9809      4366.8818     -137166.56    
    746900   2469.4985     -1768.5143      4380.9871     -137163.85    
    747000   2559.311      -329.44681      4395.0089     -137163.79    
    747100   2584.9443      3126.6102      4390.4907     -137164.38    
    747200   2396.2589      2550.2263      4378.386      -137165.83    
    747300   2369.6863     -1159.3148      4380.76       -137169.3     
    747400   2409.7352     -4035.8207      4398.7088     -137166.39    
    747500   2765.7584      520.26607      4411.8322     -137164.57    
    747600   2742.6511     -2882.8546      4439.4252     -137167.44    
    747700   2371.8591     -9372.2425      4450.1458     -137162.31    
    747800   2556.8665     -1003.8449      4420.4626     -137166.09    
    747900   2580.8058      656.05249      4394.5618     -137163.23    
    748000   2648.6123     -3552.6493      4371.5134     -137163.41    
    748100   2486.9127      7125.7256      4322.495      -137166.78    
    748200   2469.8847      713.18867      4296.5546     -137170.16    
    748300   2725.2851      3724.9296      4295.5827     -137173.89    
    748400   2516.5378      303.64797      4336.6463     -137168.37    
    748500   2325.1284     -2034.2726      4380.1116     -137166.93    
    748600   2291.6852     -1775.9011      4399.2855     -137162.37    
    748700   2516.1458      3657.7065      4404.4881     -137160.65    
    748800   2631.6518     -6726.8177      4414.6293     -137162.59    
    748900   2454.2998     -5990.0366      4402.8577     -137162.29    
    749000   2180.091       10898.081      4370.3894     -137162.83    
    749100   2309.3421      1001.2729      4353.3445     -137165.46    
    749200   2855.7908      3253.8279      4346.2527     -137168.21    
    749300   2521.0688      2358.371       4364.5067     -137161.12    
    749400   2381.2998     -2008.5434      4398.9702     -137161.23    
    749500   2469.683      -9389.5641      4430.6534     -137167.12    
    749600   2472.0899     -7604.9392      4437.1369     -137164.21    
    749700   2639.3816      2275.4009      4406.7961     -137160.51    
    749800   2606.6161     -2309.3098      4383.3012     -137160.45    
    749900   2398.6332     -1415.6764      4369.0365     -137163.5     
    750000   2551.5779     -2075.1398      4350.6993     -137171.41    
    750100   2335.0396     -3053.5902      4327.6318     -137164.63    
    750200   2592.4688      15243.917      4301.6491     -137166.59    
    750300   2637.7514     -5413.386       4342.187      -137166.3     
    750400   2453.5353     -1968.2098      4368.8246     -137165.1     
    750500   2270.1499      44.764732      4389.2995     -137166.66    
    750600   2370.5991     -2662.2724      4399.3        -137166.55    
    750700   2462.8233     -22.899489      4386.6999     -137160.78    
    750800   2538.8171      3779.5326      4389.8132     -137162.54    
    750900   2268.3766     -98.623637      4414.353      -137154.96    
    751000   2684.5176     -5756.3627      4424.7618     -137158.59    
    751100   2640.9233      6684.2739      4420.5909     -137155.9     
    751200   2394.1376     -5675.1719      4431.7294     -137158.3     
    751300   2453.5305      1621.4128      4401.5368     -137161.23    
    751400   2465.8908     -918.50915      4360.5714     -137159.38    
    751500   2631.9554      1958.9281      4338.2179     -137159.65    
    751600   2679.1599     -1954.3791      4350.8326     -137162.42    
    751700   2378.8082     -3514.9116      4353.6024     -137165.01    
    751800   2493.9362      3178.9815      4327.5169     -137167.41    
    751900   2412.5953      10898.695      4312.3698     -137161.65    
    752000   2617.8427      4858.5868      4364.5279     -137164.21    
    752100   2670.9364     -13653.593      4452.8718     -137164.35    
    752200   2368.4096     -3039.7998      4483.06       -137157.62    
    752300   2457.3383      625.0287       4473.6879     -137159.83    
    752400   2583.2135      1757.1956      4477.3067     -137160.6     
    752500   2628.8406     -1777.7578      4485.1472     -137162.69    
    752600   2408.6953     -9407.1241      4485.8151     -137163.11    
    752700   2373.1388      1373.3055      4446.0023     -137160.12    
    752800   2766.5374      418.39009      4389.7463     -137162.82    
    752900   2658.0802      6144.2528      4356.0372     -137162.35    
    753000   2530.9085      2525.075       4362.3352     -137171       
    753100   2454.6842     -14407.541      4383.8454     -137169.81    
    753200   2587.6014     -3833.5234      4340.748      -137168.52    
    753300   2505.4799      11970.151      4292.1223     -137161.11    
    753400   2514.9778      3267.0859      4315.8527     -137165.45    
    753500   2232.6941     -8473.4804      4359.7686     -137166.07    
    753600   2288.5827      7347.912       4346.1463     -137165.34    
    753700   2478.4754      14707.529      4355.521      -137165.89    
    753800   2452.245       4977.1632      4419.7054     -137162.46    
    753900   2519.0675     -4353.0564      4477.0967     -137163.13    
    754000   2496.213       3484.3297      4493.3593     -137157.69    
    754100   2759.4831     -2963.5531      4526.4709     -137159.16    
    754200   2570.1062     -11517.579      4578.153      -137155.96    
    754300   2285.9208     -6195.9634      4555.2377     -137157.26    
    754400   2579.7088      3744.7725      4452.8704     -137166.49    
    754500   2517.4836      8976.6886      4381.3551     -137164.81    
    754600   2442.3922      2454.6312      4365.3889     -137164.81    
    754700   2168.5818     -1848.4446      4377.6764     -137157.48    
    754800   2663.1142      3366.0581      4398.9859     -137160.24    
    754900   2554.9965      5119.1628      4426.4999     -137156.9     
    755000   2388.0309     -9974.8687      4452.1336     -137158.83    
    755100   2456.9856     -5031.3295      4422.3494     -137164.46    
    755200   2503.3959      5174.9761      4363.3748     -137164.01    
    755300   2708.0284      11865.743      4337.3077     -137162.36    
    755400   2566.5076      7554.352       4389.9545     -137159.62    
    755500   2352.1345     -8608.087       4488.3006     -137163.41    
    755600   2368.8399     -10463          4532.1182     -137161.28    
    755700   2652.9975     -7900.6378      4497.6243     -137164.51    
    755800   2622.7235     -4583.371       4428.2995     -137164.92    
    755900   2303.6331      12541.11       4369.6896     -137160.2     
    756000   2392.4173     -2831.5095      4381.8966     -137165.8     
    756100   2166.4198     -1981.778       4386.4089     -137163.84    
    756200   2443.3717      6386.9516      4351.6883     -137164.7     
    756300   2489.8965      5296.2218      4329.1764     -137160.06    
    756400   2688.0431      1610.5477      4344.0896     -137163.92    
    756500   2313.0091     -2784.887       4392.3735     -137159.58    
    756600   2288.2932     -1448.525       4426.1817     -137162.76    
    756700   2530.7409      5480.2105      4426.3416     -137163.65    
    756800   2574.0276      903.24323      4440.2604     -137157.54    
    756900   2669.7553     -10156.032      4468.7158     -137161.93    
    757000   2520.5583     -620.14767      4458.6557     -137165.42    
    757100   2569.7775     -3626.8336      4462.8214     -137166.39    
    757200   2489.4017     -946.67895      4461.7044     -137160.04    
    757300   2508.169       9659.4627      4431.873      -137160.17    
    757400   2190.6409     -2386.6954      4405.6473     -137160.74    
    757500   2417.9482      3785.3271      4345.1423     -137167.81    
    757600   2583.8743      4653.4172      4294.2308     -137166.68    
    757700   2555.9469      16454.237      4297.9073     -137160.69    
    757800   2800.6314     -6093.2571      4382.7179     -137167.24    
    757900   2306.343      -15597.386      4462.1845     -137163.73    
    758000   2255.7406     -2329.5818      4460.9963     -137160.75    
    758100   2370.5449      3372.9309      4427.606      -137157.51    
    758200   2559.759       118.44932      4392.5325     -137160.09    
    758300   2648.1041      7575.2778      4360.4243     -137163.94    
    758400   2383.4804     -780.90508      4367.3584     -137165.09    
    758500   2334.9849     -5112.414       4371.3648     -137166.63    
    758600   2545.5243     -4328.4246      4343.7652     -137168.85    
    758700   2631.8752      6997.6476      4307.8438     -137166.68    
    758800   2588.3253      10639.793      4318.4691     -137164.93    
    758900   2290.133      -3463.8205      4404.0766     -137161.68    
    759000   2268.6899     -8293.4454      4505.476      -137160.72    
    759100   2677.896      -1961.065       4567.3644     -137161.74    
    759200   2560.6843     -12684.996      4590.5272     -137156.7     
    759300   2601.0515     -6996.564       4516.5527     -137160.28    
    759400   2407.823       765.05791      4406.6914     -137163.82    
    759500   2336.8401      7351.648       4322.0951     -137164.79    
    759600   2492.5323      10453.948      4300.144      -137166.94    
    759700   2609.5825     -601.96702      4350.9576     -137168.32    
    759800   2425.5995      763.19567      4436.1799     -137164.01    
    759900   2357.9573     -11893.707      4524.5713     -137157.83    
    760000   2606.7397     -8457.2181      4533.7008     -137154.45    
    760100   2610.3477     -9591.5774      4470.5427     -137158.83    
    760200   2521.3007      1179.0769      4350.6698     -137165.72    
    760300   2522.2348      4150.3465      4250.677      -137169.04    
    760400   2452.9722      12676.62       4222.9054     -137166.68    
    760500   2557.6685      4206.2977      4271.7321     -137165.73    
    760600   2685.403       10757.566      4343.7383     -137162.29    
    760700   2647.3764     -11849.137      4430.6903     -137160.15    
    760800   2546.47       -9949.6187      4442.868      -137163.46    
    760900   2316.8992     -531.50258      4407.161      -137163.12    
    761000   2440.7992      16.669237      4381.8494     -137165.36    
    761100   2747.5937      4028.1122      4369.0882     -137163.5     
    761200   2676.2673     -4134.4131      4362.619      -137160.93    
    761300   2443.036       8288.4426      4351.7868     -137161.76    
    761400   2462.3605     -4238.7485      4372.7826     -137165.14    
    761500   2460.0041      2580.3808      4395.7486     -137161.16    
    761600   2590.2882     -2093.7151      4428.5626     -137162.68    
    761700   2292.4851     -3673.8771      4438.4483     -137158.36    
    761800   2277.0888     -3519.3987      4419.4352     -137166.27    
    761900   2496.293       2135.7171      4393.7905     -137171.52    
    762000   2582.9743     -4287.5243      4377.3398     -137166.14    
    762100   2590.0039      6737.7856      4365.4879     -137162.71    
    762200   2493.9809      4058.1893      4377.0711     -137163.23    
    762300   2464.6092     -6461.3167      4402.1276     -137164.33    
    762400   2605.1468     -6402.0233      4413.984      -137164.17    
    762500   2689.7283      2232.8009      4417.6929     -137158       
    762600   2730.7412     -5570.57        4462.0169     -137159.13    
    762700   2493.1291     -14122.339      4484.6236     -137163.28    
    762800   2466.299       30.276009      4435.8087     -137164.6     
    762900   2676.8411      9602.7459      4385.4474     -137167.69    
    763000   2446.0465     -2222.4811      4387.7778     -137165.28    
    763100   2301.4866      2462.7548      4401.0608     -137168.42    
    763200   2225.5706     -5256.4988      4403.4381     -137161.35    
    763300   2527.9111     -1068.5163      4369.1389     -137162.3     
    763400   2451.3753      14361.873      4328.007      -137160.37    
    763500   2489.9574      8884.7974      4327.3219     -137165.99    
    763600   2423.6408     -13915.152      4352.7542     -137166.81    
    763700   2403.9992      11681.071      4347.2528     -137159.9     
    763800   2705.78       -5984.7648      4406.3658     -137161.87    
    763900   2633.3178      30.634027      4492.809      -137163.36    
    764000   2361.8453     -10318.662      4555.3313     -137157.27    
    764100   2499.7332     -980.43541      4526.6596     -137158.4     
    764200   2651.0632     -10602.115      4474.7927     -137159.26    
    764300   2718.7921      7679.8508      4388.7748     -137160.46    
    764400   2709.2155      1575.3624      4346.0066     -137169.64    
    764500   2544.2274     -8072.629       4361.3366     -137168.64    
    764600   2413.4834      2569.6957      4368.2114     -137162.5     
    764700   2499.6136      11437.387      4384.8428     -137157.88    
    764800   2567.9106      3218.3336      4467.7328     -137157.83    
    764900   2516.6351     -19620.224      4579.3109     -137160.4     
    765000   2284.1033     -6472.4128      4583.2256     -137160.68    
    765100   2452.9482     -4419.9788      4512.8272     -137168.13    
    765200   2446.8168      12331.688      4409.4041     -137166.61    
    765300   2640.8067      5040.2166      4343.8586     -137165.61    
    765400   2674.6013      3258.6361      4330.1689     -137166.74    
    765500   2186.5657      6504.8042      4352.7381     -137160.04    
    765600   2486.483       378.40007      4411.6023     -137167.71    
    765700   2636.1623     -10542.766      4490.2188     -137164.22    
    765800   2796.652      -12686.511      4527.5812     -137160.06    
    765900   2503.549       2265.7872      4504.9253     -137156.14    
    766000   2458.3661     -1467.8205      4455.8136     -137160.52    
    766100   2449.783      -461.00828      4371.2089     -137162.75    
    766200   2504.9895      11587.344      4279.1976     -137168.52    
    766300   2114.8784      656.05166      4238.959      -137166.51    
    766400   2427.7146      11696.287      4203.6583     -137171.73    
    766500   2548.8265     -2043.6207      4226.3321     -137170.04    
    766600   2605.5068     -1295.5648      4285.5078     -137168.64    
    766700   2355.8859      2471.811       4405.4326     -137160.23    
    766800   2447.7313     -20786.705      4558.7521     -137158.1     
    766900   2501.1213     -10839.551      4597.8561     -137156.82    
    767000   2627.5425     -30.040711      4530.6851     -137158.3     
    767100   2558.9818      2433.4452      4422.5311     -137159.52    
    767200   2446.2578      3832.8722      4347.8943     -137161.71    
    767300   2555.1841      8465.8846      4306.6903     -137168.58    
    767400   2281.5561      3129.2874      4304.0977     -137164.91    
    767500   2585.5639      8292.0641      4326.4452     -137169.53    
    767600   2650.8743     -1692.7567      4405.0254     -137163.24    
    767700   2465.8646      2469.6897      4489.3114     -137158.99    
    767800   2441.0147     -13256          4555.4636     -137161.15    
    767900   2284.6117     -9112.7421      4538.3383     -137165.28    
    768000   2243.9843     -4483.7649      4451.6151     -137164.01    
    768100   2474.9208      7536.676       4331.1899     -137161.87    
    768200   2609.7751      12844.689      4255.0212     -137163.62    
    768300   2590.0049      2352.425       4266.273      -137167.45    
    768400   2395.3669     -10645.359      4302.1655     -137167.89    
    768500   2382.2333      10768.955      4299.4659     -137166.36    
    768600   2512.2408      7.6757652      4326.231      -137166.95    
    768700   2367.3158      6999.7346      4366.101      -137162.43    
    768800   2398.3124     -6965.6594      4437.5193     -137162.07    
    768900   2545.0725     -5084.7321      4472.8086     -137159.33    
    769000   2781.826       3821.3376      4464.5339     -137159.14    
    769100   2638.4383      2501.9496      4459.5879     -137159.92    
    769200   2564.0744      906.15094      4481.2849     -137163.09    
    769300   2560.097      -13444.087      4520.7224     -137165.16    
    769400   2463.1964     -12305.293      4471.6961     -137162.75    
    769500   2593.6639      13149.464      4355.015      -137157.93    
    769600   2943.7271      9080.9761      4303.2293     -137163.28    
    769700   2633.1005      2167.9397      4335.7321     -137163.43    
    769800   2551.8185     -6326.3731      4384.7197     -137165.12    
    769900   2428.7945     -5961.4651      4414.3949     -137161.36    
    770000   2680.5179     -2950.871       4428.0145     -137161.86    
    770100   2587.7029     -2345.5568      4444.4598     -137158.26    
    770200   2332.3009     -5971.9176      4452.1168     -137161.99    
    770300   2331.7164      1119.8938      4433.6537     -137163.78    
    770400   2444.1945     -2629.9199      4419.275      -137162.74    
    770500   2577.197      -1923.797       4385.5271     -137163.32    
    770600   2524.3259      5629.5241      4351.3925     -137162.06    
    770700   2415.5636      8745.1281      4348.4156     -137165.33    
    770800   2332.1082      1108.7554      4361.571      -137167.06    
    770900   2403.3476      284.66713      4351.9679     -137163.33    
    771000   2732.3178      5709.268       4355.3124     -137166.52    
    771100   2592.3772      3555.6628      4404.6799     -137164.92    
    771200   2194.8964     -7907.4567      4454.5658     -137159.08    
    771300   2424.8168     -1046.7656      4450.9135     -137160.13    
    771400   2594.6924      4869.7244      4419.8109     -137158.59    
    771500   2677.76       -986.88984      4408.396      -137162.99    
    771600   2455.0377     -1808.7852      4412.1482     -137162.68    
    771700   2601.6953      576.8234       4404.4442     -137169.84    
    771800   2494.9539      8198.6741      4395.5401     -137166.33    
    771900   2610.506       5471.2569      4404.5369     -137161.03    
    772000   2771.5515     -1336.4801      4425.6178     -137161.73    
    772100   2541.5854     -2882.9774      4470.6209     -137162.62    
    772200   2550.3585     -6305.993       4521.14       -137166.98    
    772300   2393.2108     -9194.3746      4526.5989     -137160.75    
    772400   2619.4116     -4148.4344      4474.1437     -137162.01    
    772500   2503.376       9183.7328      4424.8693     -137157.1     
    772600   2630.6009     -2978.6753      4407.9463     -137163.21    
    772700   2317.4819     -7301.3118      4382.3592     -137162.68    
    772800   2230.9129      5064.0008      4323.0858     -137168.49    
    772900   2520.306       2141.8312      4284.2623     -137173.39    
    773000   2426.8398      2776.5397      4301.4494     -137166.45    
    773100   2445.7204      2005.1274      4363.4313     -137162.08    
    773200   2579.9133      632.90475      4438.1359     -137163.11    
    773300   2411.3272     -11027.414      4504.8817     -137158.83    
    773400   2423.9998      5576.0719      4521.5846     -137157.43    
    773500   2550.1643     -3490.4384      4541.1377     -137158.39    
    773600   2671.0452     -14602.757      4527.4333     -137160.47    
    773700   2527.603       11735.567      4449.6839     -137157.73    
    773800   2607.9836     -8398.0154      4393.389      -137163.3     
    773900   2530.0712     -1410.309       4315.9996     -137165.77    
    774000   2411.8184      2659.6578      4223.3771     -137167.25    
    774100   2354.6226      17991.168      4152.3054     -137168.75    
    774200   2394.7365      3677.0486      4196.6277     -137174.71    
    774300   2306.6801     -8547.65        4305.7795     -137172.49    
    774400   2486.8414     -3.6068159      4383.7903     -137167.52    
    774500   2430.1924     -4004.0668      4445.7406     -137161.01    
    774600   2492.437      -4551.8416      4453.5867     -137158.42    
    774700   2618.6224      1799.1726      4394.595      -137159.2     
    774800   2505.0528      2126.7402      4329.462      -137161.78    
    774900   2527.7097      4531.0142      4270.7839     -137170.42    
    775000   2408.4087      2681.4165      4252.1536     -137165.57    
    775100   2571.6229      10156.412      4282.4071     -137166.97    
    775200   2414.0375      4308.0744      4377.8893     -137160.58    
    775300   2770.6134      957.97751      4483.9379     -137158.67    
    775400   2580.776      -7538.0445      4588.616      -137152.6     
    775500   2396.5909     -10208.239      4635.3352     -137152.2     
    775600   2500.7431     -9356.6164      4582.3183     -137159       
    775700   2404.3403      11362.141      4467.3729     -137163.67    
    775800   2155.2524      4428.578       4379.9071     -137162.15    
    775900   2690.7359      6632.5969      4305.6883     -137166.98    
    776000   2584.5646      10234.819      4296.3783     -137158.53    
    776100   2676.5977      6812.9764      4342.532      -137163.82    
    776200   2354.9306     -5465.0263      4424.5448     -137162.03    
    776300   2350.2576     -11118.365      4463.0241     -137160.52    
    776400   2583.652       5686.8761      4429.8112     -137159.94    
    776500   2494.9714     -4689.8827      4400.6478     -137156.73    
    776600   2529.9605      9152.3829      4359.2045     -137160.13    
    776700   2491.9635      7685.5143      4361.438      -137165.12    
    776800   2462.4693     -7371.202       4410.2654     -137164.76    
    776900   2468.9271     -653.45935      4426.3505     -137162       
    777000   2671.2666      1353.6227      4426.9248     -137156.18    
    777100   2692.3836      6565.5826      4424.4373     -137156.38    
    777200   2644.3177     -9971.657       4448.7779     -137160.39    
    777300   2335.1794      8656.436       4450.688      -137155.91    
    777400   2484.3036     -1629.2017      4469.0651     -137164.19    
    777500   2299.8482     -4784.3377      4462.5316     -137165.15    
    777600   2383.7676      2043.064       4418.8315     -137164.86    
    777700   2892.6246      748.09712      4395.4644     -137168.68    
    777800   2540.9892      3657.083       4397.531      -137161.59    
    777900   2571.0724     -8122.0013      4405.6526     -137164.79    
    778000   2341.14       -2966.423       4376.765      -137160.78    
    778100   2535.4729      4606.1328      4345.6278     -137171.48    
    778200   2355.0134     -3235.2602      4380.5235     -137172.37    
    778300   2220.8562     -8550.4902      4461.8362     -137162.81    
    778400   2380.861      -3598.7645      4503.0993     -137159.56    
    778500   2559.2092     -4694.596       4482.5515     -137160.2     
    778600   2879.3867      4420.4455      4405.4768     -137167.37    
    778700   2439.5505      7460.7835      4371.3422     -137161.97    
    778800   2312.1709      5088.7468      4393.9349     -137162.6     
    778900   2600.7904      411.88922      4438.6567     -137166.59    
    779000   2533.8002     -11262.505      4486.2512     -137160.11    
    779100   2601.8799     -6848.1264      4494.731      -137161.77    
    779200   2409.3537     -7992.5507      4491.6917     -137159.88    
    779300   2489.6142      647.77816      4447.4038     -137162.95    
    779400   2669.9399      3133.8071      4400.2821     -137166.93    
    779500   2344.2524      1598.4511      4379.7111     -137162.27    
    779600   2511.5307      2534.461       4374.9701     -137170.24    
    779700   2426.6055     -6068.1415      4384.6404     -137170.93    
    779800   2474.0727      2536.3987      4394.6213     -137165.41    
    779900   2451.0796      2506.0758      4454.5296     -137158.11    
    780000   2636.0518     -6418.6134      4518.8537     -137160.18    
    780100   2522.5634     -11844.746      4531.073      -137158.05    
    780200   2477.2412      1007.6235      4468.7989     -137160.71    
    780300   2281.0397      1239.8942      4385.8173     -137161.89    
    780400   2465.7934      1550.0333      4325.5122     -137169.3     
    780500   2268.5825      15178.026      4288.144      -137162.43    
    780600   2537.5664      10722.224      4313.484      -137160.59    
    780700   2669.6511      1540.3803      4387.4252     -137165.15    
    780800   2471.6072     -11526.406      4483.0041     -137165.6     
    780900   2394.3743     -12737.675      4521.192      -137161.44    
    781000   2685.9043     -5031.3747      4473.2357     -137161.83    
    781100   2401.2936      2418.9848      4391.0242     -137154.32    
    781200   2701.7344      7792.7762      4307.1973     -137164.1     
    781300   2410.3251      4960.2752      4299.7667     -137162.79    
    781400   2362.2417      2358.7191      4339.887      -137164.85    
    781500   2401.2008     -850.73866      4386.564      -137163.19    
    781600   2651.326       4364.3542      4440.7912     -137158.94    
    781700   2546.9113     -8275.6183      4482.8643     -137157.97    
    781800   2403.4739      4157.9194      4464.9897     -137158.58    
    781900   2343.2999      1192.2869      4454.4174     -137160.65    
    782000   2292.4085      705.44476      4424.5821     -137161.99    
    782100   2588.7645      1384.9897      4365.3636     -137166.46    
    782200   2570.3171      5070.6309      4331.3549     -137160.64    
    782300   2595.9073     -5102.6409      4336.3974     -137164.88    
    782400   2351.0916     -2767.8618      4348.1353     -137165.25    
    782500   2430.6044      1071.4139      4337.7289     -137166.21    
    782600   2489.6314      2678.3763      4332.5645     -137164.6     
    782700   2569.421      -645.72919      4361.9287     -137166.35    
    782800   2497.4458     -5723.2532      4407.3018     -137165.99    
    782900   2398.1482     -17970.066      4431.0408     -137164.17    
    783000   2619.2431      3631.4668      4365.2614     -137163.2     
    783100   2788.5959     -3245.0274      4319.8051     -137162.6     
    783200   2648.5753      2654.5655      4302.448      -137164.21    
    783300   2519.5595     -6392.7234      4326.5277     -137165.91    
    783400   2440.7844     -2434.445       4349.5513     -137163.74    
    783500   2528.0499      6977.7365      4358.1759     -137164.54    
    783600   2621.8092      1129.5296      4386.1112     -137163.88    
    783700   2677.0133     -615.45624      4430.0372     -137160.13    
    783800   2616.3809     -6829.0995      4480.3487     -137162.55    
    783900   2316.7635     -9996.18        4498.9545     -137161.41    
    784000   2335.6314      446.9554       4439.3951     -137161.27    
    784100   2685.2594      5525.2763      4360.6198     -137164.78    
    784200   2614.0733      4917.2653      4332.2278     -137163.44    
    784300   2612.4357     -4479.8301      4347.4155     -137167.24    
    784400   2498.5789     -3256.5126      4365.3659     -137164.46    
    784500   2684.4497     -3593.7374      4363.2066     -137171.19    
    784600   2416.664       2171.7393      4361.7531     -137168.15    
    784700   2437.3587     -8211.675       4376.9139     -137166.12    
    784800   2535.1294      8418.4913      4357.3278     -137159.79    
    784900   2616.8982      5869.9062      4367.3464     -137162.71    
    785000   2466.0459     -8104.8874      4427.9585     -137163.21    
    785100   2339.4231      7876.5105      4452.7926     -137161.61    
    785200   2392.7944     -10737.603      4474.2409     -137160.35    
    785300   2272.9716      7336.2698      4425.2427     -137154.25    
    785400   2519.8563      3805.8874      4367.6461     -137161.58    
    785500   2442.157       4332.2718      4311.4908     -137163.48    
    785600   2438.6592     -875.69973      4267.2922     -137167.74    
    785700   2348.2575      13002.025      4216.8621     -137171.71    
    785800   2131.1552      4370.8146      4230.1188     -137172.11    
    785900   2356.4754      316.69247      4277.9172     -137169.64    
    786000   2380.7566      3377.3033      4330.0156     -137164.04    
    786100   2590.3402     -7949.3179      4403.5307     -137163.25    
    786200   2375.7064     -2758.9577      4458.1796     -137152.03    
    786300   2372.0038      11984.793      4474.8214     -137153.25    
    786400   2479.0451     -2488.9572      4498.3936     -137164.31    
    786500   2360.5089     -15794.37       4495.8798     -137162.14    
    786600   2547.049      -865.24538      4412.2524     -137163.1     
    786700   2658.1045      13372.23       4337.9323     -137165.01    
    786800   2389.5762      2586.6125      4335.7311     -137162.37    
    786900   2465.6039      4522.3182      4358.2799     -137168.97    
    787000   2208.9        -967.30431      4408.089      -137167.97    
    787100   2239.2141      2946.3524      4436.7838     -137165.2     
    787200   2464.3179     -2725.6272      4434.478      -137162.7     
    787300   2486.2484     -870.98796      4386.9337     -137160.28    
    787400   2589.9044      5596.2051      4313.17       -137164.98    
    787500   2381.2142      12988.332      4269.6735     -137166.44    
    787600   2355.7198      969.11348      4294.9077     -137167.61    
    787700   2495.5938     -6462.3763      4340.291      -137167.7     
    787800   2538.6092     -10810.6        4374.2178     -137166.35    
    787900   2417.4374      77.387705      4390.8011     -137160.41    
    788000   2598.0401      7088.59        4387.3457     -137163.01    
    788100   2501.6239     -2154.4626      4405.8907     -137165.31    
    788200   2192.1989     -5343.676       4408.052      -137163.44    
    788300   2501.4369      14159.357      4370.7866     -137166.86    
    788400   2366.8039      2153.7401      4381.9941     -137160.06    
    788500   2593.2178      213.4534       4388.9232     -137165       
    788600   2450.5156     -449.82395      4394.243      -137160.49    
    788700   2571.3285      180.22075      4389.2161     -137162.43    
    788800   2512.4683      15999.37       4361.3415     -137156.44    
    788900   2778.1402      4890.5104      4368.5791     -137165.39    
    789000   2267.8952     -1357.7254      4421.4895     -137160.39    
    789100   2386.1043     -11670.58       4472.7434     -137160.63    
    789200   2608.7894      1531.4053      4481.879      -137160.38    
    789300   2581.5167     -5125.7123      4480.0306     -137160.49    
    789400   2453.4385      4537.5343      4450.8437     -137160.2     
    789500   2559.4107     -591.9115       4426.3044     -137162.8     
    789600   2639.3273      8655.4407      4409.5501     -137158.65    
    789700   2641.5685     -8120.0393      4416.6722     -137160.19    
    789800   2420.9319     -685.42095      4395.5483     -137160.38    
    789900   2592.3575     -483.82495      4370.8286     -137169.11    
    790000   2436.3454      3295.257       4358.5566     -137167.37    
    790100   2479.3452     -1869.7768      4372.3028     -137164.74    
    790200   2545.3179     -553.3022       4394.9345     -137157.54    
    790300   2775.4533      1490.3681      4425.339      -137163.14    
    790400   2538.1949     -14446.758      4486.5692     -137164.05    
    790500   2480.3797     -7973.0276      4497.5269     -137165.14    
    790600   2537.557      -8345.9807      4458.4372     -137163.5     
    790700   2606.5847      2385.0469      4392.17       -137162.55    
    790800   2454.6189     -1808.8205      4341.0003     -137160.46    
    790900   2752.3368      2524.8621      4275.6188     -137170.78    
    791000   2438.9441      2940.9378      4254.1085     -137167.03    
    791100   2385.6231     -5460.7602      4269.1881     -137168.64    
    791200   2425.2651      4360.2392      4277.9915     -137167.95    
    791300   2645.4825      11690.055      4324.1799     -137163.68    
    791400   2590.077      -5380.8674      4416.901      -137163.35    
    791500   2450.0457     -9713.3292      4484.4092     -137164.66    
    791600   2321.8129     -8027.3174      4502.5898     -137163.23    
    791700   2569.0966      12696.639      4480.9106     -137162.99    
    791800   2535.1652     -144.67143      4494.4093     -137154.26    
    791900   2612.1138      1430.9002      4476.986      -137157.16    
    792000   2516.1977     -168.97497      4452.5354     -137161.74    
    792100   2320.5847      2110.3966      4421.0436     -137160.62    
    792200   2623.4305      5730.286       4371.2345     -137166.81    
    792300   2608.0534      5074.7612      4340.9513     -137167.69    
    792400   2325.9316      4201.7402      4341.8154     -137165.2     
    792500   2326.7653      2912.356       4346.6724     -137169.6     
    792600   2558.9288     -3828.621       4357.9699     -137171.81    
    792700   2649.7866      6570.8525      4372.7374     -137165.92    
    792800   2547.6493     -6419.0612      4435.382      -137160.31    
    792900   2618.247      -3527.9         4467.6136     -137163.78    
    793000   2172.5821     -9137.4849      4455.1142     -137158.3     
    793100   2402.3742     -1719.2143      4356.0167     -137166.5     
    793200   2774.4112      19454.942      4244.6842     -137170.42    
    793300   2617.2996      12959.831      4256.9811     -137165.26    
    793400   2303.497       4698.1625      4366.8637     -137164.28    
    793500   2335.6998     -10442.033      4496.1094     -137164.82    
    793600   2535.6326      218.60004      4561.1189     -137160.03    
    793700   2375.1168     -7367.7993      4601.052      -137153.21    
    793800   2631.0866     -9404.601       4570.0445     -137156.81    
    793900   2734.7965     -5162.4657      4456.2666     -137160.76    
    794000   2405.9892      91.930698      4316.1297     -137161.55    
    794100   2481.0428      17749.687      4223.6968     -137165.73    
    794200   2505.4903      8638.221       4243.8149     -137168.88    
    794300   2413.6161     -3090.5901      4337.233      -137166.11    
    794400   2680.8283     -4628.8869      4421.7033     -137162.98    
    794500   2647.4678     -11179.389      4481.058      -137159.23    
    794600   2609.1755      162.12205      4494.2809     -137160.98    
    794700   2283.5189      1213.9703      4501.4614     -137159.52    
    794800   2257.2012     -5240.687       4492.0644     -137166.03    
    794900   2351.6617     -5696.7154      4434.7831     -137164.87    
    795000   2645.9106     -817.65529      4341.5577     -137163.21    
    795100   2565.9019      13008.825      4271.5863     -137161.49    
    795200   2374.556       7857.7388      4275.2092     -137164.17    
    795300   2410.5595      7712.6188      4301.2033     -137168.38    
    795400   2244.2334      9323.8192      4334.7217     -137160.45    
    795500   2613.5003      4287.3503      4368.4009     -137162.67    
    795600   2607.7433      1286.2708      4399.1091     -137163.5     
    795700   2502.5246      838.33992      4406.1536     -137163.47    
    795800   2500.7778     -5176.7076      4379.2063     -137168.42    
    795900   2452.9525      2546.9159      4335.0511     -137168.29    
    796000   2666.3471      12537.633      4309.1979     -137167.39    
    796100   2663.7426      2151.1481      4340.5669     -137160.05    
    796200   2674.6133      1464.2149      4388.4772     -137164.71    
    796300   2426.5        -9379.2766      4447.2051     -137159.13    
    796400   2534.9928      533.76301      4444.6371     -137160.68    
    796500   2399.6279      3678.8119      4413.2665     -137155.85    
    796600   2377.7974      463.34765      4383.3963     -137159.64    
    796700   2439.0847      2492.3199      4362.7834     -137166.2     
    796800   2296.5041      8061.5099      4351.3915     -137162.44    
    796900   2614.6448      7304.4877      4345.339      -137163.31    
    797000   2574.7296      3514.8448      4364.3387     -137160.44    
    797100   2425.2478      2945.4147      4403.7061     -137165.75    
    797200   2200.78       -8523.259       4454.5592     -137162.67    
    797300   2409.5595      1991.832       4475.0962     -137161.19    
    797400   2602.9586      2722.0186      4508.7318     -137161.3     
    797500   2547.2787     -5525.732       4545.8049     -137159.02    
    797600   2309.5651     -12611.805      4525.1124     -137156.36    
    797700   2282.35        7831.7919      4387.5479     -137161.53    
    797800   2518.5273      12045.111      4254.834      -137166.02    
    797900   2831.4703      20702.022      4198.1353     -137171.69    
    798000   2343.3374     -1787.654       4261.6814     -137166.93    
    798100   2186.9415     -1699.3956      4336.8868     -137163.45    
    798200   2654.1277     -6379.0976      4391.0197     -137168.9     
    798300   2549.444       2686.4381      4441.958      -137164.39    
    798400   2473.844      -11039.298      4502.6239     -137162.17    
    798500   2536.1395     -12883.784      4482.5217     -137162.23    
    798600   2616.948       7173.7813      4397.7133     -137159.76    
    798700   2689.1401      4119.9113      4341.0514     -137161.86    
    798800   2375.3932      10646.505      4293.6441     -137163.22    
    798900   2378.1385      1905.8564      4298.5128     -137165.78    
    799000   2316.8911      1336.8097      4304.5179     -137161.92    
    799100   2598.2         8556.5153      4333.2357     -137162.47    
    799200   2655.6825     -5284.2869      4412.409      -137165       
    799300   2524.7612     -15100.467      4457.6313     -137164.37    
    799400   2770.7319     -7943.2987      4426.1796     -137169.97    
    799500   2320.3528      11315.325      4366.1698     -137157.77    
    799600   2510.0595     -455.53533      4347.7089     -137163.09    
    799700   2541.6418      3080.2151      4338.3805     -137164.34    
    799800   2619.8194      1587.3546      4368.1644     -137162.35    
    799900   2573.1212     -4328.5971      4433.9823     -137158.55    
    800000   2507.3807     -8632.2851      4511.3446     -137159.04    
    800100   2336.2572     -13728.604      4544.142      -137158.73    
    800200   2327.3135     -3282.5707      4470.4711     -137159.77    
    800300   2532.02        10195.604      4356.1213     -137159.2     
    800400   2851.2001      7396.5767      4300.854      -137160.94    
    800500   2600.8389      11582.644      4347.8115     -137160.23    
    800600   2495.6285     -14553.857      4443.8616     -137163.02    
    800700   2340.2185     -5037.3728      4460.9609     -137158.31    
    800800   2671.1255      14664.775      4404.89       -137161.41    
    800900   2580.1778      5175.2032      4388.9719     -137159.35    
    801000   2512.409      -336.33772      4412.4448     -137166.39    
    801100   2204.2284     -3479.3209      4419.1632     -137161.95    
    801200   2503.5722     -3161.6924      4402.6039     -137166.21    
    801300   2708.9878      2329.7752      4379.0857     -137167.65    
    801400   2615.0267      3705.8211      4387.4208     -137164.98    
    801500   2183.0553     -3376.9762      4427.4552     -137161.34    
    801600   2323.2966     -3092.1172      4427.3443     -137166.67    
    801700   2428.5831      4545.5326      4413.9271     -137162.55    
    801800   2542.5667     -4060.5484      4421.2956     -137163.41    
    801900   2553.9531      598.29067      4411.3216     -137164.67    
    802000   2300.9447     -6637.2509      4377.2533     -137162.2     
    802100   2437.8122      1703.5644      4285.0088     -137167.23    
    802200   2482.7798      13928.548      4192.4737     -137165.8     
    802300   2459.4075      21297.938      4186.9598     -137162.81    
    802400   2550.1252     -3420.8962      4279.8092     -137165.21    
    802500   2462.7504     -3811.3028      4383.3199     -137162.38    
    802600   2488.0826     -6314.8263      4469.0097     -137158.29    
    802700   2749.7032     -2393.3769      4518.8227     -137158.51    
    802800   2608.3517      3110.4582      4543.9623     -137157.53    
    802900   2385.4431     -6466.206       4565.0069     -137159.44    
    803000   2377.4784     -2943.8128      4530.5889     -137159.81    
    803100   2559.24       -11262.811      4432.9558     -137162.67    
    803200   2607.1819      16149.894      4296.846      -137162.08    
    803300   2388.847       10949.51       4269.4379     -137163.79    
    803400   2330.0989     -1603.9299      4319.8336     -137167.69    
    803500   2302.7768      7097.5438      4371.7573     -137163.54    
    803600   2484.3778     -6621.2672      4415.7095     -137162.04    
    803700   2552.1811     -5249.4359      4420.5305     -137161.84    
    803800   2488.3699      756.25093      4394.4021     -137162.86    
    803900   2319.8323     -987.70317      4355.1324     -137161.42    
    804000   2307.268       6513.9493      4315.0767     -137160.07    
    804100   2535.4641      13805.896      4320.9612     -137158.86    
    804200   2666.9713      2179.5278      4387.3283     -137161.26    
    804300   2379.9464     -3025.6845      4485.4323     -137160.08    
    804400   2336.8258     -8718.8262      4559.5373     -137162.12    
    804500   2460.5482     -8197.8052      4536.8373     -137159.69    
    804600   2660.7344      9697.8976      4468.866      -137156.76    
    804700   2574.5465      630.38688      4446.8463     -137159.07    
    804800   2555.6469     -10626.798      4427.8972     -137164.23    
    804900   2667.7485      1532.3186      4377.1374     -137171.18    
    805000   2281.9048     -3216.8275      4325.3203     -137163.86    
    805100   2466.3067      7924.6746      4264.7641     -137163.05    
    805200   2694.8441      16097.928      4254.5364     -137160.97    
    805300   2639.9966      4974.7863      4343.6289     -137163.9     
    805400   2356.3489     -10507.606      4436.2607     -137161.61    
    805500   2536.6765     -4621.1317      4458.1152     -137165.64    
    805600   2450.0453     -3561.1445      4459.4476     -137160.38    
    805700   2562.9937     -6124.0102      4444.9217     -137161.08    
    805800   2585.9298      1432.0637      4421.8716     -137161.46    
    805900   2370.5592     -4001.508       4410.0772     -137157.54    
    806000   2505.8659     -700.31791      4385.6397     -137163.41    
    806100   2334.5206      12950.757      4346.5099     -137163.06    
    806200   2443.1365      3670.6443      4340.1493     -137168.26    
    806300   2342.6223     -288.48411      4365.4773     -137164.45    
    806400   2505.9987      1990.2239      4390.1054     -137161.41    
    806500   2616.4551      2680.1539      4402.822      -137161.43    
    806600   2478.3975     -3852.2082      4410.3191     -137162.63    
    806700   2368.6631     -3069.6275      4406.5109     -137167.02    
    806800   2419.7009      2618.9863      4383.76       -137167.6     
    806900   2427.392       11240.885      4355.9557     -137163.69    
    807000   2464.1945     -7131.2792      4356.6688     -137162.31    
    807100   2612.9933      8871.5323      4346.1833     -137165.71    
    807200   2451.889      -7166.739       4403.3346     -137164.46    
    807300   2387.5147     -7661.2366      4431.8872     -137166.41    
    807400   2476.8527     -1528.8515      4405.5728     -137166.56    
    807500   2568.1302      6221.8436      4359.1565     -137161.06    
    807600   2790.6382      3478.8974      4340.6208     -137166.49    
    807700   2302.8137      395.58378      4357.3411     -137161.32    
    807800   2438.065       5082.2309      4375.9937     -137165.65    
    807900   2497.9015     -10381.307      4411.5889     -137164.16    
    808000   2622.5203     -5602.7218      4424.841      -137164.41    
    808100   2405.9904      3405.9186      4414.4873     -137158.48    
    808200   2381.6413      4345.7105      4413.2449     -137158.47    
    808300   2451.8399     -7712.2745      4420.3483     -137162.87    
    808400   2461.5729      1603.5734      4371.062      -137165.6     
    808500   2464.5021      2943.8065      4309.5836     -137165.65    
    808600   2630.0726      3980.4723      4262.5766     -137164.16    
    808700   2761.7697      5730.2304      4252.3546     -137164.64    
    808800   2401.2407     -1143.675       4299.0959     -137164.41    
    808900   2486.0855     -7400.6074      4359.9671     -137168.9     
    809000   2477.569      -3633.4822      4405.4056     -137165.99    
    809100   2499.9576     -2004.0549      4430.1813     -137161.51    
    809200   2615.843      -4550.6906      4447.3336     -137159.4     
    809300   2725.6095     -1347.5697      4448.8568     -137158.71    
    809400   2647.3646      8236.6427      4430.8916     -137163.27    
    809500   2398.5614     -4788.8818      4450.2622     -137161.9     
    809600   2395.4372      5534.5545      4444.0029     -137159.47    
    809700   2663.0643     -12148.146      4433.2751     -137161.39    
    809800   2504.9462      1056.3727      4358.6072     -137158.75    
    809900   2448.8406      2398.5874      4278.4135     -137166.44    
    810000   2465.9        -603.63398      4239.5293     -137170.19    
    810100   2459.5459      14162.087      4239.3207     -137166.62    
    810200   2489.6407      8067.4017      4309.6997     -137163.48    
    810300   2763.1547     -9488.5611      4409.334      -137160.57    
    810400   2660.2823     -4538.8582      4479.514      -137155.08    
    810500   2451.3673     -8176.1701      4509.8273     -137156.71    
    810600   2564.2157     -797.94681      4454.3356     -137164.9     
    810700   2506.1261      847.50495      4395.1323     -137166.06    
    810800   2434.0975     -6881.4778      4353.749      -137163.78    
    810900   2563.2965      10521.959      4303.9323     -137160.63    
    811000   2747.6046      9884.2392      4300.531      -137159.4     
    811100   2488.8151      3363.6984      4343.1425     -137160.73    
    811200   2411.071      -8458.8467      4429.9321     -137162.6     
    811300   2514.4341     -12015.204      4497.669      -137163.8     
    811400   2503.7406     -3839.5333      4506.5427     -137159.25    
    811500   2713.653      -9575.2533      4493.3413     -137160.99    
    811600   2457.7844     -2667.3952      4454.466      -137160.17    
    811700   2279.9589     -49.840489      4386.7531     -137161.97    
    811800   2543.6705      11204.504      4316.8143     -137169.25    
    811900   2451.0365      6367.4973      4313.1669     -137165.09    
    812000   2430.7833      16476.131      4362.8493     -137159.41    
    812100   2764.3127     -7397.4896      4460.6131     -137163.31    
    812200   2450.4907     -15087.844      4523.7196     -137156.02    
    812300   2438.1317     -6604.4351      4490.466      -137159.67    
    812400   2469.0339      667.75254      4401.7346     -137163.92    
    812500   2426.0265      9010.6181      4334.8815     -137165.99    
    812600   2392.1811      1886.5486      4348.5945     -137164.99    
    812700   2583.29       -1751.5624      4382.4328     -137162.94    
    812800   2639.8663      5804.4723      4430.5415     -137160.32    
    812900   2499.7206      26.524716      4474.2997     -137161.08    
    813000   2439.4055     -6584.8189      4481.2321     -137162.1     
    813100   2410.0813      4347.3244      4444.198      -137162.34    
    813200   2515.2124     -1639.5425      4420.2499     -137164.52    
    813300   2513.9362     -1380.8524      4397.6842     -137163.33    
    813400   2473.6866     -3566.1436      4374.6478     -137161.48    
    813500   2714.414       877.61611      4350.1291     -137165.12    
    813600   2715.9109      2593.6876      4355.5474     -137165.65    
    813700   2285.8827     -6995.5924      4375.2626     -137162.79    
    813800   2443.6474      5505.9374      4364.9767     -137166.36    
    813900   2411.2332     -354.52449      4372.1339     -137162.69    
    814000   2662.6504     -1937.0582      4382.0359     -137161.07    
    814100   2789.9096      2595.1099      4398.1328     -137162.82    
    814200   2600.7377      30.266357      4419.2571     -137162.38    
    814300   2318.14        3946.0284      4435.7928     -137159.65    
    814400   2351.6137     -8685.1091      4436.6778     -137162.37    
    814500   2644.566      -7496.2956      4375.0301     -137165.72    
    814600   2635.5052      22293.664      4271.1754     -137162.45    
    814700   2490.1816      16679.79       4245.262      -137169.03    
    814800   2310.1397     -2496.0319      4327.2592     -137167.44    
    814900   2609.5097     -8280.0147      4444.9284     -137168.64    
    815000   2418.0453     -10769.236      4511.4126     -137158.6     
    815100   2668.9459     -7761.1101      4480.5675     -137161.93    
    815200   2387.3907      6648.2047      4409.3794     -137155.71    
    815300   2359.486      -4735.9134      4350.2915     -137166.82    
    815400   2434.0906      4579.98        4271.877      -137169.58    
    815500   2478.6492      8543.2278      4226.1833     -137165.37    
    815600   2564.4711      7041.6639      4241.0729     -137162.83    
    815700   2611.5722      5519.7571      4316.1806     -137167.21    
    815800   2322.9279     -10431.041      4447.5878     -137162.54    
    815900   2423.4485     -10099.674      4509.994      -137162.88    
    816000   2380.9835     -5995.225       4468.5036     -137158.48    
    816100   2662.3418      13046.302      4384.776      -137161.45    
    816200   2505.9159      2404.0156      4367.4832     -137162.63    
    816300   2465.8596      1288.4316      4358.8941     -137167.4     
    816400   2411.9588      2813.0779      4351.7486     -137164.88    
    816500   2529.345      -1014.0451      4368.5406     -137163.9     
    816600   2717.204      -152.3926       4415.4565     -137162.46    
    816700   2776.1166     -5702.1995      4473.2012     -137158.27    
    816800   2604.6538     -12266.83       4486.7424     -137159.01    
    816900   2403.4646     -7759.591       4434.7919     -137161.38    
    817000   2503.5358      3101.9099      4364.5797     -137163.9     
    817100   2549.4384      9016.8234      4296.4221     -137162.33    
    817200   2584.4221      17177.589      4265.9545     -137162.75    
    817300   2257.1403      5154.4083      4304.754      -137163.97    
    817400   2241.4559      523.28186      4352.315      -137164.28    
    817500   2459.2218     -1369.199       4408.7447     -137163.57    
    817600   2569.1046     -6376.9011      4448.7354     -137161.75    
    817700   2567.8015     -3397.4701      4438.8561     -137160.84    
    817800   2541.0329     -1581.5292      4398.2653     -137164.64    
    817900   2412.5454     -5255.9592      4365.1106     -137167.59    
    818000   2431.1485     -3578.9303      4353.1407     -137166.85    
    818100   2722.4056     -2762.5346      4346.2468     -137163       
    818200   2808.3362      7209.8583      4351.9445     -137166.34    
    818300   2441.9509     -7095.3034      4405.8294     -137163.75    
    818400   2367.6241     -6149.8098      4416.0637     -137163.31    
    818500   2547.2297     -1885.0528      4379.6067     -137163.14    
    818600   2792.9247      3477.9565      4349.8919     -137163.42    
    818700   2554.7878     -2223.3367      4365.2167     -137163.26    
    818800   2435.5103      941.19338      4384.9103     -137161.97    
    818900   2610.7828     -2745.2542      4376.5987     -137165.53    
    819000   2441.9724      13157.337      4361.0197     -137161.8     
    819100   2416.3431     -9072.4593      4392.7396     -137161.3     
    819200   2644.9588     -5926.4547      4375.689      -137162.76    
    819300   2719.8391     -3893.0952      4346.5231     -137162.73    
    819400   2423.8108      6863.7561      4320.6707     -137163.22    
    819500   2519.162       1626.8735      4307.0941     -137170.45    
    819600   2437.524      -1882.7756      4297.5705     -137167.31    
    819700   2516.2133      12296.868      4281.2498     -137164.68    
    819800   2807.4813      2304.422       4313.4287     -137166.31    
    819900   2618.7911      10011.18       4398.4729     -137161.8     
    820000   2196.3313     -1419.3705      4525.6882     -137157.08    
    820100   2328.9215     -17519.089      4589.0273     -137160.14    
    820200   2734.5705     -10669.649      4536.8807     -137165.27    
    820300   2641.6561     -3235.2136      4423.6997     -137163.74    
    820400   2463.1622      14947.016      4319.11       -137168.22    
    820500   2390.8152      3311.8328      4307.9009     -137168.57    
    820600   2453.6361      498.9418       4335.7775     -137166.7     
    820700   2373.4404      10153.108      4371.0417     -137157.91    
    820800   2593.662      -238.5727       4417.3833     -137161.15    
    820900   2470.567       1071.4008      4455.0359     -137160.27    
    821000   2471.4815     -17257.1        4482.9633     -137162.79    
    821100   2712.3979      2125.9928      4443.7031     -137165.31    
    821200   2798.0609     -650.15055      4435.2409     -137157.1     
    821300   2713.6811     -7583.4936      4436.0054     -137162.39    
    821400   2435.2744     -2733.775       4413.8863     -137162.04    
    821500   2347.1024      5722.6229      4373.7708     -137161.8     
    821600   2700.1334     -1675.0912      4348.4995     -137169.47    
    821700   2642.8527      2838.9755      4356.328      -137164.64    
    821800   2629.5272      7928.4455      4400.6105     -137160.5     
    821900   2481.5365     -8709.7389      4482.8317     -137157.58    
    822000   2426.5012     -14577.103      4535.7899     -137158.64    
    822100   2440.3473     -11066.67       4508.9688     -137158.08    
    822200   2801.2177      92.622851      4413.6872     -137163.01    
    822300   2470.0806      2821.4118      4343.2892     -137161.81    
    822400   2528.2009      18149.17       4326.8379     -137168.21    
    822500   2446.191      -9176.0861      4407.9722     -137165.99    
    822600   2465.8371     -3040.4919      4460.6183     -137160.96    
    822700   2681.161       1492.2398      4482.0065     -137160.3     
    822800   2497.1118     -13617.781      4485.3434     -137158.3     
    822900   2499.2807     -10039.032      4423.3078     -137161.77    
    823000   2501.4718      6987.3747      4333.2311     -137164.37    
    823100   2478.5794      4098.4146      4298.7545     -137164.52    
    823200   2461.6909      9780.3236      4319.7473     -137163.17    
    823300   2475.6097     -8484.6708      4380.9938     -137162.96    
    823400   2506.3445     -6108.3528      4394.7438     -137164.68    
    823500   2448.7438      1977.4193      4388.4892     -137160.88    
    823600   2716.9409      2814.8344      4387.6185     -137163.37    
    823700   2556.9933      4613.0452      4409.4981     -137162.8     
    823800   2396.7133     -14436.055      4457.4945     -137165.63    
    823900   2425.3032     -6152.9492      4422.4975     -137165.08    
    824000   2535.3922      4615.6236      4331.7337     -137160.57    
    824100   2636.6167      10107.011      4289.6156     -137161.76    
    824200   2678.5529     -1718.5241      4324.8637     -137167.92    
    824300   2379.3298     -3455.2725      4371.7905     -137164.71    
    824400   2396.0584     -2833.5077      4392.5108     -137162.78    
    824500   2612.3077     -542.3539       4387.3367     -137160.56    
    824600   2488.9437      1818.6174      4376.3971     -137157.97    
    824700   2742.8721      6082.5482      4368.2007     -137168.91    
    824800   2432.1754      3139.2208      4408.2655     -137165.94    
    824900   2254.8464     -10000.715      4445.053      -137159.96    
    825000   2546.7805     -12688.431      4416.1347     -137164.06    
    825100   2506.9742      13007.724      4372.5816     -137161.69    
    825200   2544.7189      93.40001       4396.6251     -137163.59    
    825300   2183.679       4985.9728      4413.0762     -137161.25    
    825400   2185.7043     -394.78094      4412.3418     -137164.91    
    825500   2468.5356      4288.3564      4381.1939     -137164.18    
    825600   2577.5291      7935.631       4380.5718     -137162.5     
    825700   2450.6508     -10934.743      4413.8655     -137162.81    
    825800   2563.4697     -15276.861      4385.2407     -137168.97    
    825900   2598.4547     -2833.3223      4295.3095     -137170.62    
    826000   2252.6258      16324.447      4238.9792     -137162.7     
    826100   2489.456       9343.9182      4259.329      -137167.27    
    826200   2822.7851      9872.1043      4346.436      -137170.42    
    826300   2555.17       -9239.0258      4492.0253     -137162.17    
    826400   2451.8191     -13816.274      4569.85       -137161.1     
    826500   2325.8597     -4426.5212      4550.1755     -137160.6     
    826600   2445.0215      1199.5593      4499.211      -137160.65    
    826700   2738.2231     -476.33228      4484.1763     -137162.26    
    826800   2552.27       -7960.9875      4476.9985     -137158.75    
    826900   2476.9459      532.6098       4437.9452     -137164.85    
    827000   2235.8662      8579.4044      4411.7967     -137162.67    
    827100   2397.0882      2909.7366      4432.7479     -137164.03    
    827200   2453.9023     -4456.9945      4471.9507     -137162.93    
    827300   2517.437       3800.9658      4444.3327     -137161.93    
    827400   2618.1982     -487.83924      4406.0806     -137160.36    
    827500   2814.5832      5758.0158      4390.6475     -137160.57    
    827600   2711.1112      3527.4328      4400.7885     -137163.07    
    827700   2252.2585     -10342.048      4425.5935     -137158.23    
    827800   2431.0461     -652.05654      4377.6494     -137162.81    
    827900   2485.8741      6342.7291      4327.4732     -137160.82    
    828000   2734.7528      13187.154      4348.4135     -137162.34    
    828100   2596.9783      704.67102      4449.0374     -137158.74    
    828200   2387.1626     -9637.8613      4535.1944     -137161.46    
    828300   2455.4769     -6714.8859      4560.5704     -137163.25    
    828400   2597.4199     -1949.0456      4512.9139     -137162.31    
    828500   2629.8655      3465.7696      4408.5352     -137165.05    
    828600   2352.231       5324.9868      4317.5738     -137168.11    
    828700   2392.1634      9959.3867      4261.0196     -137168.18    
    828800   2564.7657      3818.7611      4273.7637     -137168.08    
    828900   2610.9847      8536.5074      4344.1312     -137167.03    
    829000   2509.3221     -12470.052      4443.9561     -137165.25    
    829100   2369.0042     -4296.7405      4472.8913     -137164.52    
    829200   2462.1934      3676.7168      4470.5352     -137163.59    
    829300   2563.327      -8883.5763      4466.287      -137160.4     
    829400   2627.4802      969.66516      4432.517      -137159.13    
    829500   2609.3573     -575.0421       4413.3413     -137159.7     
    829600   2397.4365     -5582.0155      4426.078      -137163.72    
    829700   2307.847      -3120.1429      4425.6542     -137162.86    
    829800   2419.1032      4028.0787      4385.6078     -137158.67    
    829900   2533.7554      7689.9146      4337.7399     -137159.27    
    830000   2510.2863      11485.673      4324.9523     -137161.81    
    830100   2455.7264      2463.8531      4356.4925     -137165.62    
    830200   2323.5028      1202.1439      4391.3944     -137163.4     
    830300   2722.4565     -1201.6889      4414.1554     -137164.06    
    830400   2724.7785     -1420.688       4433.3858     -137160.18    
    830500   2663.51       -10587.238      4443.6585     -137165.47    
    830600   2441.125      -2866.9224      4430.4279     -137164.21    
    830700   2568.1342      560.25404      4403.196      -137167.15    
    830800   2441.3105     -2343.0896      4391.9518     -137161.92    
    830900   2695.4528      3767.0602      4377.9979     -137159.25    
    831000   2574.2287      12152.215      4375.406      -137154.01    
    831100   2339.1408     -14908.977      4399.6761     -137155.85    
    831200   2339.7071      5257.8365      4369.1856     -137157.66    
    831300   2287.3957      5330.6786      4363.1872     -137154.89    
    831400   2538.8754      1611.8193      4381.4439     -137159.35    
    831500   2452.5372      5073.2958      4413.0047     -137156.38    
    831600   2437.3897     -13130.075      4428.8305     -137162.34    
    831700   2385.6448     -2925.4267      4392.6685     -137163.41    
    831800   2506.106       1351.657       4333.355      -137163.53    
    831900   2690.7607      20316.284      4275.6334     -137163.37    
    832000   2469.1282      5445.8114      4307.4954     -137163.84    
    832100   2501.6527     -1813.9193      4362.0599     -137171.55    
    832200   2338.0901     -3227.1886      4400.902      -137165.3     
    832300   2343.9979      3799.3473      4423.0437     -137157.97    
    832400   2599.6986      1115.0801      4438.5624     -137162.35    
    832500   2591.0908     -3360.6064      4458.48       -137162.01    
    832600   2468.4666     -8417.492       4470.4535     -137162.23    
    832700   2207.9237     -8546.1894      4453.9269     -137163.2     
    832800   2266.9218     -1402.8531      4375.555      -137166.46    
    832900   2640.3267      5010.3546      4285.9004     -137167.05    
    833000   2751.4138     -2423.6599      4239.9727     -137168.45    
    833100   2547.3098      7373.1279      4219.9158     -137167.2     
    833200   2389.6034      7211.8431      4245.7871     -137166.84    
    833300   2340.7652      4398.877       4318.5834     -137164.72    
    833400   2585.1636      5761.694       4386.4897     -137159.79    
    833500   2727.2036     -11477.07       4446.0392     -137162.65    
    833600   2507.2618     -12997.879      4457.5603     -137163.25    
    833700   2414.7585     -3074.5952      4385.7418     -137165.2     
    833800   2548.6423      4095.064       4278.9856     -137167.12    
    833900   2494.7389      19667.43       4221.7958     -137162.89    
    834000   2519.2023      7851.5536      4256.0942     -137165.22    
    834100   2526.8354      2420.3775      4335.5675     -137167.75    
    834200   2408.5972     -9034.7622      4438.4947     -137163.15    
    834300   2516.7785      326.67106      4472.1859     -137160.3     
    834400   2585.3039      1753.1493      4482.367      -137157.93    
    834500   2527.4264     -4425.6396      4511.2975     -137159.65    
    834600   2264.4136     -3776.7216      4500.5321     -137160.94    
    834700   2453.7143     -3230.3047      4451.0312     -137164.16    
    834800   2528.7147      6726.6653      4395.5701     -137163.08    
    834900   2556.6991     -2154.7582      4349.6626     -137163.52    
    835000   2388.3663      2696.2608      4306.4723     -137160.49    
    835100   2655.5613      7781.0265      4295.1104     -137169.87    
    835200   2318.0162      3311.7024      4341.2533     -137165.38    
    835300   2421.109      -10533.698      4398.6492     -137165.37    
    835400   2686.2438     -1089.9467      4399.8067     -137163.57    
    835500   2593.1218      427.2024       4396.2111     -137161.56    
    835600   2522.8157     -3693.7844      4413.9197     -137162.96    
    835700   2511.0433     -11424.399      4441.6003     -137164.08    
    835800   2417.0888     -1770.1946      4422.6992     -137165.45    
    835900   2102.6802      1216.9154      4375.0521     -137162.82    
    836000   2383.0583      832.33608      4325.9765     -137166.53    
    836100   2477.2677      15097.928      4301.6507     -137162.09    
    836200   2454.2632     -458.29029      4330.0772     -137159.35    
    836300   2566.1454      7079.4296      4364.2552     -137164.74    
    836400   2214.4488     -16165.008      4428.435      -137165.54    
    836500   2289.8045     -8335.2924      4395.1823     -137167.91    
    836600   2553.7591      2635.7466      4328.5353     -137168.87    
    836700   2595.8987      9611.2039      4304.6977     -137165.98    
    836800   2471.9133      2512.8265      4342.0767     -137161.5     
    836900   2592.3433      3006.405       4401.9938     -137165.49    
    837000   2361.7741     -11404.852      4450.8535     -137165.59    
    837100   2409.7416     -8939.7528      4417.3966     -137168.19    
    837200   2671.6223      2105.8909      4361.383      -137167.26    
    837300   2517.3585      3866.4857      4341.8597     -137162.24    
    837400   2505.29        5860.2942      4353.3306     -137163.33    
    837500   2528.1145     -8048.6031      4398.4243     -137163.62    
    837600   2409.2607      207.26601      4413.6531     -137160.87    
    837700   2465.7824      332.42076      4414.6582     -137166.76    
    837800   2273.9514      970.07232      4412.2818     -137166.68    
    837900   2327.6329      2170.9867      4416.7368     -137165.01    
    838000   2538.0812      1129.1148      4413.1979     -137162.28    
    838100   2518.0971      5122.9921      4415.8212     -137159.33    
    838200   2465.7866      1877.6621      4451.0618     -137162.34    
    838300   2335.7711     -7153.9648      4492.7881     -137161.55    
    838400   2660.5739     -8927.908       4484.5518     -137161.64    
    838500   2765.6847      12352.947      4435.9795     -137159.92    
    838600   2565.6265      1397.511       4454.9315     -137161.35    
    838700   2515.3117     -12509.639      4492.1891     -137163.73    
    838800   2365.935       7652.2397      4485.7869     -137159.65    
    838900   2482.3355      2309.482       4489.2452     -137156.21    
    839000   2753.6329      9229.7651      4473.9671     -137156.9     
    839100   2433.1377      28.800842      4506.7475     -137154.41    
    839200   2534.6379      1530.2157      4531.938      -137159.93    
    839300   2626.4187     -7002.1373      4518.4084     -137162.81    
    839400   2400.7098     -1617.3375      4478.7558     -137157.62    
    839500   2501.8856     -1791.1565      4428.8401     -137165.46    
    839600   2186.5047      12588.688      4370.0724     -137161.53    
    839700   2451.4714      7295.2362      4354.5402     -137161.76    
    839800   2524.4388      4962.5193      4385.6976     -137160.08    
    839900   2588.4747      4184.8671      4439.4875     -137161.93    
    840000   2445.8244     -14587.812      4491.0691     -137163.01    
    840100   2427.474      -6603.0601      4456.2628     -137164.75    
    840200   2479.1565      12203.22       4371.6189     -137158.36    
    840300   2859.4938     -957.76942      4331.7375     -137160.95    
    840400   2601.5052      11763.967      4304.0566     -137161.41    
    840500   2450.4626      2272.2259      4340.3051     -137163.97    
    840600   2395.9957     -8015.0462      4414.7721     -137163.33    
    840700   2502.603      -10364.873      4455.1441     -137160.05    
    840800   2811.5943     -9977.053       4430.3055     -137164.36    
    840900   2644.0514      4639.095       4364.5427     -137164.75    
    841000   2509.684       7027.6517      4346.186      -137165.05    
    841100   2509.6224     -2396.2244      4408.7725     -137165.47    
    841200   2356.9338     -8784.5473      4475.9966     -137157.55    
    841300   2589.7633     -2676.0534      4492.6383     -137156.49    
    841400   2560.8545     -1107.9837      4465.9291     -137155.69    
    841500   2556.1665      1042.5122      4413.7044     -137162       
    841600   2504.2092      5425.7855      4368.1008     -137163.76    
    841700   2402.3433      5309.1845      4342.4945     -137160.26    
    841800   2563.5323      8201.0947      4346.773      -137162.24    
    841900   2382.9449     -493.68193      4389.5471     -137159.58    
    842000   2406.0648     -6635.9226      4404.3874     -137165.85    
    842100   2478.3542      920.35703      4382.1657     -137169.66    
    842200   2539.7921     -542.15927      4375.7642     -137163.8     
    842300   2705.866      -199.38847      4367.4576     -137162.19    
    842400   2503.0723      12237.33       4370.6395     -137162.01    
    842500   2294.126       4437.4472      4442.6151     -137159.57    
    842600   2385.2672     -6742.572       4536.9739     -137158.33    
    842700   2556.9432     -12020.721      4593.9729     -137159.22    
    842800   2409.8792      1429.3718      4572.9049     -137153.26    
    842900   2616.9855     -9436.2914      4536.272      -137157.43    
    843000   2396.6805      8476.0885      4457.9897     -137157.08    
    843100   2358.3416      3266.7267      4388.5739     -137164.71    
    843200   2326.6979      1966.4325      4346.658      -137161.75    
    843300   2423.5037      11132.079      4312.202      -137159.65    
    843400   2623.4635     -6180.8013      4303.4144     -137162.06    
    843500   2506.2828      3853.6498      4282.2335     -137163.57    
    843600   2256.3488      6301.4438      4261.9931     -137165.95    
    843700   2253.0241      6776.9635      4270.5342     -137163.35    
    843800   2564.0588      7105.3032      4306.8163     -137165.9     
    843900   2564.1682      5999.0655      4360.0058     -137163.46    
    844000   2539.6972     -1008.2742      4448.0351     -137165.41    
    844100   2306.2392     -8033.0828      4518.9499     -137164.31    
    844200   2617.2321     -9672.2102      4520.5124     -137165.71    
    844300   2678.0739      450.03949      4460.9068     -137158.81    
    844400   2564.9021      11932.386      4406.4659     -137157.83    
    844500   2441.2809      3924.7615      4389.796      -137162.79    
    844600   2462.4368      6717.0961      4422.82       -137165.56    
    844700   2523.1171     -13575.538      4481.1369     -137165.28    
    844800   2698.4201     -2674.425       4453.3304     -137161.51    
    844900   2621.1883      2308.4783      4400.8947     -137155.8     
    845000   2488.1656      4290.7235      4389.0497     -137159.82    
    845100   2418.4077     -1264.266       4429.0768     -137164.82    
    845200   2478.8216     -10573.835      4450.9096     -137163.1     
    845300   2560.899       10434.575      4417.1343     -137159.46    
    845400   2518.9766      2783.067       4440.9617     -137158.07    
    845500   2449.5584     -12790.773      4489.3785     -137161.69    
    845600   2323.6116     -14206.859      4478.8965     -137168.65    
    845700   2231.1573      9972.0509      4366.3023     -137164.71    
    845800   2629.7522      4569.0868      4285.2572     -137169.41    
    845900   2570.5091      7277.0172      4273.9597     -137165.44    
    846000   2428.1547      7707.9203      4316.3293     -137162.55    
    846100   2352.3134     -10087.944      4402.7896     -137160.97    
    846200   2592.9754     -611.44073      4455.9467     -137160.66    
    846300   2612.6007     -2991.0139      4495.7168     -137158.16    
    846400   2415.9169      157.18577      4523.8782     -137158.15    
    846500   2378.8279     -9178.0519      4518.6039     -137161.74    
    846600   2555.2458      9691.6799      4450.7051     -137161.89    
    846700   2806.9556     -12302.323      4424.3032     -137158.74    
    846800   2719.6454      4242.0083      4370.192      -137162.18    
    846900   2464.5694      10739.191      4342.3936     -137161.42    
    847000   2369.0394      2009.4495      4368.4303     -137163.24    
    847100   2311.128       2965.6113      4398.7306     -137163.06    
    847200   2455.7502     -8798.4653      4412.5322     -137160       
    847300   2782.5794     -3863.8289      4368.8612     -137163.06    
    847400   2716.7439      19978.386      4337.1698     -137163.7     
    847500   2596.1863     -806.87251      4410.1558     -137165.93    
    847600   2473.7712     -11275.981      4505.9626     -137163.64    
    847700   2444.4963     -6410.5681      4533.1518     -137160.37    
    847800   2690.3171     -5879.0618      4508.7921     -137163.49    
    847900   2627.4992     -5612.5599      4448.1443     -137162.78    
    848000   2561.4315      3988.8616      4357.2856     -137163.48    
    848100   2459.0407      8132.5832      4312.2333     -137164.96    
    848200   2429.8732     -2860.6709      4321.4703     -137168.46    
    848300   2432.2366      7776.9123      4332.426      -137166.44    
    848400   2612.7137     -5646.1961      4392.2726     -137160.41    
    848500   2565.7487     -4052.5302      4429.9151     -137160.03    
    848600   2582.1456     -9919.3337      4444.1619     -137164.05    
    848700   2387.73       -12560.235      4419.5329     -137162.9     
    848800   2230.3013      3434.5532      4332.9464     -137162.69    
    848900   2291.4657      9563.5652      4237.9696     -137165.94    
    849000   2575.3136      21250.295      4192.9294     -137167.84    
    849100   2711.2753      4515.2765      4254.8934     -137169.63    
    849200   2324.5221     -12455.433      4341.0782     -137165.46    
    849300   2513.0178      311.29347      4378.374      -137171.13    
    849400   2688.9844     -6864.2929      4412.4634     -137165.38    
    849500   2546.5883     -3346.3613      4426.7897     -137160.44    
    849600   2485.9753     -1803.0443      4433.6313     -137161.29    
    849700   2282.349      -1506.7599      4421.0148     -137160.11    
    849800   2544.138       5628.2264      4403.1224     -137165.15    
    849900   2721.5395     -417.06516      4420.6746     -137157.63    
    850000   2603.2384     -5361.8776      4438.9972     -137156.97    
    850100   2615.105      -5223.9776      4431.1361     -137164.67    
    850200   2489.2465     -10191.495      4394.8915     -137164.91    
    850300   2537.8273      8620.1234      4351.7295     -137164.53    
    850400   2642.8722      4282.1322      4382.5736     -137160.63    
    850500   2905.5811     -5660.6917      4438.0733     -137161.16    
    850600   2640.6193     -6486.3026      4479.2012     -137164.02    
    850700   2348.0231     -4977.7471      4493.551      -137161.04    
    850800   2431.9624     -8719.7271      4473.3381     -137160.42    
    850900   2638.4152      3345.269       4427.738      -137159.58    
    851000   2647.4219     -4091.7439      4402.5309     -137160.77    
    851100   2440.4917     -2629.8703      4373.9104     -137163.83    
    851200   2458.2595      13415.876      4334.0057     -137163.85    
    851300   2424.2663      4215.9939      4339.0952     -137163.83    
    851400   2411.7452      3784.8463      4350.43       -137165.19    
    851500   2478.8052      3028.9401      4338.1766     -137162.67    
    851600   2691.7983      4132.2604      4324.6763     -137161.74    
    851700   2509.039      -2605.5012      4335.1832     -137162       
    851800   2489.9999     -362.70255      4312.1986     -137166.5     
    851900   2656.09       -3931.3975      4294.2583     -137170.46    
    852000   2633.5012      2242.7328      4309.6982     -137169.23    
    852100   2470.3945     -5761.5786      4353.7799     -137166.73    
    852200   2179.7058     -4272.2312      4372.8131     -137162.09    
    852300   2439.3955      4780.1685      4374.2745     -137161.06    
    852400   2540.4055      4594.5368      4397.8149     -137157.59    
    852500   2500.6729     -5236.0246      4418.8695     -137159.43    
    852600   2401.8998      5202.6019      4410.312      -137163.2     
    852700   2446.9824     -4332.1473      4404.4407     -137166.62    
    852800   2687.0224     -4129.0089      4385.3029     -137170.12    
    852900   2649.7024      11256.406      4389.4984     -137159.08    
    853000   2668.3897      110.90237      4458.0311     -137162.07    
    853100   2288.3264     -10494.575      4541.3713     -137159.14    
    853200   2354.3063     -7441.1757      4543.9879     -137159.05    
    853300   2414.433       4564.2437      4481.8095     -137155.76    
    853400   2656.9211      2836.1088      4428.3095     -137160.06    
    853500   2501.1961     -1180.3623      4407.4528     -137161.24    
    853600   2436.9563     -1330.865       4392.3845     -137166.32    
    853700   2465.0292     -3879.0175      4366.1636     -137165.98    
    853800   2534.3811      4625.023       4321.0609     -137163.52    
    853900   2626.7831      11371.114      4283.9106     -137163.81    
    854000   2345.7934      6095.5977      4310.0028     -137164.68    
    854100   2205.5178      2634.8167      4360.8044     -137165.18    
    854200   2331.8592      10215.224      4409.9741     -137163.86    
    854300   2423.0983     -9498.5735      4481.7934     -137160.62    
    854400   2525.0064      1568.4626      4508.1675     -137158.51    
    854500   2698.0012      2135.9763      4513.5999     -137160.5     
    854600   2595.8385     -2739.9703      4513.4935     -137161.76    
    854700   2345.738      -13902.073      4494.9668     -137164.19    
    854800   2318.8836      81.840191      4419.1896     -137161.02    
    854900   2503.5418      9961.8085      4356.1867     -137160.56    
    855000   2502.2546      21009.887      4356.6248     -137160.06    
    855100   2335.3044     -181.86607      4442.654      -137160.63    
    855200   2398.5714     -14889.048      4504.3781     -137161.28    
    855300   2769.8176      269.97972      4456.2237     -137160.91    
    855400   2551.3731     -4179.1706      4396.8427     -137156.17    
    855500   2514.9266      7339.4572      4335.9762     -137161.31    
    855600   2403.1625     -579.91755      4291.5055     -137162.87    
    855700   2544.7191      162.51986      4271.1472     -137166.27    
    855800   2646.3177      7769.5         4288.8992     -137169.2     
    855900   2426.4511     -243.83187      4361.1246     -137166.64    
    856000   2288.3249     -6090.027       4416.4206     -137161.74    
    856100   2737.5852      2456.3685      4424.2286     -137163.84    
    856200   2499.51        187.99392      4447.4211     -137157.09    
    856300   2526.5969     -8909.1751      4460.8686     -137163.9     
    856400   2191.0468      7344.0552      4437.3859     -137158.56    
    856500   2264.9438      9704.1867      4421.6753     -137154.82    
    856600   2779.016      -5232.3635      4438.6066     -137162.84    
    856700   2559.6588     -7323.2261      4450.2888     -137161.05    
    856800   2506.4242     -2013.8169      4445.1567     -137166.66    
    856900   2429.5567     -12739.609      4447.2389     -137164.31    
    857000   2520.8605     -6553.0607      4424.2189     -137160.56    
    857100   2536.4488      3985.6256      4384.307      -137159.47    
    857200   2562.7376      9059.4664      4354.4021     -137162.31    
    857300   2387.4521      23.425773      4376.6596     -137161.93    
    857400   2492.1344     -2490.1379      4388.9886     -137166.59    
    857500   2581.3632      182.17747      4390.5576     -137164.16    
    857600   2591.003       10096.797      4397.9986     -137152.81    
    857700   2640.3596     -8061.8009      4451.3636     -137159.02    
    857800   2400.6692     -13309.452      4495.6352     -137159.44    
    857900   2373.9239     -10024.69       4464.0937     -137159.26    
    858000   2754.6011      5479.1581      4372.9651     -137165.71    
    858100   2523.549       13545.95       4298.8536     -137162.15    
    858200   2331.1695      12266.947      4299.0748     -137166.35    
    858300   2318.8375      1140.4428      4367.6138     -137165.23    
    858400   2587.8455      1960.089       4435.9176     -137164.86    
    858500   2533.7779     -2926.4183      4500.5848     -137159.39    
    858600   2507.1338     -2320.4853      4536.621      -137158.98    
    858700   2305.5008      5579.0462      4531.6877     -137153       
    858800   2621.2582     -5685.5772      4501.0444     -137155.86    
    858900   2954.3449      851.00989      4429.1535     -137163.92    
    859000   2571.8755      3961.5491      4383.3893     -137163.83    
    859100   2382.2118     -3890.2452      4373.2284     -137162.56    
    859200   2598.0958      2072.4914      4345.5588     -137167.44    
    859300   2742.6212      7316.5283      4344.0563     -137166.64    
    859400   2523.583      -4284.0388      4407.2877     -137161.65    
    859500   2345.3645     -4188.3643      4494.1742     -137162.89    
    859600   2273.8207     -14042.909      4563.8955     -137158.56    
    859700   2565.4845     -3579.6156      4546.6251     -137158.04    
    859800   2635.6979     -1887.9923      4477.7916     -137160.92    
    859900   2316.8475      16612.122      4425.5709     -137156.48    
    860000   2340.0999     -12474.875      4447.008      -137160.02    
    860100   2715.8201      2190.6973      4391.8004     -137164.46    
    860200   2923.3041      3561.9883      4338.44       -137164.55    
    860300   2500.2402      4247.5737      4342.2974     -137161.5     
    860400   2506.0315      3732.7503      4374.5153     -137165.23    
    860500   2446.4596     -4380.3726      4415.4013     -137163.1     
    860600   2535.2501     -11121.101      4432.1353     -137161.62    
    860700   2788.2399      7906.9653      4394.1002     -137161.44    
    860800   2895.3876     -7039.2088      4381.9707     -137160.74    
    860900   2539.2368      10817.047      4373.1049     -137161.99    
    861000   2480.3405     -4893.1401      4414.4879     -137165.04    
    861100   2336.5952      1024.4071      4428.619      -137162.66    
    861200   2604.6852      3269.8543      4446.4824     -137164.24    
    861300   2606.4854     -10173.956      4498.4391     -137159.9     
    861400   2452.5061     -3997.6076      4524.1721     -137158.83    
    861500   2265.2756     -4783.6082      4503.3917     -137162.78    
    861600   2426.2334     -6818.0014      4440.5571     -137167.48    
    861700   2472.0061      1164.6109      4346.7416     -137161.18    
    861800   2849.7371      10568.041      4250.6312     -137167.4     
    861900   2521.637       14965.701      4221.2999     -137164.28    
    862000   2403.3508      7214.2604      4274.3416     -137165.37    
    862100   2283.2481     -5232.0903      4347.2147     -137163.28    
    862200   2539.5641     -1899.958       4380.108      -137162.35    
    862300   2468.6037      12190.102      4410.165      -137154.97    
    862400   2725.8727     -11928.083      4478.5963     -137162.98    
    862500   2522.337      -9950.7517      4484.0439     -137163.7     
    862600   2487.5865     -7568.4823      4441.2054     -137165.22    
    862700   2549.9824      2212.2957      4379.2327     -137164.79    
    862800   2509.3348      5031.2177      4316.3919     -137164.64    
    862900   2485.0982      12401.174      4282.7192     -137165.81    
    863000   2304.3828     -4266.0139      4291.2265     -137167.44    
    863100   2148.985       5841.6986      4306.5542     -137169.73    
    863200   2179.798      -2482.6316      4359.4595     -137163.49    
    863300   2612.4849     -12572.262      4406.0534     -137168.76    
    863400   2449.0385      848.8507       4395.6438     -137159.74    
    863500   2621.6284      9236.4843      4360.37       -137162.42    
    863600   2645.3579     -1886.026       4357.4206     -137165.8     
    863700   2395.0398      2185.099       4389.4669     -137166.32    
    863800   2399.7117     -6938.1639      4434.5472     -137166.19    
    863900   2388.5851      6945.4174      4468.1561     -137157.21    
    864000   2496.1209     -8357.0831      4511.3894     -137158.24    
    864100   2563.4584      1392.5474      4502.9991     -137159.97    
    864200   2484.5143     -10068.576      4488.181      -137159       
    864300   2709.8683     -7483.9543      4454.9977     -137163.67    
    864400   2592.966       5872.5794      4422.907      -137163.41    
    864500   2392.6386      827.12645      4390.2996     -137166.56    
    864600   2378.2164      4498.7422      4351.2595     -137167.16    
    864700   2616.9632     -5925.9392      4312.2019     -137168.09    
    864800   2632.0041      20402.914      4264.7942     -137164.63    
    864900   2547.6318      1779.1972      4311.7994     -137164.38    
    865000   2538.3843     -1266.9874      4389.6075     -137164.1     
    865100   2594.4747     -3825.435       4469.191      -137164.41    
    865200   2445.6085     -4603.7563      4539.1869     -137161.66    
    865300   2279.9686     -5539.4267      4559.3721     -137161.48    
    865400   2389.2057     -1464.2715      4527.5757     -137159.46    
    865500   2702.6721     -4546.5252      4473.7395     -137161.47    
    865600   2522.2047      5586.6528      4388.8497     -137158.11    
    865700   2473.3895      935.51049      4304.976      -137162.83    
    865800   2465.2509      15897.59       4245.7258     -137168.96    
    865900   2548.3718      3032.5358      4278.3041     -137171.61    
    866000   2329.6585      5033.4744      4330.017      -137164.53    
    866100   2556.5206     -7307.5231      4384.9867     -137163.12    
    866200   2458.3198      4599.1817      4411.2468     -137157.55    
    866300   2495.4467      11138.323      4437.0514     -137158.98    
    866400   2363.6579      859.61117      4478.7316     -137162.01    
    866500   2390.0886     -15896.416      4498.1802     -137164.73    
    866600   2518.0485      4120.6534      4443.1933     -137164.45    
    866700   2549.5496      13773.283      4394.9894     -137165.16    
    866800   2353.2547     -1903.2878      4387.7886     -137163.71    
    866900   2463.4876      4347.1423      4361.7004     -137167.41    
    867000   2621.5655      3484.8631      4345.763      -137164.5     
    867100   2713.9119      4664.3945      4366.3539     -137164.59    
    867200   2474.4827     -9910.0835      4416.0045     -137163.3     
    867300   2486.8092     -6371.3024      4409.4893     -137165.74    
    867400   2546.4346      3143.9228      4384.0223     -137166.95    
    867500   2516.8579     -6320.0201      4373.5471     -137165.96    
    867600   2413.8394      14791.248      4353.5828     -137163.55    
    867700   2319.2863     -14026.723      4397.6602     -137164.52    
    867800   2530.6034     -11377.882      4403.8351     -137167.38    
    867900   2668.0354      4641.9772      4386.5803     -137164.28    
    868000   2642.5078     -161.61682      4401.003      -137164.38    
    868100   2193.5714     -4130.1018      4438.3988     -137159.32    
    868200   2418.8568     -6517.0317      4445.279      -137167.59    
    868300   2524.2945      3491.4627      4404.0129     -137161.53    
    868400   2749.3154      2553.0038      4374.961      -137163.37    
    868500   2372.0172      5950.224       4380.7484     -137159.44    
    868600   2335.7237     -44.997053      4433.214      -137159.84    
    868700   2329.9884     -2869.464       4473.9559     -137154.37    
    868800   2621.5551     -3646.1323      4453.711      -137160.76    
    868900   2649.5938     -4117.9015      4415.6599     -137163.86    
    869000   2421.2473      1226.4789      4366.4289     -137163.67    
    869100   2363.1828      588.37251      4327.8242     -137166.25    
    869200   2370.9117      12069.893      4288.8517     -137165.93    
    869300   2265.4802      8984.9541      4303.206      -137161.5     
    869400   2509.6255     -414.86529      4374.1019     -137163.91    
    869500   2562.5172     -2776.1421      4441.8942     -137160.18    
    869600   2435.0705     -5990.8961      4483.2546     -137155.37    
    869700   2386.9256     -4314.621       4499.674      -137155.85    
    869800   2578.6079     -1852.1133      4500.6766     -137161.6     
    869900   2282.7347     -6743.964       4473.9177     -137162.6     
    870000   2223.9538     -2501.8508      4406.1252     -137167.38    
    870100   2461.0121     -127.5805       4314.9132     -137166.32    
    870200   2484.4438      19168.633      4240.6438     -137160.98    
    870300   2549.9935      11650.721      4259.0721     -137165.04    
    870400   2285.6582     -1058.0943      4361.4452     -137164.55    
    870500   2197.6481     -8101.2982      4461.6603     -137157.81    
    870600   2471.7901     -4656.4794      4495.7591     -137158.92    
    870700   2581.2687     -9976.4939      4472.1772     -137161.15    
    870800   2497.1692      17694.581      4406.2997     -137158.55    
    870900   2596.8941      3961.1609      4387.9927     -137160.96    
    871000   2398.6614      9988.6265      4385.7852     -137159.94    
    871100   2286.6522     -5970.8443      4422.3031     -137162.79    
    871200   2228.3403     -6591.9987      4426.501      -137157.27    
    871300   2541.7702      7106.8211      4390.0783     -137158.39    
    871400   2578.9644      6911.019       4372.7742     -137161.56    
    871500   2380.9568      3856.1099      4410.373      -137160.19    
    871600   2426.7796      1025.1863      4482.913      -137163.23    
    871700   2386.7468     -7497.3242      4541.9711     -137160.56    
    871800   2591.8112      10968.677      4561.7532     -137157.95    
    871900   2604.0172     -3954.0935      4598.1709     -137157.51    
    872000   2413.892      -14471.808      4576.6962     -137158.24    
    872100   2308.0062     -4606.9408      4464.896      -137160.18    
    872200   2513.0954      9517.74        4335.982      -137164.71    
    872300   2545.7182      11277.204      4278.5894     -137162.82    
    872400   2632.3288     -763.2367       4302.0678     -137162.86    
    872500   2593.6369      4304.2533      4332.5033     -137163.36    
    872600   2334.9111     -717.86186      4383.2622     -137162.77    
    872700   2337.1517     -6748.5927      4422.3278     -137163.64    
    872800   2734.9602      2248.2614      4411.7014     -137164.4     
    872900   2704.6276     -3477.1303      4394.6966     -137163.29    
    873000   2470.2012      2785.048       4371.442      -137162.64    
    873100   2441.0172      2203.2084      4369.6579     -137164.2     
    873200   2425.3044     -3947.1184      4379.2383     -137162.17    
    873300   2761.8353      2796.5777      4386.5767     -137166.71    
    873400   2623.4821     -2959.7335      4425.8644     -137166.87    
    873500   2164.9641     -3480.4943      4452.5712     -137161.74    
    873600   2396.1167     -478.66423      4422.7308     -137164.04    
    873700   2579.4571      12972.895      4382.6722     -137160.96    
    873800   2460.5999      1734.5476      4413.494      -137158.38    
    873900   2502.0556     -3267.4392      4438.7833     -137162.23    
    874000   2444.5115     -11443.632      4420.0989     -137163.19    
    874100   2443.2464      1426.099       4360.4693     -137164.69    
    874200   2322.3928      5342.093       4324.9346     -137163.59    
    874300   2523.3022     -1696.258       4333.8705     -137166.71    
    874400   2560.0316      3016.93        4351.2641     -137161.73    
    874500   2713.6623      648.5197       4383.1272     -137162.42    
    874600   2496.6033     -8575.8702      4419.6928     -137163.01    
    874700   2223.4433      132.83747      4425.2817     -137162.17    
    874800   2346.1531     -2321.3042      4424.6406     -137160.91    
    874900   2533.2251      12458.294      4404.5175     -137161.74    
    875000   2591.9832     -1544.1038      4416.817      -137163.48    
    875100   2518.6363      4513.5736      4424.9048     -137164.09    
    875200   2238.1711     -5895.5226      4446.3644     -137164.4     
    875300   2176.7192      6709.7493      4415.0547     -137163.72    
    875400   2551.6033      7155.4269      4370.4706     -137165.95    
    875500   2551.7893      2660.3669      4346.5655     -137165.09    
    875600   2440.4397      8827.4446      4340.552      -137163.6     
    875700   2571.6376     -1252.5412      4372.6426     -137166.53    
    875800   2461.3605     -3861.8265      4403.5258     -137162.55    
    875900   2547.0769     -4033.0988      4420.4018     -137163.81    
    876000   2551.2399      74.046819      4427.1091     -137166.83    
    876100   2284.0944     -9584.3575      4447.0078     -137161.23    
    876200   2652.1303     -1199.0565      4433.0595     -137164.22    
    876300   2822.6803     -703.69385      4436.9163     -137164.62    
    876400   2484.2663     -6023.0233      4463.7422     -137161.85    
    876500   2501.8588     -7148.6568      4456.0115     -137164.74    
    876600   2317.619       15705.169      4426.8359     -137159.56    
    876700   2444.4012     -2816.162       4465.1864     -137159.76    
    876800   2812.1039     -1779.4914      4509.517      -137159.44    
    876900   2465.8506     -6073.2524      4571.4287     -137148.32    
    877000   2538.7528     -7997.8203      4602.5629     -137154.17    
    877100   2645.1179     -3104.24        4558.4485     -137162.24    
    877200   2354.1155     -1050.8234      4462.271      -137161.74    
    877300   2274.6252      2730.5124      4336.978      -137168.3     
    877400   2510.6383      9900.5074      4224.5035     -137170.33    
    877500   2595.5469      20977.996      4196.8824     -137167.81    
    877600   2591.1754      6184.2251      4282.3574     -137164.11    
    877700   2709.6096      7381.1543      4402.248      -137160.44    
    877800   2640.5779     -9369.4198      4535.5591     -137157.93    
    877900   2339.0263     -17834.614      4593.4422     -137158.42    
    878000   2540.0538     -15031.425      4533.9962     -137163.33    
    878100   2561.1567      12630.241      4427.2129     -137160.53    
    878200   2583.9625      10059.107      4384.5062     -137160.25    
    878300   2306.0952     -6011.8203      4394.6017     -137163.67    
    878400   2384.7393      596.86148      4388.9306     -137166.51    
    878500   2579.0861     -4537.8419      4362.4656     -137167.06    
    878600   2572.0406      2615.8549      4334.6676     -137161.94    
    878700   2655.4254     -1390.9352      4335.3618     -137161.22    
    878800   2471.7431      10595.151      4330.6768     -137157.11    
    878900   2545.9972     -621.06724      4339.2251     -137167.17    
    879000   2371.2837      7929.8814      4360.5637     -137165.69    
    879100   2568.0842     -5079.2427      4412.2801     -137165.89    
    879200   2714.4957      3126.9986      4444.3745     -137164.52    
    879300   2568.3707     -8925.6747      4467.2974     -137164.91    
    879400   2548.2643     -4945.6473      4433.5783     -137166.44    
    879500   2533.0647     -114.01015      4365.8596     -137165.98    
    879600   2609.6027      2829.8451      4312.7187     -137168.01    
    879700   2377.2553      8938.7204      4297.7035     -137162.36    
    879800   2530.4768      6442.0836      4326.0599     -137168.74    
    879900   2261.878       1231.0705      4396.177      -137162.41    
    880000   2463.9413     -2841.163       4444.329      -137159.98    
    880100   2615.2935      1861.2494      4440.7922     -137161.19    
    880200   2611.8975     -9698.5356      4442.0569     -137166.24    
    880300   2568.1601     -5936.4656      4419.2898     -137168.27    
    880400   2447.809      -3356.9222      4373.8529     -137164.88    
    880500   2656.0061      3425.3025      4348.1257     -137168.99    
    880600   2315.1974      246.13963      4359.2413     -137161.32    
    880700   2515.3708     -3944.2764      4357.0763     -137166.16    
    880800   2708.6754      1954.3308      4338.5886     -137164.38    
    880900   2717.2185     -1500.9631      4337.5371     -137163.95    
    881000   2413.9055      933.12557      4353.8015     -137161.63    
    881100   2214.4244      3779.9891      4372.5839     -137160.74    
    881200   2318.9092     -3416.1301      4364.404      -137168.56    
    881300   2141.1024      12103.772      4345.4904     -137164.49    
    881400   2523.0799      2722.3978      4366.5098     -137165.55    
    881500   2573.7498     -2901.8297      4408.9164     -137165.02    
    881600   2461.7807     -3641.042       4422.9634     -137162.82    
    881700   2646.8679     -4346.8214      4415.3904     -137165.14    
    881800   2484.773       15382.692      4400.1474     -137156.49    
    881900   2570.611       2255.4079      4440.0929     -137157.44    
    882000   2488.4984     -4316.645       4504.9995     -137159.12    
    882100   2218.4773     -4207.3016      4531.2527     -137156.19    
    882200   2585.7122     -3270.8716      4490.7576     -137164.32    
    882300   2698.6589     -7262.3171      4430.3702     -137159.65    
    882400   3003.5965      1884.2323      4374.8873     -137166.54    
    882500   2462.5741      251.9793       4376.5608     -137163.19    
    882600   2387.6092     -10362.84       4412.0651     -137163.47    
    882700   2602.8668     -3644.6964      4425.6624     -137164.92    
    882800   2390.0381      597.93393      4447.8694     -137155       
    882900   2577.9219     -3548.9586      4466.9618     -137156.66    
    883000   2745.7934     -2855.3985      4456.9997     -137155.76    
    883100   2738.3891     -7010.7912      4423.4863     -137160.47    
    883200   2484.3321      3421.0006      4362.1        -137162.23    
    883300   2344.8924      8268.1434      4315.1735     -137160.79    
    883400   2566.0362     -2449.6579      4313.4541     -137165.79    
    883500   2511.7503     -3136.9024      4327.0203     -137163.34    
    883600   2510.5367      2916.8464      4352.3706     -137161.11    
    883700   2377.0054      5261.9868      4411.1763     -137159.21    
    883800   2334.7644     -5280.0646      4477.0044     -137159.58    
    883900   2655.5439     -14856.335      4457.8952     -137162.97    
    884000   2792.2997      10640.867      4367.1651     -137160.69    
    884100   2465.7849     -3759.8223      4343.7541     -137158.37    
    884200   2312.1131      4560.9103      4338.4103     -137160.54    
    884300   2502.6929      6124.5331      4363.4652     -137164.24    
    884400   2776.3643     -8151.8038      4401.2517     -137168.17    
    884500   2540.1001     -5349.9907      4399.0861     -137166.54    
    884600   2359.3596     -9698.9936      4367.2343     -137167.53    
    884700   2461.2617      5918.1915      4323.7839     -137166.46    
    884800   2417.4988      15820.908      4340.1596     -137162.74    
    884900   2431.4703     -10173.215      4421.4126     -137162.41    
    885000   2598.6218     -2000.2794      4449.877      -137163.32    
    885100   2583.2842     -1535.4959      4463.9422     -137159.73    
    885200   2166.6493      4103.6863      4459.422      -137153.07    
    885300   2504.417       2181.511       4451.0866     -137164.35    
    885400   2477.3351     -125.90056      4471.4514     -137160.93    
    885500   2680.5045     -5351.0463      4484.5377     -137160.8     
    885600   2715.2716     -4506.905       4460.7243     -137161.5     
    885700   2392.6497     -7756.3364      4419.3494     -137161.9     
    885800   2529.1054      8786.8907      4357.5066     -137167.15    
    885900   2447.2251      4077.8276      4335.9825     -137164.62    
    886000   2560.5431      1472.8792      4329.4505     -137163.51    
    886100   2580.5607      10405.648      4328.5835     -137154.08    
    886200   2566.0014      10978.054      4362.682      -137154.18    
    886300   2700.7177     -123.54666      4415.6436     -137167.28    
    886400   2451.0934     -10147.796      4478.6646     -137163.55    
    886500   2405.3761     -2755.872       4492.7921     -137161.85    
    886600   2536.0557     -9109.0051      4450.3256     -137161.73    
    886700   2674.772       19366.954      4379.3978     -137159.81    
    886800   2331.7242      3750.8654      4400.9666     -137158.44    
    886900   2404.5107     -10220.596      4434.6809     -137164.5     
    887000   2365.1482      1069.1628      4421.8583     -137160.39    
    887100   2608.3501     -3153.0079      4405.6016     -137161.41    
    887200   2618.7941      78.615959      4399.2017     -137161.37    
    887300   2582.5541      2328.2021      4403.9691     -137163.52    
    887400   2371.3045     -951.4403       4412.7898     -137161.28    
    887500   2487.0105      5188.7554      4425.116      -137164.09    
    887600   2468.7976     -5851.8009      4465.3673     -137162.83    
    887700   2540.0374     -11592.396      4459.2547     -137160.2     
    887800   2835.0315      8570.3775      4399.0643     -137164.3     
    887900   2453.7331      7630.5517      4411.5434     -137163.54    
    888000   2322.6136     -13012.049      4481.0639     -137161.71    
    888100   2412.8016     -5263.075       4480.0943     -137158.21    
    888200   2684.7838      3183.6501      4409.3685     -137163.59    
    888300   2530.1546     -3241.7685      4360.2125     -137164.55    
    888400   2414.3023     -1093.8926      4320.577      -137168.09    
    888500   2385.5049      4533.2628      4279.7071     -137165.72    
    888600   2599.35        12897.432      4280.4475     -137168.56    
    888700   2488.3673      9668.1377      4350.1746     -137166.39    
    888800   2395.2823     -4945.3892      4439.6975     -137164.92    
    888900   2404.2838     -3789.3759      4487.0585     -137160.55    
    889000   2619.1095     -1240.7101      4500.624      -137157.78    
    889100   2674.8389      4248.2959      4506.8101     -137160.77    
    889200   2375.55       -10253.691      4530.7953     -137159.6     
    889300   2387.4746     -10644.38       4490.2592     -137158.79    
    889400   2651.7044      2200.11        4408.4956     -137164.08    
    889500   2714.976      -4123.7804      4351.1491     -137169.16    
    889600   2351.6127      4990.0096      4313.0271     -137162.28    
    889700   2482.9411     -3607.5663      4287.1691     -137165.4     
    889800   2549.8441      10739.451      4262.8323     -137162.67    
    889900   2783.5498      15492.496      4316.7586     -137160.78    
    890000   2458.2959     -1718.3856      4458.7032     -137157.03    
    890100   2440.5623     -14996.471      4563.1063     -137157.46    
    890200   2654.0993     -18187.946      4552.1499     -137162.09    
    890300   2615.6274     -10438.974      4460.1808     -137161.71    
    890400   2610.2945      8359.9667      4358.3812     -137164.17    
    890500   2324.4156      11769.569      4324.2571     -137161.7     
    890600   2441.8194      4689.8755      4348.8428     -137166.13    
    890700   2612.3345      8534.4636      4401.6435     -137160.48    
    890800   2637.119      -885.71409      4483.9883     -137157.95    
    890900   2473.5335     -6003.792       4570.6586     -137158.46    
    891000   2243.3662     -3501.5387      4631.0634     -137154.95    
    891100   2229.8304     -10392.42       4654.7004     -137153.81    
    891200   2534.7086     -7965.2583      4633.5606     -137152.28    
    891300   2500.434      -4432.1717      4578.2461     -137149.25    
    891400   2406.3416      8082.3087      4502.8739     -137153.52    
    891500   2595.8365     -9206.4972      4450.3458     -137164.12    
    891600   2612.263       1558.1018      4374.0721     -137166.58    
    891700   2394.1251      5390.4993      4322.7486     -137164.06    
    891800   2290.7168      3811.6584      4290.401      -137163.71    
    891900   2544.7267      10778.57       4284.2011     -137164.05    
    892000   2634.9057      7939.5206      4336.7244     -137162.64    
    892100   2371.6445     -13751.471      4426.069      -137158.96    
    892200   2570.6459     -5543.7938      4467.201      -137163.25    
    892300   2485.4922     -7241.9541      4452.4198     -137161.71    
    892400   2345.1934      9465.2668      4389.2415     -137161.86    
    892500   2483.0825     -2976.239       4326.4401     -137169.77    
    892600   2457.2032      12358.094      4274.871      -137169.2     
    892700   2602.1362      706.99365      4281.5719     -137164.93    
    892800   2467.4182      18355.319      4307.9948     -137157.93    
    892900   2543.1043     -4308.9891      4396.7855     -137164.03    
    893000   2256.4729     -3716.5525      4448.7517     -137158.81    
    893100   2518.5639      5776.1465      4422.3646     -137161.63    
    893200   2761.5123      4078.8749      4388.4406     -137161.42    
    893300   2560.1916     -2263.832       4383.5        -137163.84    
    893400   2291.5419     -4821.1294      4390.1799     -137161.11    
    893500   2469.3025      2457.8949      4383.9133     -137163.71    
    893600   2633.4031     -8079.167       4405.1729     -137165.83    
    893700   2606.2318     -2173.7837      4416.2169     -137160.85    
    893800   2635.593      -3877.8036      4402.0523     -137160.12    
    893900   2441.9575     -1273.3169      4355.5104     -137163.1     
    894000   2469.5432      3989.9615      4307.6093     -137167.19    
    894100   2496.7402      1314.9104      4293.4879     -137167.2     
    894200   2819.769      -4168.1006      4323.7651     -137169.06    
    894300   2684.9944      8028.8471      4361.2685     -137159.52    
    894400   2388.1709     -1765.9752      4419.3008     -137160.98    
    894500   2363.2991     -3470.244       4460.3375     -137162       
    894600   2389.6344      2539.0934      4472.2057     -137159.49    
    894700   2645.8443     -2233.6339      4481.6609     -137162.33    
    894800   2590.3879      7127.9229      4461.1256     -137160.9     
    894900   2462.9085     -4096.7248      4456.7704     -137163.92    
    895000   2467.6226     -4771.9905      4419.808      -137168.93    
    895100   2432.9488      779.25965      4357.4412     -137167.9     
    895200   2634.3184      2208.6992      4327.7155     -137165.81    
    895300   2645.0572      7535.0137      4333.5541     -137162.81    
    895400   2517.3496      6364.8605      4369.5797     -137163.15    
    895500   2555.686      -11919.26       4428.5824     -137164.9     
    895600   2502.6423     -3465.027       4436.4829     -137163.17    
    895700   2395.3175     -800.27515      4416.6883     -137161.31    
    895800   2479.3069     -4436.5098      4370.5377     -137163.74    
    895900   2656.1362      5247.4479      4308.9645     -137167.35    
    896000   2832.5955      9010.7485      4286.0544     -137167.58    
    896100   2442.6784      1558.7307      4321.2152     -137162.18    
    896200   2359.1133     -3797.7682      4359.6284     -137165.59    
    896300   2366.6007      10694.725      4375.4217     -137165.17    
    896400   2613.5656      1760.4512      4422.1439     -137166.16    
    896500   2733.1165     -13947.744      4473.4992     -137161.05    
    896600   2650.7074     -416.81192      4451.7706     -137158.77    
    896700   2573.9313      231.06165      4404.6016     -137161.85    
    896800   2654.4371      1747.9417      4383.3206     -137165.03    
    896900   2392.3404      735.3844       4388.6382     -137162.74    
    897000   2365.6035     -5041.3682      4403.9129     -137164.62    
    897100   2550.1904     -1275.2724      4424.0292     -137164.5     
    897200   2698.0234     -8714.6481      4458.0635     -137160.46    
    897300   2683.9601     -10584.667      4469.7716     -137161.45    
    897400   2550.9435      2850.5811      4443.956      -137161.44    
    897500   2469.3851      6543.6357      4416.2664     -137161.43    
    897600   2326.571       6043.6809      4410.8879     -137158.42    
    897700   2448.5072     -2240.1777      4402.0991     -137160.53    
    897800   2481.4747      11987.648      4371.3149     -137158.44    
    897900   2908.7361     -1381.6824      4390.0829     -137160.41    
    898000   2609.3305     -2153.3138      4451.0992     -137156.92    
    898100   2525.2625     -10237.979      4479.3146     -137162.92    
    898200   2618.798       1701.8129      4433.6887     -137168.7     
    898300   2575.746      -5572.4462      4401.1467     -137169.2     
    898400   2372.7452      7953.442       4357.618      -137165.77    
    898500   2409.056       4409.9913      4350.6386     -137165.78    
    898600   2631.2634     -510.25743      4388.4994     -137165.76    
    898700   2519.1006     -3233.3771      4414.5517     -137158.27    
    898800   2619.8664      2926.3594      4403.775      -137161.5     
    898900   2344.9964     -9124.5433      4407.0066     -137163.85    
    899000   2330.8962     -6681.5588      4368.3875     -137164.62    
    899100   2636.2535      2480.651       4279.7936     -137167.61    
    899200   2779.408       10357.866      4232.8896     -137169.56    
    899300   2452.897       9360.4232      4276.1815     -137164.91    
    899400   2209.7268      4039.3994      4375.0003     -137158.72    
    899500   2501.5913     -5245.5064      4469.4894     -137163.28    
    899600   2585.8286     -5960.8665      4541.813      -137162.92    
    899700   2388.669      -10942.975      4584.8842     -137156.35    
    899800   2569.431      -7955.7773      4534.1066     -137159.13    
    899900   2571.3178     -498.90737      4408.8833     -137161.2     
    900000   2515.4692      19175.22       4283.855      -137162.34    
    900100   2502.0071      12920.848      4272.6496     -137166.07    
    900200   2351.5811     -5135.9839      4364.1552     -137165.04    
    900300   2604.8719     -10587.381      4445.8701     -137164.43    
    900400   2591.4013     -4056.4744      4448.1736     -137160.46    
    900500   2552.0868     -4686.7718      4413.2682     -137161.43    
    900600   2523.1507      11969.686      4373.4188     -137163.97    
    900700   2363.0275      1873.7496      4384.4035     -137164.44    
    900800   2168.9295     -9671.7567      4397.4233     -137166.66    
    900900   2338.8662     -5061.0451      4336.96       -137169.21    
    901000   2626.4907      8758.6085      4268.883      -137167.55    
    901100   2399.5809      7720.8732      4282.8032     -137161.8     
    901200   2454.8627     -4875.3115      4332.0957     -137164.81    
    901300   2461.9791     -3196.059       4378.3748     -137165.91    
    901400   2326.6507      4157.3166      4426.2241     -137159.29    
    901500   2633.1299     -4852.5396      4467.3261     -137160.52    
    901600   2522.611      -7676.827       4477.2294     -137155.44    
    901700   2586.5376     -2058.9176      4442.9328     -137163.77    
    901800   2307.8335      6330.8918      4416.8529     -137162.96    
    901900   2349.4589     -5783.4546      4416.6079     -137162.67    
    902000   2736.6278     -4124.3072      4393.1194     -137167.7     
    902100   2589.125       6545.2218      4359.9904     -137164.33    
    902200   2253.7194      4886.4586      4341.3874     -137159.93    
    902300   2560.3562      7167.9709      4315.2197     -137169.07    
    902400   2424.5027     -4636.1571      4325.7049     -137163.96    
    902500   2608.5621      5337.7649      4340.3434     -137162.25    
    902600   2716.9352      1131.2803      4374.429      -137166.22    
    902700   2452.2821     -9229.8771      4415.2655     -137164.35    
    902800   2445.8552      6061.9391      4403.8985     -137164.07    
    902900   2463.1752     -4620.2047      4394.5498     -137164.09    
    903000   2544.7903      9084.0872      4363.5427     -137165.45    
    903100   2512.9027      794.7223       4369.5413     -137162.84    
    903200   2560.3062      137.12735      4407.7302     -137160.17    
    903300   2613.147       6055.3829      4474.3788     -137156.35    
    903400   2611.7875     -15085.835      4601.9085     -137153.46    
    903500   2554.9623     -10073.306      4649.0286     -137151.25    
    903600   2565.0719     -8436.6412      4581.8394     -137158.46    
    903700   2467.9995      8872.022       4462.717      -137163.22    
    903800   2395.8716      7797.4211      4401.9094     -137162.64    
    903900   2483.2114      4478.8102      4402.0047     -137162.17    
    904000   2791.7229     -17064.641      4429.9988     -137161.47    
    904100   2700.8022     -4816.2076      4393.3335     -137160.29    
    904200   2442.6782      2512.091       4349.7259     -137162.48    
    904300   2502.3611      3116.411       4337.0031     -137165.32    
    904400   2455.8435     -5722.9805      4348.7989     -137161.96    
    904500   2698.0377      930.72613      4333.5199     -137165.02    
    904600   2578.0152      5945.1709      4334.9671     -137166.37    
    904700   2386.1005     -4639.2126      4374.7988     -137168.19    
    904800   2295.4295      1911.0448      4408.1309     -137163.97    
    904900   2480.1493     -3146.7736      4457.2857     -137162.86    
    905000   2463.1596     -7974.7194      4491.8209     -137159.92    
    905100   2444.7943     -3536.6443      4453.54       -137156.35    
    905200   2850.9943      5336.9781      4369.8386     -137163.46    
    905300   2414.2065      12602.879      4325.5091     -137160.91    
    905400   2395.2536      959.70837      4364.3067     -137164.4     
    905500   2576.8654     -9758.9473      4412.2116     -137165.6     
    905600   2659.0526     -5539.7173      4436.2699     -137161.84    
    905700   2599.327       6259.1167      4433.4128     -137160.83    
    905800   2342.0692      1901.7369      4407.2771     -137161.28    
    905900   2431.2213      1200.4758      4375.3033     -137168.52    
    906000   2255.9256      5809.5837      4363.3273     -137169.23    
    906100   2358.3081     -4859.7602      4387.0172     -137169.94    
    906200   2334.241       11127.383      4418.7476     -137160.15    
    906300   2551.1503     -7322.9731      4500.2833     -137159.62    
    906400   2586.3928     -10136.367      4564.5908     -137157.97    
    906500   2636.3249     -9724.3863      4549.2443     -137160.12    
    906600   2632.1176      3393.2861      4464.2956     -137167.96    
    906700   2237.1265      4706.8623      4374.1645     -137163.9     
    906800   2493.5058      7409.7609      4280.5123     -137166.93    
    906900   2640.6615      13468.527      4250.7094     -137165.2     
    907000   2646.3378      21261.355      4312.2442     -137165.41    
    907100   1991.3884     -11531.034      4477.4355     -137156.9     
    907200   2286.0368     -10887.844      4580.6065     -137162.95    
    907300   2416.0165     -2034.8937      4585.0937     -137159.48    
    907400   2713.7235     -8250.2707      4515.8599     -137165.87    
    907500   2575.0863      8339.0824      4403.0768     -137163.89    
    907600   2298.0348      10367.804      4349.0187     -137160.95    
    907700   2399.2138      453.88594      4350.413      -137167.59    
    907800   2416.418       1755.8765      4349.3722     -137167.92    
    907900   2569.5245      8611.4984      4347.9665     -137163.13    
    908000   2497.9327      7215.1316      4362.7353     -137157.54    
    908100   2509.8209      6166.142       4396.9936     -137161.49    
    908200   2298.4907     -7460.5425      4446.6268     -137162.25    
    908300   2496.9213      1212.4812      4436.5133     -137166.2     
    908400   2714.0277      998.72963      4423.4883     -137160.45    
    908500   2598.671      -4253.9896      4412.5806     -137160.27    
    908600   2519.8798      2230.8861      4392.6536     -137164.05    
    908700   2485.4428      2997.5373      4371.3499     -137164.98    
    908800   2445.6409      2200.7332      4354.3264     -137160.88    
    908900   2814.5734      17044.221      4364.2369     -137159.99    
    909000   2731.4493     -8001.4442      4463.0711     -137162.68    
    909100   2426.0559     -12025.554      4524.3875     -137160.26    
    909200   2424.3095     -6295.3735      4517.5296     -137160.55    
    909300   2596.5473     -9408.6005      4477.8312     -137162.68    
    909400   2669.9625      9621.7415      4397.9546     -137158.1     
    909500   2914.1755     -2298.4696      4378.1887     -137161.11    
    909600   2456.4458     -1855.7994      4382.685      -137160.88    
    909700   2484.7961      3772.0215      4385.8147     -137164.25    
    909800   2458.4374      2882.2465      4397.9886     -137162.67    
    909900   2474.7445      2566.9529      4391.8272     -137159.74    
    910000   2754.585       1463.5429      4392.8697     -137162.05    
    910100   2561.8109     -7001.1506      4416.0878     -137163.72    
    910200   2338.4862     -6428.6841      4430.3135     -137162.68    
    910300   2433.3323      7382.1339      4412.5915     -137162.18    
    910400   2485.8179      3117.7081      4423.8481     -137160.12    
    910500   2436.4        -1697.072       4436.5772     -137159.64    
    910600   2551.9038     -5860.8838      4438.6685     -137163.37    
    910700   2378.2506      690.43617      4412.9696     -137159.88    
    910800   2404.2057      7012.364       4363.0761     -137162.36    
    910900   2467.5758     -4286.955       4344.4044     -137163.02    
    911000   2640.112       9938.5578      4321.5477     -137163.71    
    911100   2513.6836      816.17313      4332.3687     -137164.51    
    911200   2397.8297      281.19366      4351.7064     -137168.29    
    911300   2402.2545      769.84304      4378.0557     -137166.96    
    911400   2560.4715     -1529.315       4400.6431     -137166.79    
    911500   2365.975       210.61163      4410.0702     -137158.74    
    911600   2532.3388      23686.134      4406.1962     -137161.1     
    911700   2379.2982     -3198.3172      4471.5775     -137160.85    
    911800   2402.4179     -11311.849      4513.355      -137163.29    
    911900   2699.7164     -10666.872      4482.4023     -137162.85    
    912000   2541.0135      6864.2182      4374.7424     -137157.07    
    912100   2516.4974      8736.0481      4272.8351     -137160.8     
    912200   2557.4124      14477.58       4241.7515     -137168.61    
    912300   2337.6057      8637.9292      4320.1162     -137166.19    
    912400   2395.5341     -12068.595      4434.3931     -137165.32    
    912500   2679.6072     -12648.455      4455.945      -137162.29    
    912600   2770.3822      8391.9821      4408.2471     -137163.97    
    912700   2478.2107      2742.1983      4407.172      -137161.17    
    912800   2466.6802      455.22269      4412.7591     -137165.09    
    912900   2299.9951      2947.1087      4403.9424     -137163.66    
    913000   2466.025       3273.1306      4399.3388     -137163.88    
    913100   2691.3518      7510.4618      4419.9966     -137160.48    
    913200   2708.2506     -6374.3865      4475.7803     -137161.83    
    913300   2405.7543     -9967.4195      4492.1635     -137161       
    913400   2443.1985      2594.479       4457.4377     -137164.11    
    913500   2626.1838     -6005.052       4435.8732     -137166.11    
    913600   2540.5915      1644.9556      4425.1265     -137163.49    
    913700   2380.5642     -3606.1461      4431.5729     -137158.67    
    913800   2470.8385     -9475.5748      4416.3587     -137159.15    
    913900   2637.5812     -5913.7963      4356.5475     -137165.17    
    914000   2419.0768     -1566.83        4291.5472     -137168.92    
    914100   2330.7459      8777.154       4234.9979     -137170.25    
    914200   2494.0776      4591.8329      4227.4971     -137170.77    
    914300   2529.8461      2311.201       4274.6148     -137166.26    
    914400   2525.5037      6301.4248      4341.1874     -137162.45    
    914500   2680.3626     -3262.5647      4418.0108     -137163.38    
    914600   2696.7027      5097.1578      4476.3285     -137156.2     
    914700   2679.29       -5164.7128      4539.5703     -137158.11    
    914800   2480.927      -7948.9057      4561.661      -137160.49    
    914900   2594.9541     -11593.23       4515.0276     -137165.17    
    915000   2437.2747      2684.6371      4414.2847     -137160.14    
    915100   2705.5705      4063.6782      4347.2964     -137159.92    
    915200   2775.606       7712.1092      4337.9138     -137160.16    
    915300   2492.7301     -6964.0778      4412.4048     -137163.41    
    915400   2443.0163     -1689.2437      4470.6302     -137164.88    
    915500   2315.5161     -6462.1299      4486.4068     -137160.16    
    915600   2615.8814     -6198.8744      4462.3008     -137160.93    
    915700   2606.1743     -256.54476      4411.0685     -137160.58    
    915800   2683.0122      939.73612      4370.0857     -137166.98    
    915900   2560.9675      2628.0599      4361.6352     -137166.71    
    916000   2438.5807     -1234.1411      4397.1435     -137164.31    
    916100   2600.6759     -8580.5751      4431.7754     -137165.27    
    916200   2629.1584      1451.5196      4416.1311     -137157.58    
    916300   2649.2975      4916.9108      4406.9574     -137158.6     
    916400   2499.3975     -7119.2125      4419.5873     -137164.05    
    916500   2480.6159     -5996.4972      4388.4584     -137164.38    
    916600   2641.9316      4472.8367      4340.6795     -137165.14    
    916700   2506.6961      2619.8806      4319.7849     -137161.24    
    916800   2324.3528      6023.0725      4334.5097     -137159.34    
    916900   2405.8217     -2509.5886      4384.2395     -137165.65    
    917000   2351.23       -8181.7402      4432.2631     -137165.91    
    917100   2392.4463     -4770.8994      4453.9362     -137159.55    
    917200   2687.0748     -2016.3571      4447.1775     -137161.51    
    917300   2383.712       2604.6282      4421.4536     -137157.59    
    917400   2516.3335      5737.0901      4379.9248     -137165.5     
    917500   2447.4339      3228.499       4365.7873     -137167.04    
    917600   2420.4498     -7198.1155      4396.4645     -137166.12    
    917700   2475.0891     -744.28218      4420.6433     -137157.34    
    917800   2685.3628     -1180.1326      4450.4725     -137160.72    
    917900   2338.8077     -8839.4474      4486.5739     -137155.39    
    918000   2598.3757      2418.0448      4476.7653     -137162.35    
    918100   2491.2408      586.14879      4463.986      -137156.86    
    918200   2789.1897     -1178.5249      4450.0414     -137159.93    
    918300   2647.3444     -1982.5161      4417.3035     -137165.63    
    918400   2589.0519      856.39863      4349.7753     -137170.61    
    918500   2406.0995      2768.6767      4270.4578     -137167.2     
    918600   2541.244       14984.506      4222.5705     -137167.32    
    918700   2500.7827      11589.077      4253.2408     -137163.65    
    918800   2446.1903     -1291.1009      4377.1333     -137160.78    
    918900   2477.7719     -21975.755      4514.8638     -137155.38    
    919000   2665.6081     -9498.4522      4533.3264     -137153.26    
    919100   2742.9734      5062.0907      4468.914      -137159.58    
    919200   2530.6292      1158.8476      4400.3313     -137162.56    
    919300   2471.5746      10329.117      4330.6216     -137164.6     
    919400   2466.5419     -2193.3786      4314.6247     -137166.24    
    919500   2381.4492      10181.49       4313.7668     -137162.47    
    919600   2840.86        1562.4952      4357.6228     -137167.64    
    919700   2460.9466     -3138.9476      4435.324      -137159.11    
    919800   2335.1137     -15951.776      4477.8227     -137164.66    
    919900   2228.5339     -8264.1179      4424.3259     -137163.28    
    920000   2407.4729      7123.1445      4336.8983     -137163.16    
    920100   2530.4648      17422.807      4296.781      -137165.59    
    920200   2485.819       3477.9512      4354.2729     -137164.46    
    920300   2433.8104     -6310.6418      4449.6005     -137160.82    
    920400   2571.0245     -2187.2857      4507.4609     -137155.01    
    920500   2691.8095     -7977.2664      4519.2509     -137158.13    
    920600   2493.7298     -13515.825      4494.1152     -137161.18    
    920700   2378.553       5943.7394      4417.6851     -137160.31    
    920800   2573.142      -452.17874      4361.5619     -137164.66    
    920900   2618.6124      3757.6315      4353.473      -137162.79    
    921000   2677.719      -1708.6663      4399.7095     -137157.45    
    921100   2593.459      -4157.0027      4461.8541     -137155.1     
    921200   2346.513      -6205.9584      4506.3588     -137158.62    
    921300   2407.8882     -8686.7632      4504.3811     -137160.52    
    921400   2622.5547      7157.6451      4448.9158     -137160.77    
    921500   2682.4633     -2374.8749      4425.9414     -137161.09    
    921600   2562.0088     -7434.4407      4409.7816     -137162.62    
    921700   2533.4501     -1737.6631      4359.8143     -137164.82    
    921800   2516.392       10651.852      4298.9405     -137165.47    
    921900   2406.9172      13052.617      4295.4056     -137164.27    
    922000   2550.6793     -6082.2489      4343.4408     -137167.68    
    922100   2666.3715      2075.6554      4376.5322     -137165.93    
    922200   2624.6282     -1674.2962      4408.9499     -137162.96    
    922300   2399.3244      3553.1406      4418.612      -137163.09    
    922400   2206.0922     -214.3681       4428.865      -137160.71    
    922500   2537.1176     -5956.0023      4429.4055     -137161.53    
    922600   2559.0828     -1141.3065      4408.0838     -137159.55    
    922700   2569.2666      1882.5613      4382.7049     -137161.58    
    922800   2427.7251     -1152.2449      4357.293      -137163.73    
    922900   2472.5548      1043.5266      4311.1063     -137167.65    
    923000   2417.3805      15413.813      4273.8358     -137164.56    
    923100   2573.03        1546.385       4296.9895     -137162.68    
    923200   2769.3782     -7477.7137      4324.8144     -137165.44    
    923300   2397.9832      240.65883      4326.4481     -137162.53    
    923400   2396.8895     -3770.6039      4325.6646     -137166.14    
    923500   2449.7495     -4080.7694      4315.1696     -137163.75    
    923600   2622.4107      7947.3002      4304.6748     -137164.23    
    923700   2459.7781      215.16963      4345.0944     -137160.4     
    923800   2482.5028     -5211.6686      4372.867      -137162.5     
    923900   2546.0232     -4867.0048      4361.7407     -137166.57    
    924000   2363.6092      4359.2568      4345.5797     -137163.59    
    924100   2564.7811      609.19762      4368.0333     -137166.71    
    924200   2685.4927     -6328.5941      4403.4846     -137164.3     
    924300   2458.4518      1364.7815      4422.2677     -137157.45    
    924400   2245.5558      2334.2301      4447.3394     -137156.73    
    924500   2441.1483      2824.0171      4454.2194     -137167.01    
    924600   2184.4306     -5353.0147      4472.6975     -137163.54    
    924700   2444.5531     -7439.9516      4458.1413     -137160.86    
    924800   2579.4733      5378.1652      4404.2489     -137160.02    
    924900   2564.7292      890.22276      4371.8734     -137161.2     
    925000   2293.2552      692.70282      4356.5218     -137160.3     
    925100   2268.949       3500.416       4339.99       -137163.65    
    925200   2381.7771      8787.1211      4337.0994     -137163.91    
    925300   2642.6045      5157.0507      4389.0242     -137159.7     
    925400   2779.5642     -9971.1462      4486.2558     -137162.62    
    925500   2529.532      -7935.3453      4554.8944     -137160.27    
    925600   2398.1556     -16500.263      4551.367      -137160.34    
    925700   2415.2476      5557.1778      4441.4885     -137160.04    
    925800   3021.5229      7679.5843      4350.291      -137172.36    
    925900   2385.817      -1223.3882      4347.7515     -137163.04    
    926000   2354.2507      1159.0254      4359.74       -137165.95    
    926100   2459.0283      2900.805       4378.5629     -137165.33    
    926200   2448.0142     -933.87231      4398.9557     -137158.21    
    926300   2776.0979      5625.47        4385.3812     -137164.09    
    926400   2390.9572     -1694.0143      4395.8127     -137161.56    
    926500   2464.057       2016.4307      4412.0801     -137162.35    
    926600   2546.9188     -12404.956      4423.7743     -137160.86    
    926700   2701.158       5903.8591      4384.8824     -137159.23    
    926800   2628.7671      5734.1426      4349.8691     -137161.56    
    926900   2471.9676      6656.9252      4344.1696     -137162.95    
    927000   2493.8421      2911.9551      4365.2857     -137164.25    
    927100   2272.7384      3451.2812      4441.8741     -137157.17    
    927200   2691.8522     -11257.348      4522.4792     -137161.27    
    927300   2764.2383     -5841.5626      4543.1807     -137156.72    
    927400   2709.4823     -510.0387       4514.8258     -137161.44    
    927500   2645.4953     -6040.6202      4477.8011     -137163.26    
    927600   2361.1779     -3670.9244      4431.8191     -137159.36    
    927700   2463.3631      3418.2099      4374.9588     -137164       
    927800   2507.0031      2317.235       4322.6675     -137164.76    
    927900   2641.3181      11595.273      4306.4469     -137164.71    
    928000   2608.0644      3598.5797      4351.9368     -137162.71    
    928100   2389.6083     -2230.1551      4422.3367     -137161.54    
    928200   2247.0865     -6420.2822      4484.2143     -137161.34    
    928300   2503.8614     -48.306241      4504.9838     -137160.59    
    928400   2583.2769     -14501.245      4514.5243     -137158.8     
    928500   2632.9785      4815.6152      4483.276      -137161.58    
    928600   2282.9403     -4937.4463      4451.1229     -137155.8     
    928700   2606.0329      3940.9747      4356.4386     -137165.73    
    928800   2409.8122      9895.9247      4292.3833     -137163.81    
    928900   2241.9747     -7458.0111      4284.6456     -137166.38    
    929000   2492.8096      4538.6581      4269.3387     -137170.05    
    929100   2564.3614     -5710.8975      4271.2818     -137166.21    
    929200   2724.9652      4578.0944      4275.3757     -137168.32    
    929300   2296.4086     -5795.6896      4304.5446     -137169.29    
    929400   2277.1834     -12280.667      4296.8811     -137168.82    
    929500   2508.6978      5545.5122      4259.3566     -137166.11    
    929600   2558.4972      11926.339      4284.8778     -137163.05    
    929700   2424.0745      7719.7377      4378.5238     -137161.39    
    929800   2444.8385     -15494.686      4473.0496     -137164.3     
    929900   2343.6997     -3806.4534      4471.1143     -137161.34    
    930000   2551.5815      5185.6819      4429.7608     -137160.74    
    930100   2538.5951      2500.2199      4431.6572     -137155.47    
    930200   2627.7436     -4463.4135      4461.2937     -137160.6     
    930300   2358.8865     -6173.6785      4471.9785     -137162.18    
    930400   2286.0946      5713.8935      4452.1298     -137161.53    
    930500   2514.7284     -2542.5104      4427.656      -137163.56    
    930600   2522.2009      2795.8097      4376.47       -137160.61    
    930700   2736.3681     -1383.05        4340.4925     -137165.99    
    930800   2433.5283      5444.2004      4338.8327     -137164.86    
    930900   2277.2655     -5441.2721      4367.6611     -137167.31    
    931000   2447.0721     -200.36487      4375.6691     -137168.12    
    931100   2474.6364     -421.10742      4362.7525     -137166.59    
    931200   2465.8821      3833.2057      4329.6639     -137165.22    
    931300   2556.4348      5563.6028      4322.3125     -137166.17    
    931400   2562.6186      5941.0648      4368.541      -137160.42    
    931500   2735.1652     -4485.7436      4448.5734     -137157.7     
    931600   2547.1018     -16225.685      4513.3647     -137158.6     
    931700   2499.6444     -7927.8265      4500.0715     -137160.93    
    931800   2464.8541      4153.094       4446.0144     -137159.32    
    931900   2613.9083      1784.1743      4395.8553     -137162.22    
    932000   2708.3341     -5258.8406      4332.6819     -137166.92    
    932100   2546.0775      14661.921      4286.5684     -137165.49    
    932200   2431.0168      3798.6323      4327.8456     -137165.38    
    932300   2394.2695     -2217.9478      4403.3179     -137163.4     
    932400   2519.7687     -5476.7249      4449.4956     -137158.12    
    932500   2649.1416     -1557.8011      4433.3908     -137157.9     
    932600   2653.6681      9149.3238      4389.6331     -137162.53    
    932700   2455.1068      468.35968      4398.6935     -137162.72    
    932800   2449.2307      7116.5632      4427.4614     -137162.18    
    932900   2429.5781     -7371.4747      4456.715      -137159.11    
    933000   2591.5665      7344.714       4460.6041     -137156.28    
    933100   2701.5798     -7246.0007      4469.6857     -137154.9     
    933200   2536.6115     -347.74795      4437.6055     -137160.09    
    933300   2566.0986      897.04972      4411.054      -137166.39    
    933400   2434.6899     -4270.8082      4392.7491     -137165.53    
    933500   2543.4769     -7563.871       4343.9942     -137167.89    
    933600   2735.4503      8151.9836      4269.7597     -137166.47    
    933700   2590.6163      13298.117      4273.2813     -137161.02    
    933800   2261.7815      427.87315      4356.8227     -137161.4     
    933900   2305.1741     -12872.389      4414.4296     -137162.51    
    934000   2527.5125     -1238.0378      4391.4474     -137162.87    
    934100   2528.7393     -2674.2917      4359.9637     -137162.16    
    934200   2505.8813      6434.4209      4343.054      -137163.77    
    934300   2473.475       3460.2852      4380.0178     -137166.08    
    934400   2345.8053     -3955.123       4439.8032     -137168.9     
    934500   2117.6238     -12639.687      4463.5744     -137166.59    
    934600   2363.051       6846.8442      4410.3945     -137163.45    
    934700   2494.838      -7450.4268      4361.5453     -137162.98    
    934800   2539.9401      5423.4266      4295.4885     -137162.51    
    934900   2594.1422      9881.5208      4272.1782     -137164.67    
    935000   2471.6666     -5638.3372      4297.6394     -137168.49    
    935100   2396.3538     -3989.6471      4333.3683     -137167.12    
    935200   2534.0558     -3401.4241      4348.7986     -137162.13    
    935300   2713.4972      9689.6433      4357.7413     -137162.64    
    935400   2500.7193      1041.5775      4422.9977     -137161.89    
    935500   2517.2666     -12666.969      4480.1328     -137165.06    
    935600   2430.6028     -6178.313       4450.8452     -137164.76    
    935700   2451.4164      1460.7093      4380.1256     -137161.91    
    935800   2813.5591      5721.1671      4322.9655     -137164.06    
    935900   2647.1923      5895.811       4325.4902     -137165.86    
    936000   2494.7787     -13380.348      4386.0109     -137167.01    
    936100   2293.5038     -5088.3394      4407.4348     -137160.02    
    936200   2513.7694      8402.7666      4403.1325     -137159.54    
    936300   2689.624       646.80813      4458.5732     -137161.47    
    936400   2620.0498     -15418.082      4542.361      -137160.57    
    936500   2481.31        1088.1968      4530.8854     -137159.92    
    936600   2557.5975     -11481.11       4466.6761     -137162.74    
    936700   2689.8184      5860.2011      4343.0401     -137166.4     
    936800   2636.153       17718.751      4267.3621     -137166.19    
    936900   2487.2248     -2146.8292      4294.5161     -137163.3     
    937000   2556.676      -5321.6641      4343.2079     -137164.21    
    937100   2620.2341      6663.8679      4361.7051     -137164.27    
    937200   2496.5395     -647.32157      4399.3281     -137164.39    
    937300   2315.3287     -7837.9518      4431.3539     -137165.02    
    937400   2375.0193     -7048.9988      4406.2945     -137163.14    
    937500   2679.7692     -559.30175      4328.6396     -137163.4     
    937600   2628.9411      10113          4260.5696     -137164.75    
    937700   2440.4245      11280.987      4250.6351     -137165.46    
    937800   2473.6829      10473.072      4306.4803     -137168.54    
    937900   2417.699       962.31439      4430.4062     -137164.65    
    938000   2655.0277     -9699.1672      4558.2192     -137159.04    
    938100   2660.5203     -11503.413      4637.5328     -137157.21    
    938200   2400.1        -5788.4665      4635.1243     -137151.99    
    938300   2501.014       4475.9357      4560.1513     -137156.48    
    938400   2186.2757     -3810.5832      4477.3846     -137155.42    
    938500   2364.889       6957.5699      4364.6065     -137162.18    
    938600   2624.7446      12407.079      4306.5048     -137165.71    
    938700   2689.1503      2497.3736      4342.8263     -137163.68    
    938800   2403.5251     -10752.519      4405.966      -137160.67    
    938900   2224.4091     -4095.9519      4403.1578     -137161.32    
    939000   2460.8583      2135.3224      4360.6491     -137164.4     
    939100   2810.0568      11116.142      4340.1627     -137165.71    
    939200   2536.0105      1773.3432      4381.6824     -137162.38    
    939300   2500.4447     -12060.635      4425.9409     -137164.92    
    939400   2336.4277     -836.76056      4421.0118     -137160.26    
    939500   2642.4219     -3986.4074      4405.1686     -137160.67    
    939600   2823.3105     -3815.3618      4389.1193     -137164.75    
    939700   2606.7017      4739.7476      4392.3865     -137164.43    
    939800   2489.2678      509.78682      4440.0324     -137165.28    
    939900   2351.7596     -5845.0386      4471.5072     -137162.38    
    940000   2439.5099     -1513.9615      4442.1727     -137160.09    
    940100   2629.9785      9959.1954      4379.3735     -137156.88    
    940200   2669.9497      4057.001       4353.2956     -137162.34    
    940300   2496.0288      4582.8695      4373.3076     -137163.34    
    940400   2500.6765      6838.5593      4401.7185     -137164.7     
    940500   2414.75        535.77569      4454.6949     -137160.19    
    940600   2508.1336      3.3356389      4507.6346     -137154.42    
    940700   2735.8188     -5128.8371      4526.3125     -137157.76    
    940800   2604.5805     -882.40877      4506.2462     -137157.85    
    940900   2457.3718      4357.482       4463.1238     -137157.96    
    941000   2348.6452      13674.588      4421.9044     -137158.47    
    941100   2555.103       380.8662       4435.5256     -137163.25    
    941200   2691.3629     -2148.5112      4471.6464     -137159       
    941300   2795.0652     -6992.4162      4507.7867     -137158.18    
    941400   2396.2898     -2855.2074      4513.789      -137156.06    
    941500   2545.8134     -3787.386       4483.7093     -137163.53    
    941600   2521.8628     -4369.5408      4421.0105     -137164.27    
    941700   2644.0483      1641.3424      4349.4487     -137169.85    
    941800   2286.2989      4360.2605      4327.8208     -137166.98    
    941900   2383.8807     -5727.0488      4335.4905     -137167.6     
    942000   2633.3794      10758.727      4324.7191     -137164.96    
    942100   2635.5756     -10748.834      4363.2915     -137165.58    
    942200   2534.2364      3609.8683      4388.9171     -137166.47    
    942300   2311.1458     -6212.7409      4402.7998     -137164.69    
    942400   2525.7031      10993.951      4383.4939     -137166.08    
    942500   2664.2312      4047.9288      4411.1991     -137159.81    
    942600   2528.8882     -10307.658      4476.901      -137157.59    
    942700   2562.7764     -4074.2962      4498.5175     -137159.78    
    942800   2415.9243     -11058.681      4466.9962     -137160.35    
    942900   2389.7076     -1818.5284      4378.0491     -137166.76    
    943000   2228.5735      15583.216      4285.9892     -137167.08    
    943100   2499.1728      8544.3047      4267.6926     -137170.42    
    943200   2629.3061      10290.83       4325.1094     -137165.02    
    943300   2385.1018      1441.045       4491.4061     -137157.61    
    943400   2401.973      -17008.543      4673.7771     -137156.86    
    943500   2698.7768     -6244.8837      4754.2316     -137156.39    
    943600   2687.0451     -6715.4684      4747.0178     -137151.88    
    943700   2455.4646     -117.07317      4660.5183     -137153.39    
    943800   2449.7246     -2258.758       4525.2999     -137159.34    
    943900   2631.7691      3781.0201      4359.6028     -137166.28    
    944000   2553.011       16060.658      4237.7294     -137168.27    
    944100   2363.7006      1968.8864      4217.2718     -137168.35    
    944200   2432.6223     -575.20753      4251.6074     -137171.61    
    944300   2576.6502      11395.815      4316.1583     -137163.97    
    944400   2521.5174      9381.017       4440.4483     -137158.46    
    944500   2553.7251     -16588.594      4570.5731     -137158.48    
    944600   2653.6891     -8997.3176      4584.0228     -137163.62    
    944700   2311.9779     -5082.5923      4537.731      -137160.82    
    944800   2397.7999     -11126.018      4464.8941     -137164.68    
    944900   2640.267       7819.1558      4360.0895     -137165.8     
    945000   2903.5819      6792.131       4330.1804     -137167.27    
    945100   2513.8021      35.914438      4369.8775     -137165.31    
    945200   2267.0176     -811.63629      4420.3886     -137161.79    
    945300   2573.8482     -843.70573      4436.7743     -137165.98    
    945400   2506.5039     -777.7697       4442.6467     -137160.75    
    945500   2600.1921      3046.5588      4443.7962     -137165.18    
    945600   2149.6198     -14167.69       4444.2444     -137162.87    
    945700   2313.4441      3879.3935      4385.1263     -137165.85    
    945800   2470.6051      8261.9205      4343.8796     -137165.26    
    945900   2607.5439     -3207.0247      4359.7992     -137166.57    
    946000   2476.4899     -2367.0348      4369.9201     -137163.38    
    946100   2509.7951      6213.668       4354.1693     -137164.09    
    946200   2647.8116      4070.3079      4370.0474     -137165.89    
    946300   2444.8873      7143.621       4445.8352     -137160.55    
    946400   2443.841      -12939.879      4508.0649     -137163.21    
    946500   2464.6469     -9503.3425      4465.0137     -137164.03    
    946600   2650.2766      4611.2319      4390.6489     -137161.09    
    946700   2767.5524      2849.6869      4356.4916     -137161.46    
    946800   2446.0375      3279.4537      4371.8594     -137159.46    
    946900   2487.4401      6921.4103      4397.1591     -137163.38    
    947000   2449.2119     -4734.115       4424.2404     -137164.34    
    947100   2529.7766     -5592.6475      4428.6191     -137164.44    
    947200   2649.9103      141.78504      4409.0156     -137159.78    
    947300   2852.4093     -4656.8449      4398.1496     -137162.71    
    947400   2561.3903     -4608.5845      4378.0358     -137162.69    
    947500   2464.8269      1434.5066      4333.0376     -137162.18    
    947600   2714.1403     -3350.793       4293.9797     -137171.16    
    947700   2427.9784      8879.2606      4265.6808     -137169.27    
    947800   2290.321       7722.6372      4278.4348     -137167       
    947900   2647.1054      4166.7633      4348.8885     -137166.92    
    948000   2465.0026      3004.5367      4447.6883     -137159.44    
    948100   2409.2853     -13576.703      4541.2414     -137156.87    
    948200   2612.3555     -652.11475      4559.986      -137158.41    
    948300   2536.656       6217.2709      4559.7614     -137158.32    
    948400   2286.2814     -2949.5931      4572.9076     -137159.95    
    948500   2303.6629     -17647.83       4549.3413     -137158.64    
    948600   2566.7759     -1955.362       4420.7042     -137159.13    
    948700   2626.3646      10900.231      4276.7021     -137160.44    
    948800   2580.3226      23302.021      4212.8204     -137166.24    
    948900   2568.9316      1210.3099      4269.7839     -137169.33    
    949000   2225.2741     -794.24811      4347.9244     -137160.12    
    949100   2662.1761     -2531.8454      4380.925      -137166.29    
    949200   2741.0076      5526.3016      4398.9429     -137161.23    
    949300   2500.36       -6242.6258      4447.1998     -137156.92    
    949400   2295.3854     -10455.329      4449.9506     -137160.59    
    949500   2266.7192     -9514.4951      4357.368      -137161.23    
    949600   2725.6619      7399.7567      4239.0831     -137167.82    
    949700   2606.1602      16890.237      4196.7543     -137166.3     
    949800   2249.1652      4811.6327      4248.6554     -137167.96    
    949900   2257.3489     -2141.0323      4321.932      -137166.81    
    950000   2478.0573     -4629.6905      4352.6174     -137166.13    
    950100   2448.3352      4347.4453      4355.0203     -137161.25    
    950200   2494.519       7275.2454      4371.7778     -137159.88    
    950300   2575.0986     -5585.1501      4406.6765     -137163.56    
    950400   2228.7225     -5846.6401      4419.7485     -137163.76    
    950500   2430.5817     -2181.593       4389.816      -137168.54    
    950600   2573.6833     -2401.408       4363.6361     -137165.67    
    950700   2681.6063     -2817.9359      4363.7958     -137165.34    
    950800   2407.2034     -498.97672      4370.3121     -137160.04    
    950900   2518.7647     -6047.0819      4361.7818     -137162.85    
    951000   2504.5369      9476.1776      4323.9423     -137161.41    
    951100   2507.5315     -975.73368      4344.3884     -137164.99    
    951200   2173.6309     -5393.9958      4393.9542     -137162.84    
    951300   2269.8681      879.07174      4397.5497     -137161.36    
    951400   2531.5053      2592.5246      4379.7659     -137161.72    
    951500   2592.4158      5328.2845      4362.327      -137163.61    
    951600   2591.632      -4911.5918      4370.6948     -137167.24    
    951700   2338.422       6051.0012      4385.0169     -137164.79    
    951800   2530.2437     -1851.073       4408.0846     -137166.66    
    951900   2633.2333     -2301.882       4400.5943     -137161.91    
    952000   2488.9708      174.07012      4378.5617     -137156.84    
    952100   2555.8886      3101.357       4376.0065     -137165.11    
    952200   2261.8945     -15755.549      4414.4923     -137163.71    
    952300   2340.4952      4394.6473      4383.3507     -137162.39    
    952400   2556.204       8203.4826      4365.316      -137163.9     
    952500   2600.9751     -13017.448      4396.6925     -137165.62    
    952600   2428.7724     -5962.0708      4384.3751     -137165.53    
    952700   2484.5728      4148.5805      4350.7564     -137169.22    
    952800   2429.8149     -6939.6239      4353.0067     -137171.71    
    952900   2443.1235     -1837.9905      4337.9255     -137171.72    
    953000   2460.2716      13355.402      4310.424      -137164.67    
    953100   2646.0253      2737.6777      4335.6924     -137165.04    
    953200   2521.8069     -1613.8374      4386.7124     -137161.95    
    953300   2385.2313     -5429.3278      4431.2513     -137160.46    
    953400   2363.0982      583.95068      4429.6459     -137165.7     
    953500   2291.3282     -1258.0208      4416.8407     -137165.43    
    953600   2446.7451     -943.27188      4393.8983     -137162.9     
    953700   2648.451       5203.9069      4366.1991     -137162.92    
    953800   2429.177      -1825.9049      4367.8983     -137160.24    
    953900   2440.8725      620.26451      4338.7485     -137163.89    
    954000   2512.7133      3790.3791      4296.2529     -137167.68    
    954100   2294.4248     -5070.2272      4265.8452     -137169.13    
    954200   2254.3579      13684.139      4225.645      -137169.04    
    954300   2497.2179      660.91877      4248.7973     -137167.45    
    954400   2458.4729      12682.668      4306.4894     -137162.99    
    954500   2449.3192     -7010.6869      4421.2254     -137160.92    
    954600   2410.7578     -9281.6716      4480.1556     -137154.53    
    954700   2782.5711      205.79074      4449.1597     -137156.43    
    954800   2652.511      -10854.761      4425.8657     -137160.51    
    954900   2525.8216      548.10151      4364.9867     -137165.12    
    955000   2420.3063      13761.047      4314.5817     -137163.32    
    955100   2352.7138      6498.3992      4351.4615     -137161.99    
    955200   2635.9449     -9323.7644      4428.1339     -137165.93    
    955300   2736.3441     -11419.778      4455.6991     -137163.7     
    955400   2484.0137      707.53462      4433.4606     -137160.36    
    955500   2401.3532     -2923.37        4384.1803     -137167.8     
    955600   2402.6614      7367.4102      4321.2038     -137167.25    
    955700   2578.2605      2007.963       4284.3256     -137166.59    
    955800   2520.098       17121.617      4269.9978     -137163.5     
    955900   2361.3526     -7803.6163      4328.6794     -137161.99    
    956000   2487.3874     -10311.583      4356.9006     -137166.47    
    956100   2514.7974      4411.2794      4344.5966     -137165.49    
    956200   2737.5674      9605.4539      4364.2868     -137167.93    
    956300   2484.0267     -7343.3707      4435.8518     -137166.84    
    956400   2375.0573     -7169.1505      4486.6328     -137166.02    
    956500   2418.2693      882.71722      4478.0595     -137160.18    
    956600   2498.2545     -4824.7623      4433.7533     -137158.18    
    956700   2431.6016      2217.0783      4373.216      -137158.93    
    956800   2425.2264      9610.6782      4323.4214     -137162.13    
    956900   2573.57        5512.2114      4309.3368     -137170.13    
    957000   2220.9147      505.64314      4330.0044     -137166.98    
    957100   2091.3362     -6353.2077      4345.7686     -137169.6     
    957200   2327.4762      9939.0873      4322.4863     -137167.25    
    957300   2465.0241     -1131.8257      4324.3931     -137166.03    
    957400   2674.0573     -5072.3081      4318.7663     -137166.16    
    957500   2758.7187     -5124.5456      4318.5592     -137168.76    
    957600   2419.3885      1245.622       4349.8168     -137166.5     
    957700   2307.8729     -7675.3423      4379.8827     -137164.72    
    957800   2623.5166      4617.4796      4373.7584     -137166.23    
    957900   2488.3689      3102.5415      4385.2395     -137160.11    
    958000   2531.3046      9742.249       4413.2514     -137163.03    
    958100   2258.8756     -12458.176      4494.7318     -137157.66    
    958200   2418.8951     -5591.3764      4516.0653     -137155.21    
    958300   2780.8164      7588.9172      4477.544      -137160.58    
    958400   2655.4055     -4561.5075      4463.2761     -137162.6     
    958500   2619.7531     -2811.1894      4441.282      -137166.13    
    958600   2540.086      -5236.4802      4429.2985     -137164.48    
    958700   2600.1349     -3985.7855      4416.5394     -137165.39    
    958800   2468.9104      261.35205      4369.0616     -137164.13    
    958900   2338.8024      5678.1394      4297.9596     -137165.34    
    959000   2408.6734      11041.813      4255.0296     -137167.74    
    959100   2490.6092      9582.252       4288.5993     -137163.18    
    959200   2639.4563     -7066.1511      4384.0342     -137163.3     
    959300   2543.8273     -7484.3619      4463.1929     -137161.51    
    959400   2315.7259     -11528.262      4479.0656     -137163.91    
    959500   2345.2629     -3308.8214      4407.2278     -137167.21    
    959600   2669.1145      8472.9717      4315.2684     -137168.49    
    959700   2597.9964      9050.4914      4291.4519     -137163.76    
    959800   2462.0882      1915.1561      4330.8269     -137162.72    
    959900   2367.1364      1139.5267      4394.9056     -137162.34    
    960000   2597.7413     -6744.307       4454.8508     -137167.22    
    960100   2571.1305     -724.60328      4488.3899     -137156.78    
    960200   2639.5367     -359.32421      4521.1349     -137154.35    
    960300   2719.7747     -6012.1031      4530.1489     -137160.93    
    960400   2389.6952     -12484.804      4475.6816     -137160.04    
    960500   2398.7992      18818.531      4370.4454     -137160.44    
    960600   2493.7289      13510.962      4366.1948     -137161.74    
    960700   2329.4523      6200.8887      4427.7123     -137158.02    
    960800   2213.2303      540.84695      4483.4409     -137156.81    
    960900   2366.2729     -5493.5498      4504.0707     -137156.99    
    961000   2604.0414     -2266.9288      4479.5772     -137156.07    
    961100   2556.0608      4391.3557      4449.0246     -137154.94    
    961200   2477.1176      4326.9749      4436.3727     -137160.95    
    961300   2408.6921     -13602.96       4433.5112     -137162.26    
    961400   2469.1524      232.72683      4375.971      -137162.62    
    961500   2646.5594      10198.657      4327.3693     -137164.5     
    961600   2571.9814      7031.871       4327.4842     -137164.93    
    961700   2353.7864      2327.2812      4379.668      -137168.2     
    961800   2303.1983     -15186.923      4428.6183     -137165.13    
    961900   2562.5366     -7820.6712      4405.7485     -137163.89    
    962000   2544.0956      734.03776      4361.6004     -137159.48    
    962100   2656.7514      10819.025      4359.2801     -137163.02    
    962200   2458.2418     -6198.5256      4437.6735     -137164.4     
    962300   2389.075      -3381.7282      4479.9673     -137165.31    
    962400   2553.1408     -1341.321       4486.4915     -137159.44    
    962500   2643.7762     -3270.0733      4462.3171     -137157.86    
    962600   2615.7917     -4218.2305      4410.1104     -137162.02    
    962700   2491.8967      46.219184      4365.0167     -137165.74    
    962800   2496.9888      4223.1195      4343.4861     -137170.04    
    962900   2358.2705     -5038.8248      4350.0673     -137165.8     
    963000   2539.1741      5723.277       4355.1295     -137164.18    
    963100   2506.1814     -2558.2938      4394.095      -137161.72    
    963200   2655.7841      7302.4508      4430.0399     -137165.91    
    963300   2364.6186     -10570.999      4489.2621     -137159.81    
    963400   2479.9051     -1470.8386      4481.6488     -137159.06    
    963500   2646.8683     -3228.2699      4432.1857     -137155.07    
    963600   2649.6397     -1050.7065      4362.038      -137156.25    
    963700   2642.2583      14662.991      4303.1535     -137163.49    
    963800   2523.4973      291.47144      4336.3747     -137163.8     
    963900   2398.5482     -1863.6833      4412.1307     -137162.33    
    964000   2562.8359     -6580.8665      4461.6466     -137166.34    
    964100   2544.531      -7348.0452      4452.6022     -137160.82    
    964200   2801.49        4765.3722      4397.1655     -137163.25    
    964300   2549.5703      7473.9818      4353.8743     -137166.12    
    964400   2383.5143      7328.306       4332.8437     -137165.3     
    964500   2379.0926      7490.069       4349.9588     -137163.34    
    964600   2609.3366     -3412.6073      4410.2696     -137164.28    
    964700   2666.1418      1971.5484      4478.0669     -137162.02    
    964800   2384.2369     -12787.525      4525.1597     -137156.11    
    964900   2359.3941     -11004.036      4457.3909     -137163.5     
    965000   2303.6266      6532.9914      4320.3553     -137164.12    
    965100   2501.5642      11111.317      4232.3381     -137164.81    
    965200   2666.5253      19345.219      4230.1479     -137164.89    
    965300   2335.5361     -2276.557       4323.0247     -137161.01    
    965400   2282.8742     -527.51723      4403.665      -137164.9     
    965500   2429.5637     -6208.5995      4437.932      -137165.38    
    965600   2651.7136     -2448.4879      4433.2985     -137163.81    
    965700   2547.5855      2287.5631      4430.195      -137162.04    
    965800   2438.4276     -1537.6235      4440.6476     -137158.96    
    965900   2511.6406     -4706.8283      4433.2583     -137159.07    
    966000   2654.7511     -7679.7122      4401.1745     -137162.03    
    966100   2465.5141      5767.9387      4353.5275     -137165.22    
    966200   2366.9765     -3418.9878      4333.8156     -137166.7     
    966300   2401.6333      8850.4076      4289.3583     -137163.79    
    966400   2502.4825      13438.43       4296.5606     -137161.97    
    966500   2471.4926     -9670.1038      4361.6104     -137161.3     
    966600   2557.804       595.48214      4355.6003     -137163.99    
    966700   2400.5701      7568.4278      4348.2808     -137161.09    
    966800   2489.0867     -636.7562       4367.1545     -137165.57    
    966900   2446.7987     -3539.2284      4388.1929     -137162.49    
    967000   2504.1046      2028.8194      4386.4698     -137157.41    
    967100   2678.0694     -833.09276      4379.7886     -137160.42    
    967200   2504.5894     -4319.3698      4355.2647     -137160.87    
    967300   2415.1872     -787.97425      4304.4407     -137164.51    
    967400   2237.1171      16598.874      4259.3133     -137164.54    
    967500   2308.7559      73.429639      4273.8114     -137166.03    
    967600   2571.9368      3616.7205      4302.729      -137160.87    
    967700   2599.8757     -10533.227      4354.9952     -137161.18    
    967800   2420.0495     -771.95995      4371.3549     -137163.27    
    967900   2496.0451     -5518.6132      4358.6469     -137167.69    
    968000   2381.0235      4551.1326      4308.5203     -137162.52    
    968100   2723.5175      12877.668      4266.1076     -137163.85    
    968200   2610.4756      12773.366      4283.1608     -137160.68    
    968300   2378.1033     -14154.645      4390.0835     -137163.91    
    968400   2395.4484     -7457.6898      4465.3306     -137163.32    
    968500   2347.2229      1154.9608      4474.3577     -137158.21    
    968600   2529.5825     -4397.6246      4445.6873     -137160.2     
    968700   2582.9511      2759.9884      4398.1971     -137161.43    
    968800   2427.388      -2291.8561      4380.053      -137161.61    
    968900   2056.2312     -2508.8573      4382.6607     -137163.01    
    969000   2348.4916     -7109.0252      4363.7197     -137167.38    
    969100   2605.792       6435.4032      4302.4244     -137167.84    
    969200   2453.062       7611.4915      4289.1951     -137162.47    
    969300   2343.1949      561.0766       4352.3229     -137161.53    
    969400   2541.4518     -11259.856      4424.1496     -137165.71    
    969500   2596.4807     -5621.7439      4413.1362     -137160.06    
    969600   2723.6558      10905.607      4361.646      -137160.01    
    969700   2581.2502      3970.9116      4379.2882     -137163.17    
    969800   2469.9587     -10269.455      4425.0413     -137165.53    
    969900   2388.4211     -3994.1355      4432.5675     -137161.91    
    970000   2506.7264     -3436.0552      4429.0895     -137160.37    
    970100   2643.4421      4437.5369      4421.8642     -137162.6     
    970200   2597.7073      1169.4822      4428.5731     -137166.69    
    970300   2467.5559     -7015.9902      4438.683      -137164.69    
    970400   2491.8312      1718.1018      4428.9601     -137164.31    
    970500   2301.0159      4296.3616      4410.6865     -137159.55    
    970600   2607.1712     -2739.8862      4402.1463     -137166.32    
    970700   2629.5691      6409.9296      4428.7587     -137161.77    
    970800   2415.8442      5392.2429      4508.842      -137153.95    
    970900   2539.366      -13415.384      4601.89       -137156.4     
    971000   2757.654      -12722.574      4639.4646     -137160.19    
    971100   2761.5213     -6414.0614      4624.4761     -137160.45    
    971200   2412.3651     -10189.96       4546.7485     -137160.54    
    971300   2521.4246     -6638.3066      4429.8019     -137164.14    
    971400   2554.496      -4035.0318      4315.7205     -137161.41    
    971500   2771.2614      12902.728      4215.1498     -137162.55    
    971600   2485.3526      16924.109      4194.0631     -137164.42    
    971700   2428.7587      2650.7326      4263.2632     -137168.59    
    971800   2489.3501     -1618.5678      4362.1139     -137167.85    
    971900   2543.1419     -11697.482      4457.381      -137162.63    
    972000   2480.1861     -12351.528      4482.2415     -137156.66    
    972100   2633.997      -4306.4774      4437.3476     -137156.09    
    972200   2975.7466      4680.0048      4382.33       -137160.92    
    972300   2550.5775      15242.466      4367.7071     -137160.97    
    972400   2501.7092     -3346.8415      4410.3866     -137165.66    
    972500   2531.0204     -2534.4079      4452.9194     -137167.1     
    972600   2441.7591      4935.1355      4486.5602     -137161.19    
    972700   2583.4242      119.80137      4515.4896     -137159.03    
    972800   2625.8533     -1489.9682      4519.9922     -137155.8     
    972900   2607.2112     -3635.01        4509.1051     -137162.25    
    973000   2413.2025     -11848.708      4489.3021     -137164.78    
    973100   2312.7826      4612.3636      4411.0494     -137160.57    
    973200   2588.8348      5507.8815      4329.8341     -137162.17    
    973300   2833.3405      6526.7076      4289.2602     -137166.26    
    973400   2447.6341     -5354.7681      4297.3994     -137164.62    
    973500   2356.4047      7042.7354      4277.3727     -137167.48    
    973600   2447.7273      12523.022      4285.314      -137165.17    
    973700   2621.5805      8498.9129      4357.3764     -137165.7     
    973800   2498.5114     -4927.1283      4472.0027     -137162.42    
    973900   2241.7283     -15634.945      4544.2229     -137160.19    
    974000   2254.328      -7095.1958      4506.5269     -137162.75    
    974100   2503.2348      10993.75       4392.2687     -137162.71    
    974200   2704.1603      7355.5496      4324.1282     -137165.48    
    974300   2344.5592      8355.2038      4330.3012     -137163.9     
    974400   2383.1414     -8731.8854      4365.4738     -137167.51    
    974500   2400.2121      6573.025       4369.8011     -137165.7     
    974600   2414.6056     -1905.0069      4396.586      -137161.72    
    974700   2545.5428     -5330.2683      4401.9305     -137161.39    
    974800   2526.0587      2068.6703      4357.6913     -137161.18    
    974900   2286.7188      7690.0942      4317.0178     -137164.44    
    975000   2326.4108      1095.6314      4296.5232     -137168.88    
    975100   2412.6345      11675.575      4298.0326     -137167.43    
    975200   2447.5024      7457.6532      4365.8333     -137160.68    
    975300   2440.3902     -10248.784      4456.7051     -137156.36    
    975400   2447.8314     -3200.9677      4478.8866     -137154.17    
    975500   2683.2952     -5582.0958      4461.3235     -137160.25    
    975600   2312.5346     -4520.539       4435.1796     -137159.49    
    975700   2549.9986     -947.70615      4389.8712     -137168.89    
    975800   2475.0649      992.39307      4343.1198     -137165.41    
    975900   2581.3025     -3728.4207      4298.8153     -137166.31    
    976000   2461.6185      14219.806      4276.5056     -137163.77    
    976100   2222.2214     -2413.8947      4324.344      -137167.05    
    976200   2388.08       -4432.4327      4343.9545     -137171.64    
    976300   2337.7923      11756.321      4344.6538     -137162.85    
    976400   2473.8616      40.736558      4395.5974     -137162.11    
    976500   2674.8508     -4388.095       4442.5914     -137166.69    
    976600   2375.9171     -4245.0627      4460.0949     -137161.53    
    976700   2333.5787     -7869.9868      4435.4233     -137163.76    
    976800   2404.6422     -2374.0778      4380.1887     -137166.37    
    976900   2563.5008      9312.0453      4337.7261     -137163.56    
    977000   2722.358       10123.968      4357.9553     -137162.66    
    977100   2529.8585     -8826.5581      4434.4235     -137161.55    
    977200   2519.4339     -6806.3244      4465.4329     -137165.42    
    977300   2415.7534     -3234.7775      4471.9456     -137162.19    
    977400   2401.8679     -13150.825      4458.9305     -137160.96    
    977500   2690.9134      3575.5933      4396.7613     -137166.76    
    977600   2577.1713     -9078.4934      4348.8739     -137166.75    
    977700   2296.6679      2450.7111      4278.4281     -137167.03    
    977800   2459.6119      10380.686      4244.5366     -137167.1     
    977900   2509.3626      12850.699      4272.5336     -137163.61    
    978000   2505.3341     -11.383446      4351.6775     -137164.03    
    978100   2346.161      -15002.688      4428.7133     -137159.65    
    978200   2654.8049      1758.1513      4429.5024     -137161       
    978300   2900.9264      5169.8246      4433.0522     -137161.63    
    978400   2500.3973     -9885.9704      4481.7038     -137159.21    
    978500   2691.4443     -4691.3701      4471.5749     -137166.11    
    978600   2593.4042     -5867.0408      4417.8141     -137166.46    
    978700   2430.476       8154.902       4366.6574     -137164.03    
    978800   2290.4734      5435.2196      4360.9767     -137164       
    978900   2281.8498     -6546.1374      4352.5784     -137167.14    
    979000   2645.5492     -3471.0473      4297.415      -137169.54    
    979100   2505.0607      17999.893      4221.1355     -137161.82    
    979200   2519.1218      14273.313      4226.9446     -137165.32    
    979300   2474.6353     -3033.3176      4320.0042     -137167.81    
    979400   2329.9316     -5240.4669      4426.6922     -137161.43    
    979500   2855.3734     -12706.566      4514.1225     -137162.17    
    979600   2725.1893     -6706.4612      4557.5784     -137159.46    
    979700   2555.0676     -9749.0519      4558.8395     -137162.22    
    979800   2357.3832     -1256.5614      4501.5193     -137161.12    
    979900   2545.6219      4921.4973      4435.813      -137164.57    
    980000   2485.9853     -3738.4105      4394.5707     -137164       
    980100   2479.7718      2165.5881      4345.3452     -137167.83    
    980200   2392.7257      3647.2602      4315.5651     -137168.22    
    980300   2341.7087      8110.0286      4286.4753     -137166.88    
    980400   2644.6348      13077.719      4317.2036     -137167.53    
    980500   2624.1519     -14274.356      4414.7382     -137164.11    
    980600   2481.8875     -10198.284      4457.9106     -137161.74    
    980700   2029.4821     -1992.1627      4418.4556     -137157.71    
    980800   2485.5985      17397.658      4317.9998     -137166.3     
    980900   2595.7006      4570.9254      4308.4601     -137163.99    
    981000   2444.0218      5441.4057      4366.0831     -137160.17    
    981100   2506.1593     -2947.7763      4455.4059     -137162.16    
    981200   2377.4829     -9683.1877      4524.8324     -137158.44    
    981300   2438.2127     -1919.8103      4518.1191     -137158.52    
    981400   2618.3183     -7347.7117      4472.6668     -137161.5     
    981500   2555.3563      7251.6142      4417.274      -137160.44    
    981600   2363.0064     -6911.6672      4398.6432     -137163.27    
    981700   2517.0679     -6941.6779      4370.315      -137168.93    
    981800   2473.0884      2126.4269      4345.9361     -137160.81    
    981900   2667.6111      11533.868      4351.4322     -137162.23    
    982000   2439.6004     -91.277214      4415.766      -137159.76    
    982100   2499.8363     -17735.946      4476.44       -137162       
    982200   2446.6195     -7909.1517      4441.753      -137158.94    
    982300   2788.5717      13617.558      4374.3999     -137158.45    
    982400   2634.7985      8474.9095      4362.2636     -137157.64    
    982500   2654.6295     -8205.5795      4374.0145     -137163.01    
    982600   2495.2503      2316.7084      4356.9413     -137164.24    
    982700   2443.8608      4384.0767      4363.4706     -137166.21    
    982800   2420.2375     -8164.9787      4403.701      -137164.74    
    982900   2601.3892      2290.5359      4414.689      -137161.01    
    983000   2722.0645      7273.6149      4425.2709     -137161.13    
    983100   2543.2342     -3354.6643      4463.4338     -137163.84    
    983200   2436.8598     -14218.239      4481.46       -137163.93    
    983300   2431.7124     -9402.0055      4445.732      -137160.15    
    983400   2634.3769      8115.7415      4377.0253     -137161.72    
    983500   2732.3161     -5344.0234      4346.0124     -137168.84    
    983600   2610.0433     -1080.3705      4328.0293     -137169.4     
    983700   2340.9517      8743.5518      4330.8797     -137163.17    
    983800   2565.6644     -1210.0225      4352.2144     -137167.44    
    983900   2636.8987     -16612.648      4381.1545     -137166.26    
    984000   2464.9671      685.81852      4357.2455     -137160.2     
    984100   2578.5753      11816.888      4323.9329     -137165.17    
    984200   2254.483      -2016.1544      4348.435      -137161.1     
    984300   2617.1345      546.54671      4355.5024     -137170.32    
    984400   2589.1854     -3823.5042      4378.5507     -137162.35    
    984500   2659.2209      5331.9522      4363.929      -137159.34    
    984600   2556.957       5007.4652      4363.7089     -137161.99    
    984700   2408.5201     -9413.4678      4415.2034     -137165.8     
    984800   2278.1214     -2668.6027      4437.4384     -137159.83    
    984900   2578.542      -3503.6552      4425.5647     -137161.08    
    985000   2852.7132      2492.0763      4391.3205     -137167.27    
    985100   2491.0974      4830.978       4386.6348     -137164.94    
    985200   2362.7845     -3944.1748      4409.7642     -137164.17    
    985300   2418.7681      4953.8959      4395.3268     -137163.65    
    985400   2575.6959     -97.570053      4367.0157     -137165.92    
    985500   2318.6826      6154.0203      4354.4463     -137161.81    
    985600   2359.2556      4318.7384      4359.7353     -137170.08    
    985700   2294.3771     -3659.4878      4369.0882     -137166.46    
    985800   2626.587       6876.2755      4370.8524     -137167.33    
    985900   2513.1532     -5163.5959      4414.3184     -137162.68    
    986000   2490.1492     -8439.1802      4445.9119     -137162.41    
    986100   2512.7175     -1118.7662      4429.7007     -137163.57    
    986200   2612.323      -2173.7783      4406.2718     -137164.45    
    986300   2664.7577      9658.4857      4389.9948     -137164.4     
    986400   2457.2557     -8225.0399      4411.4763     -137161.82    
    986500   2526.1278     -1138.8492      4413.1455     -137167.06    
    986600   2398.8305     -7994.4269      4400.1811     -137166.56    
    986700   2462.0387      5748.8789      4351.9729     -137168.5     
    986800   2442.5759      6652.2101      4335.1684     -137164.59    
    986900   2528.1955      10689.392      4382.6905     -137159.7     
    987000   2571.7962     -1142.8248      4494.7035     -137157.17    
    987100   2445.4729     -7521.8979      4578.8145     -137154.91    
    987200   2384.5367     -6609.9885      4590.2562     -137162.96    
    987300   2246.3323     -8214.8261      4545.9449     -137163.19    
    987400   2462.3038     -114.5458       4452.3152     -137163.56    
    987500   2675.0109     -5909.0814      4343.6489     -137167.49    
    987600   2617.1571      17178.163      4240.2544     -137168.09    
    987700   2382.6734      4693.3577      4252.2586     -137168.16    
    987800   2218.2599     -1789.6809      4305.3191     -137170.88    
    987900   2282.6916     -8749.1457      4353.451      -137165.42    
    988000   2394.0066     -8845.6224      4368.9225     -137162.66    
    988100   2620.6985      3976.0456      4328.8509     -137163.51    
    988200   2536.0017      7880.5281      4310.549      -137158.96    
    988300   2556.5155      3375.4348      4353.8059     -137162.34    
    988400   2379.3725      112.98914      4441.211      -137163.84    
    988500   2255.9733     -5589.869       4519.9806     -137163.06    
    988600   2525.2408     -6421.3057      4551.3747     -137161.47    
    988700   2461.1674     -6720.0732      4543.2249     -137156.78    
    988800   2551.3056      1148.4373      4496.6034     -137160.04    
    988900   2523.3742      2791.7031      4448.6648     -137165.86    
    989000   2358.0254     -5907.086       4432.1336     -137164.49    
    989100   2443.3853     -1908.3829      4407.5008     -137163.24    
    989200   2633.5884      3455.7618      4374.3222     -137159.03    
    989300   2797.2709      4169.5528      4357.1642     -137162.32    
    989400   2595.9696      6152.4712      4379.0979     -137161.02    
    989500   2424.4473      41.299411      4409.8144     -137161.51    
    989600   2476.0121     -2594.3301      4411.0051     -137166.64    
    989700   2379.2859      584.46714      4397.0613     -137163.94    
    989800   2563.4548      6857.6485      4384.4365     -137160.98    
    989900   2637.1894     -1580.5157      4397.2121     -137158.56    
    990000   2623.432      -1973.8302      4407.2527     -137162.15    
    990100   2415.0239      2989.8497      4409.5835     -137160.74    
    990200   2514.3027     -2047.1984      4413.0767     -137164.92    
    990300   2404.5313      1707.4228      4412.0468     -137161.08    
    990400   2511.7167     -5440.3159      4411.3703     -137161.27    
    990500   2566.1277      7980.8626      4399.5726     -137160.5     
    990600   2490.4887     -2490.5143      4435.6597     -137159.16    
    990700   2527.5559     -6951.1989      4467.1949     -137167.48    
    990800   2377.8684     -10137.904      4457.5323     -137169.12    
    990900   2377.6829     -2395.3246      4422.0301     -137163.6     
    991000   2579.2388      2360.2836      4378.8105     -137163.07    
    991100   2454.8735      7785.0278      4347.9235     -137160.9     
    991200   2483.7826     -1752.4683      4349.2273     -137165.13    
    991300   2385.0429     -13379.913      4350.655      -137168.22    
    991400   2231.7358     -631.2251       4321.5832     -137168.55    
    991500   2514.2418      344.36786      4296.5055     -137167.35    
    991600   2604.6194      5526.6074      4304.8672     -137165.29    
    991700   2572.8532      1551.3542      4373.8178     -137167.03    
    991800   2405.7672     -11469.108      4451.9368     -137162.7     
    991900   2620.956       5578.3089      4453.5659     -137162.54    
    992000   2642.9935     -2628.3109      4449.6125     -137160.12    
    992100   2443.7963     -1220.3129      4403.9643     -137163.43    
    992200   2387.9309      293.52561      4343.8139     -137166.76    
    992300   2512.9092      2851.1799      4284.9495     -137167.26    
    992400   2563.5895      4748.1609      4265.5562     -137163.97    
    992500   2631.1393      2655.7394      4301.553      -137168.04    
    992600   2155.5276     -6435.1718      4350.1698     -137164.94    
    992700   2202.8636      4719.0438      4358.1848     -137162.35    
    992800   2637.4234     -4625.8688      4367.4663     -137167.82    
    992900   2648.2505      2029.2743      4391.7808     -137167.44    
    993000   2407.082      -4463.0886      4441.1555     -137161.46    
    993100   2492.685      -6182.7236      4453.0731     -137161.07    
    993200   2672.6682      4655.1782      4413.853      -137160.53    
    993300   2620.4015     -597.00221      4402.4956     -137159.1     
    993400   2393.3127      8137.0006      4411.3831     -137160.71    
    993500   2253.2444     -6321.6049      4443.6191     -137161.47    
    993600   2518.4185     -2604.1946      4427.3517     -137165.09    
    993700   2534.0848     -5032.3834      4388.5217     -137162.49    
    993800   2510.0495      5523.6624      4336.9217     -137162.89    
    993900   2549.9758      3184.5319      4318.4289     -137168.22    
    994000   2394.2009     -1653.2361      4342.57       -137166.89    
    994100   2437.4185     -2093.2668      4373.2927     -137160.61    
    994200   2681.017       4714.1221      4395.1678     -137160.19    
    994300   2479.5036     -2409.5819      4426.9585     -137159.83    
    994400   2375.437       2118.7192      4446.0228     -137161.91    
    994500   2331.1391      553.0521       4451.3993     -137163.28    
    994600   2466.4772     -605.13952      4445.7683     -137160.47    
    994700   2559.5216      2755.8403      4429.4348     -137156.55    
    994800   2525.0025      6981.2515      4413.9675     -137157.62    
    994900   2535.3607     -5257.281       4396.8974     -137163.09    
    995000   2405.8693     -66.312116      4350.0493     -137161.95    
    995100   2449.6748      19432.751      4309.6841     -137162.47    
    995200   2481.6154      808.1226       4351.8723     -137159.96    
    995300   2594.8383      1466.1475      4403.4487     -137154.13    
    995400   2669.0802     -3346.2879      4436.5087     -137158.87    
    995500   2455.259       6982.9944      4446.8822     -137161.77    
    995600   2395.3579      2300.9795      4480.2895     -137160.71    
    995700   2507.3424     -9824.6441      4500.1955     -137160.62    
    995800   2662.2121      849.77668      4461.4515     -137162.01    
    995900   2501.9094      6898.8326      4432.7562     -137156.73    
    996000   2458.8929      5605.5955      4429.8267     -137157.21    
    996100   2535.9142     -14567.888      4443.7405     -137164.03    
    996200   2420.7891      8294.2406      4398.8089     -137164.7     
    996300   2472.6295      866.93136      4376.8871     -137163.13    
    996400   2693.8733     -5703.3195      4369.2916     -137160.24    
    996500   2534.4733      10267.41       4338.9673     -137157.91    
    996600   2423.1829      3976.2155      4355.9985     -137161.41    
    996700   2336.2568     -6832.949       4407.6372     -137159.76    
    996800   2479.6167      60.44441       4426.0441     -137160.55    
    996900   2595.5859     -5124.7598      4437.2068     -137160.3     
    997000   2478.9284      7544.2855      4425.7884     -137160.23    
    997100   2367.5816     -6696.6765      4439.3055     -137165.11    
    997200   2327.3566     -4576.7054      4411.0374     -137163.64    
    997300   2668.115       5621.1115      4354.2482     -137166.11    
    997400   2579.6058      8564.4019      4339.7761     -137159.42    
    997500   2545.7741     -3994.3499      4382.9273     -137165.74    
    997600   2370.9377     -5939.8702      4431.0911     -137167.89    
    997700   2365.9559     -10590.664      4444.1039     -137164.6     
    997800   2376.0732      10850.482      4409.6714     -137157.5     
    997900   2733.6472     -2596.5129      4414.4166     -137163.87    
    998000   2481.2554      4070.464       4435.9577     -137162.01    
    998100   2262.113      -8404.0012      4449.5185     -137162.46    
    998200   2361.5031      3765.4981      4404.9434     -137162.09    
    998300   2493.4124      7460.5948      4371.0967     -137161.84    
    998400   2533.6177      2384.6468      4387.8833     -137161.28    
    998500   2621.7365     -9791.8656      4429.8189     -137163.61    
    998600   2503.1273     -8531.0747      4430.8681     -137166.69    
    998700   2253.5448      7413.4832      4382.8088     -137165.87    
    998800   2492.8463      668.56837      4358.4312     -137166.48    
    998900   2504.9903      11916.575      4339.11       -137161.22    
    999000   2560.6027      9361.782       4352.9354     -137163.22    
    999100   2248.4192     -8288.5994      4379.6272     -137159.9     
    999200   2407.7293      3438.109       4353.7397     -137161.99    
    999300   2683.2294      9242.6501      4326.6337     -137158.26    
    999400   2796.6839     -2625.4301      4354.9732     -137160.07    
    999500   2766.1571     -7025.7561      4396.834      -137163.96    
    999600   2438.6686     -10190.18       4434.0842     -137161.18    
    999700   2471.5972     -6483.1856      4440.7845     -137165.69    
    999800   2469.2078     -784.72956      4393.1579     -137166.52    
    999900   2501.6157      10786.395      4321.4799     -137164.08    
   1000000   2647.6639      4808.4879      4304.5849     -137164.13    
Loop time of 9032.27 on 8 procs for 1000000 steps with 216 atoms

Performance: 9.566 ns/day, 2.509 hours/ns, 110.714 timesteps/s, 23.914 katom-step/s
99.0% CPU use with 8 MPI tasks x 1 OpenMP threads

MPI task timing breakdown:
Section |  min time  |  avg time  |  max time  |%varavg| %total
---------------------------------------------------------------
Pair    | 7660.9     | 7719.3     | 7790.7     |  59.9 | 85.46
Neigh   | 5.6766     | 5.7276     | 5.7649     |   1.3 |  0.06
Comm    | 1166.2     | 1237.2     | 1296       | 149.4 | 13.70
Output  | 12.933     | 14.752     | 25.785     | 108.7 |  0.16
Modify  | 35.905     | 47.226     | 50.082     |  62.8 |  0.52
Other   |            | 7.995      |            |       |  0.09

Nlocal:             27 ave          30 max          24 min
Histogram: 2 1 0 0 0 0 3 0 1 1
Nghost:         623.25 ave         642 max         612 min
Histogram: 3 0 0 2 1 0 0 0 1 1
Neighs:              0 ave           0 max           0 min
Histogram: 8 0 0 0 0 0 0 0 0 0
FullNghs:      2560.25 ave        2822 max        2236 min
Histogram: 2 0 0 1 0 0 1 2 0 2

Total # of neighbors = 20482
Ave neighs/atom = 94.824074
Neighbor list builds = 30164
Dangerous builds = 0
System init for write_data ...
Total wall time: 2:30:32
